LAMMPS data file via write_data, version 22 Jul 2025, timestep = 20447, units = real

1078 atoms
7 atom types
1021 bonds
7 bond types
1628 angles
9 angle types
1658 dihedrals
15 dihedral types
336 impropers
1 improper types

-0.19445457750219575 23.416666797411906 xlo xhi
-0.1974545798673173 23.413666797427283 ylo yhi
-0.24845458747570603 23.362666797475583 zlo zhi

Masses

1 12.01078
2 15.99943
3 12.01078
4 15.99943
5 1.007947
6 6.9412
7 10.8117

Pair Coeffs # lj/cut/coul/long

1 0.108841 3.37953
2 0.168465 3.02511
3 0.0868793 3.48065
4 0.210206 3.03981
5 0.0164092 2.58323
6 0.0279896 1.82634
7 0.095 3.42105

Bond Coeffs # harmonic

1 215.301 1.53363
2 227.037 1.43632
3 357.819 1.09421
4 291.342 1.35606
5 762.039 1.225
6 267.429 1.46787
7 215 1.48

Angle Coeffs # harmonic

1 91.5186 108.173
2 66.7563 109.938
3 63.31 123.606
4 36.7766 108.354
5 119.896 112.874
6 84.5477 120.105
7 50.9018 124.802
8 55 120
9 50 109.5

Dihedral Coeffs # opls

1 1 0.111303 3 0
2 1 0.438911 1 180
3 1 1.76361 2 180
4 1 -0.0153377 3 0
5 1 0.41915 2 0
6 1 0.131135 3 0
7 1 0.436547 1 0
8 1 0.263111 3 0
9 1 0.227995 3 0
10 1 0.302195 2 180
11 1 1.35005 1 180
12 1 3.48187 2 180
13 1 1.04276 2 180
14 1 0.2 3 0
15 1 1 2 180

Improper Coeffs # cvff

1 4.30523 -1 2

Atoms # full

86 9 2 -0.4048 2.5557637412319383 3.5165533516439877 4.134090616219571 0 0 0
84 9 3 0.8478 2.6351777472659377 4.834702620649154 3.7423490054095927 0 0 0
85 9 4 -0.5484 3.0206916056649082 5.727852555129152 4.4704318088128145 0 0 0
724 66 1 0.1266165 6.079318318524029 7.962298046851506 4.836728188694877 0 0 0
953 85 5 0.0582835 5.743589312514349 4.310599315192934 5.994881582091262 0 1 0
723 66 2 -0.3889835 5.8361857772775325 7.280754816333472 3.5672683337131668 0 0 0
728 66 5 0.0582835 6.780937916290554 7.376402991722273 5.463001481474913 0 0 0
703 64 5 0.0582835 7.1185798847269925 3.4658661029770035 1.341398848599892 0 0 1
698 64 4 -0.5800835 5.801667732283175 1.3408515173476225 2.1420765912733755 0 0 1
697 64 3 0.7551165 5.576345906047162 2.0495337776106144 3.1156144975509577 0 0 1
696 64 2 -0.3889835 5.724195978631259 3.45986488730573 2.990836334072556 0 0 1
695 64 1 0.1266165 6.151960084294375 3.879433106978829 1.641756554136527 0 0 1
702 64 5 0.0582835 6.2609425875271745 4.976947888888083 1.6774331408499172 0 0 1
701 64 5 0.0582835 5.41375416995934 3.6291445217236373 0.8779184967961537 0 0 1
83 9 2 -0.4048 2.216252856861814 5.07109110358583 2.4425715161561743 0 0 0
82 9 1 0.0955 1.8167405032341515 3.8475977854286496 1.8727333180813104 0 0 0
81 9 1 0.0955 2.0459068779860243 2.7927286381883905 3.012048847131984 0 0 0
89 9 5 0.0798 2.29487214046938 3.6755667310699356 0.8854060031866726 0 0 0
824 74 5 0.0582835 1.9727055884831088 1.0265794284316756 5.667428743439601 0 1 0
826 74 5 0.0582835 2.604230131085676 1.9514265055143984 6.9164225478261665 0 1 0
87 9 5 0.0798 2.933051817089666 2.1675087914340185 2.699818697770901 0 0 0
820 74 1 0.1266165 1.6844622816131438 1.5456663840469769 6.606242506726505 0 1 0
825 74 5 0.0582835 1.031271864834273 2.3321591834684363 6.326327991415816 0 1 0
598 55 5 0.0582835 0.3147060401923283 4.803762978938075 6.6540259742967445 1 0 0
720 66 2 -0.3889835 4.713266426791559 7.0984884339724665 1.5263005671385543 0 0 0
88 9 5 0.0798 1.1843567314368544 2.128573402698111 3.098734964835831 0 0 0
947 85 1 0.1266165 5.354325685374991 4.1590029649778 6.971568008969705 0 1 0
948 85 2 -0.3889835 5.588027815076355 2.877152687141914 7.55599548561609 0 1 0
954 85 5 0.0582835 4.2610022650275745 4.325826877475907 6.915208747558103 0 1 0
596 55 5 0.0582835 0.4764100445459941 6.546189157768157 6.205004259136032 1 0 0
90 9 5 0.0798 0.7513796158232965 4.005800316183994 1.7336513646564018 0 0 0
699 64 2 -0.3889835 5.150889594561718 1.5990008592822085 4.344993289546374 0 0 1
890 80 4 -0.5800835 3.0095019615422953 1.1278056904524412 -0.10475545253273624 0 0 1
799 72 5 0.0582835 0.9738448708191991 0.4657192910655875 1.373594523557349 1 1 0
819 74 2 -0.3889835 1.1236096173345882 0.6341257643838144 7.592011269731092 0 1 0
994 88 5 0.0582835 2.7731874470146294 6.843290179876834 7.654219621009152 0 0 0
945 84 5 0.0582835 8.611606264683092 5.418078506921534 0.7356751172476339 0 0 0
370 36 5 0.0582835 8.458593687500224 5.080758152043785 3.6747782762686048 0 1 0
364 36 1 0.1266165 9.19288943358676 4.714306211149504 4.395966578444405 0 1 0
363 36 2 -0.3889835 9.00590874698477 3.2905082197419637 4.520442405431374 0 1 0
61 7 1 0.0955 13.283286313584318 6.200015801802859 0.4963074594515333 0 0 0
68 7 5 0.0798 12.436761098202526 6.785639419370844 0.9819285415614492 0 0 0
940 84 1 0.1266165 9.324603129954868 6.138009685012182 1.1496172182361553 0 0 0
944 84 5 0.0582835 10.228507314341837 5.549109507738509 1.4487550129100315 0 0 0
946 84 5 0.0582835 9.634261901580004 6.773533344383287 0.30231326812778625 0 0 0
369 36 5 0.0582835 10.21052037546702 4.960786671669312 4.085934785237124 0 1 0
924 83 2 -0.3889835 13.465858883966494 5.254859430439902 5.495829524105646 0 0 0
925 83 3 0.7551165 13.265016742125509 4.272313168712876 4.506047692606202 0 0 0
927 83 2 -0.3889835 13.483931264463735 2.9813184625390696 4.914789812550444 0 0 0
926 83 4 -0.5800835 12.943633649518983 4.551536997917464 3.3746939182144717 0 0 0
361 36 3 0.7551165 9.28433180445992 2.565907176735096 3.356969735824996 0 1 0
362 36 4 -0.5800835 9.67362664311653 3.1595676314743213 2.3012895792161974 0 1 0
360 36 2 -0.3889835 9.080425160948947 1.19727280367366 3.450317276592441 0 1 0
934 83 5 0.0582835 12.253207692899323 2.0175912416084762 3.6082373418982807 0 0 0
928 83 1 0.1266165 13.283841582708414 1.9758714190446103 3.9194109579650265 0 0 0
933 83 5 0.0582835 13.597956030486653 1.0213763040410846 4.351243069899013 0 0 0
932 83 5 0.0582835 13.972984848435653 2.0732881680201265 3.14266197082411 0 0 0
62 7 1 0.0955 12.991315589465804 4.755227947110024 0.2793786312507478 0 0 0
70 7 5 0.0798 12.48783053709261 4.251625892227962 1.1368405518884805 0 0 0
67 7 5 0.0798 14.205814254606203 6.34802766490604 1.0240823318979853 0 0 0
368 36 5 0.0582835 9.041360019560575 5.2033835083596705 5.353803081657846 0 1 0
69 7 5 0.0798 13.902283885953794 4.279994672679446 0.47963253623260493 0 0 0
929 83 5 0.0582835 12.150755598479275 6.847977954231287 4.761143841686046 0 0 0
923 83 1 0.1266165 13.220094235492223 6.666528153733706 5.054398195852197 0 0 0
365 36 5 0.0582835 10.438215020018593 0.7373055758893325 1.9245986009492722 0 1 0
931 83 5 0.0582835 13.953122355300051 6.965183737830067 4.223029217011857 0 0 0
930 83 5 0.0582835 13.343591150235047 7.224409685970235 5.97711915405361 0 0 0
968 86 5 0.0582835 11.33310111243351 1.2605409190933563 7.1829546401441755 0 0 0
938 84 4 -0.5800835 10.682543803901522 7.966380302355388 2.3513096289669773 0 0 0
367 36 5 0.0582835 8.638077616480302 0.8147636957881426 1.5177348159896724 0 1 0
359 36 1 0.1266165 9.378214790190327 0.4901542600029206 2.2119590370803244 0 1 0
964 86 1 0.1266165 11.598057775285453 0.344029156375692 6.628281183140038 0 0 0
969 86 5 0.0582835 11.480853436980587 0.4947935233990165 5.556393824130184 0 0 0
592 55 1 0.1266165 -0.09033719093001037 5.625552233240395 6.084567425380534 1 0 0
591 55 2 -0.3889835 23.277776486182603 5.204104469820864 4.747609833720259 0 0 0
597 55 5 0.0582835 22.597675278195954 5.824710900465959 6.659355542829839 0 0 0
131 14 1 0.0955 23.09658038486576 7.483654422583644 -0.09168447617895087 0 0 1
390 38 5 0.0582835 15.278805167114635 1.055101150973859 -0.12530834690522497 0 0 0
389 38 5 0.0582835 15.832080016714908 2.61912177980072 0.6369496760451232 0 0 0
383 38 1 0.1266165 16.197589433271755 1.601285475200643 0.24743992062581643 0 0 0
846 76 5 0.0582835 16.189309268718752 3.522338396436926 6.10111369355243 0 0 0
839 76 1 0.1266165 17.21715268280495 3.2232362349391224 6.417596536967826 0 0 0
845 76 5 0.0582835 17.865557495583523 2.752323915233441 5.5907725532601775 0 0 0
386 38 4 -0.5800835 18.223017300786054 3.119088645857808 0.7455259809097636 0 0 0
587 55 1 0.1266165 21.33825946687736 2.655771301081783 3.2057116123147926 0 0 0
588 55 2 -0.3889835 22.20679559052189 3.728045521162492 3.36805783316997 0 0 0
589 55 3 0.7551165 22.445441849490862 4.140920193622415 4.618934656739207 0 0 0
593 55 5 0.0582835 20.379328306810763 2.91922549558086 3.5962953591715423 0 0 0
594 55 5 0.0582835 21.16626834848285 2.3851456047762527 2.180492797257146 0 0 0
595 55 5 0.0582835 21.712194484302252 1.8049479261492638 3.761176380891049 0 0 0
1063 99 3 0.66 17.38751631771341 5.543383155510332 2.6416023171544385 0 0 1
1064 99 4 -0.58 17.284485807731063 4.794461409349715 3.631787295924831 0 0 1
1065 99 2 -0.58 16.397812234066887 6.074492553241034 1.8552073269475553 0 0 1
590 55 4 -0.5800835 21.89572195477388 3.5598478083504106 5.5413472945007145 0 0 0
1040 98 4 -0.58 21.855319985426117 0.7848702605528298 6.04732823452106 -1 1 0
1062 99 4 -0.58 19.811550303041667 5.671899945496601 2.5958157049357746 0 0 1
1061 99 3 0.66 18.684921929704103 5.98656979158255 2.1160058079198296 0 0 1
391 38 5 0.0582835 16.5957176548573 0.9380308139251885 1.0142010785118492 0 0 0
996 90 6 1 20.919861440989617 2.42741277728814 6.798421867278907 0 0 0
583 54 5 0.0582835 19.35531275519612 0.7370956184435801 1.6856292607612497 0 0 0
139 14 5 0.0798 21.728069656371503 5.99956794405773 0.7335313752509487 0 0 1
132 14 1 0.0955 22.116525770752183 6.334990474973757 -0.24543283739842978 0 0 1
1056 99 7 1 16.900569401665447 6.874615095470567 0.7809334536398107 0 0 1
36 4 2 -0.4048 16.293900335564704 7.614328117517462 6.028760057802797 -1 0 0
38 4 5 0.0798 17.563108314023857 6.038148916617539 6.003504478302998 -1 0 0
1060 99 2 -0.58 18.3606096991835 6.751551503790465 1.040177890194374 0 0 1
797 72 5 0.0582835 23.017489475622728 0.04854705400171658 2.2140972978538223 0 1 0
31 4 1 0.0955 17.531128904052192 6.987270688016646 6.562647849308775 -1 0 0
32 4 1 0.0955 18.67297552991718 7.991175372282058 6.131613620330299 -1 0 0
40 4 5 0.0798 19.56017673516929 7.468345887198681 5.715437019373938 -1 0 0
847 76 5 0.0582835 17.880885120631152 3.9925838095969617 6.7704105515976885 0 0 0
840 76 2 -0.3889835 17.09224562943009 2.2594330006932832 7.534815845201976 0 0 0
842 76 4 -0.5800835 19.318980486529107 2.0874643728518225 7.651135766021514 0 0 0
730 66 5 0.0582835 5.124972158008649 8.014320632502693 5.4024587392310846 0 0 0
721 66 3 0.7551165 4.885816382240578 7.824711723655886 2.685956707194341 0 0 0
692 63 5 0.0582835 0.4065775199399817 7.903008774812196 4.242812615206935 0 0 0
727 66 5 0.0582835 2.726852338121031 7.707332535309656 1.056559316068443 0 0 0
694 63 5 0.0582835 2.063233900817152 8.042041157032937 4.248762368160656 0 0 0
729 66 5 0.0582835 6.534181338912006 8.90881623786747 4.644472127083841 0 0 0
688 63 1 0.1266165 1.164157256666569 8.663417417177564 4.309454342181991 0 0 0
693 63 5 0.0582835 1.1756438403555853 9.185046865942894 3.3607587388342206 0 0 0
687 63 2 -0.3889835 1.218081434686964 9.52443423434034 5.489573519070796 0 0 0
685 63 3 0.7551165 2.3360986852130625 10.136456477181085 5.797961557507416 0 0 0
684 63 2 -0.3889835 2.378594191823291 10.976152671673024 6.909068997072764 0 0 0
722 66 4 -0.5800835 4.217627011387269 8.859703440866529 2.8738147289327576 0 0 0
464 44 5 0.0582835 0.5870451352820818 11.034541726232321 1.6123657121705888 0 0 0
686 63 4 -0.5800835 3.378318172661286 10.044549976741305 5.125097611943949 0 0 0
995 89 6 1 4.063555974792194 10.749812946175343 3.403115562610444 0 0 0
434 42 4 -0.5800835 5.879553607016437 11.06798776068212 3.234478217659097 0 0 0
433 42 3 0.7551165 7.025391152601327 11.559581895967314 3.201157741083459 0 0 0
437 42 5 0.0582835 6.995872297685983 10.895698542788512 0.5483636621612732 0 0 0
439 42 5 0.0582835 7.335026446555029 9.458610950887754 1.658656430121765 0 0 0
691 63 5 0.0582835 4.456358016074012 10.85098692171555 7.311164460493437 0 0 0
155 16 4 -0.5484 7.043705291840868 9.669298191275786 7.205064964123743 0 0 0
154 16 3 0.8478 7.719696745553465 9.20582078562958 8.110702944472337 0 0 0
993 88 5 0.0582835 4.43066717299215 7.230109108334431 7.940496928836545 0 0 0
460 44 1 0.1266165 0.8917506531347819 10.970671745815052 0.5655257163653412 0 0 0
939 84 2 -0.3889835 8.723300341222279 6.870033707121916 2.24070800524607 0 0 0
431 42 1 0.1266165 7.72581591789689 10.43244849312071 1.2063657115361264 0 0 0
432 42 2 -0.3889835 8.040763573234592 11.364804781409628 2.294190430570093 0 0 0
438 42 5 0.0582835 8.655581026345303 10.26995326156323 0.6464528903941994 0 0 0
937 84 3 0.7551165 9.522484442628198 7.78882464175925 2.7716742432124812 0 0 0
19 2 5 0.0798 12.126821088036431 9.79280050147953 1.0484011814500018 0 0 0
936 84 2 -0.3889835 9.071082802301962 8.5564006815081 3.800310580875438 0 0 0
18 2 5 0.0798 13.17098364709763 9.735993948996288 3.5315673109414276 0 0 0
11 2 1 0.0955 13.495013334008076 10.17344427843964 2.636607272014091 0 0 0
943 84 5 0.0582835 10.759787121046068 9.127168113927961 4.881393982908271 0 0 0
941 84 5 0.0582835 10.290176658506763 10.333058858012599 3.6090741764248944 0 0 0
935 84 1 0.1266165 9.924149220638707 9.580451589665927 4.417389694592308 0 0 0
1033 97 4 -0.58 12.459824949749468 11.193853816470964 5.296146330609965 0 0 0
12 2 1 0.0955 12.591345402218415 10.634197079945785 1.6166705762880607 0 0 0
20 2 5 0.0798 11.824802268273675 11.167499112137087 2.088075518092295 0 0 0
13 2 2 -0.4048 13.325759095227541 11.5479351617667 0.78416807210331 0 0 0
942 84 5 0.0582835 9.366674410971493 10.030226265597674 5.204366867580782 0 0 0
17 2 5 0.0798 13.884174311620434 9.219391560739238 2.173229888665944 0 0 0
16 2 2 -0.4048 14.729383124988201 10.80616364971151 2.3748136063232876 0 0 0
1032 97 3 0.66 12.917895882060215 11.07726150022125 6.43140568354111 0 0 0
1031 97 2 -0.58 13.044753567006437 9.876437345900184 7.076597153423572 0 0 0
137 14 5 0.0798 23.07312271227021 7.608850308297142 0.9890962507671064 0 0 1
39 4 5 0.0798 19.077952756485786 8.461650549180368 7.049282729752141 -1 0 0
33 4 2 -0.4048 18.036376309800218 9.034831833292529 5.423334541251699 -1 0 0
215 22 4 -0.5484 21.540756911532494 10.994069613352158 3.1006844662819315 -1 0 0
213 22 2 -0.4048 19.766630260775777 10.512553218930774 1.6642292782170562 -1 0 0
214 22 3 0.8478 20.361370159135458 11.107084893096248 2.782209959823111 -1 0 0
212 22 1 0.0955 18.365023690939523 10.860440486751035 1.5790021173037356 -1 0 0
217 22 5 0.0798 17.51284044120917 11.086012123045098 3.3916803931699877 -1 0 0
1057 99 2 -0.58 16.529286991740964 8.294750713568126 0.6852260031775128 0 0 1
34 4 3 0.8478 16.694451115826137 8.762484354907585 5.402406051109742 -1 0 0
219 22 5 0.0798 17.615582913107875 10.028789260451573 1.5986033774240178 -1 0 0
220 22 5 0.0798 18.18538065976974 11.490977652419392 0.7581334315400332 -1 0 0
35 4 4 -0.5484 15.890406605692615 9.514009662206034 4.855535091705098 -1 0 0
700 64 1 0.1266165 4.952711590415693 0.26637622907778447 4.577642065506763 0 0 1
705 64 5 0.0582835 4.536189099698014 0.08802036328193868 5.594921297130721 0 0 1
706 64 5 0.0582835 4.2892890367405485 -0.15449181349646668 3.8204901004615746 0 0 1
248 25 5 0.0798 6.8572845434389915 0.20327474643907362 -0.23907995287878198 0 0 0
963 86 2 -0.3889835 12.905601154195503 -0.05099170276897208 7.098759002704227 0 0 0
153 16 2 -0.4048 7.38362082929295 8.208314918673217 9.05556791712259 0 0 0
955 85 5 0.0582835 5.680251227800537 4.951863016210096 7.6308671831224295 0 1 0
949 85 3 0.7551165 6.836227038427808 2.5530478055243604 7.836919685356838 0 1 0
984 88 2 -0.3889835 2.422133961759342 5.591944557453644 11.481961090890943 0 0 0
985 88 3 0.7551165 2.3811302646357637 6.376976733897057 10.39735551095946 0 0 0
986 88 4 -0.5800835 1.4543365625027909 7.071699799763381 10.114249659128122 0 0 0
987 88 2 -0.3889835 3.4875860645521244 6.304930156633092 9.634383993046084 0 0 0
80 8 5 0.0798 5.7674819334723 2.8549630054855477 11.072327264733923 0 0 0
72 8 1 0.0955 5.257490826025317 3.8125940035476145 11.38306219831412 0 0 0
77 8 5 0.0798 6.462186342379812 5.6790683435832285 11.478932489139925 0 0 0
79 8 5 0.0798 4.862884367875515 4.282702969575798 10.461218634349468 0 0 0
301 31 1 0.0955 1.023953405734798 2.191301029327444 10.89535466240959 0 0 0
306 31 2 -0.4048 0.6127229393055487 2.9613081823374867 9.790777140605787 0 0 0
307 31 5 0.0798 1.9191551319311824 1.618094523620297 10.482376001330493 0 0 0
304 31 3 0.8478 22.97878870479355 2.440540977064279 9.337878636900962 -1 0 0
302 31 1 0.0955 0.03224206579715702 1.151883486633233 11.153135237934142 0 0 0
950 85 4 -0.5800835 7.7291163773734 3.340188876399966 7.60918676513279 0 1 0
951 85 2 -0.3889835 7.069976004702393 1.3206618997683208 8.395731288427774 0 1 0
952 85 1 0.1266165 8.512332786112378 1.0627402483535615 8.70307792045352 0 1 0
160 16 5 0.0798 8.091735433858993 8.233418851661783 10.908383071357083 0 0 0
305 31 4 -0.5484 22.31132712145118 2.8293541415033117 8.443988170915619 -1 0 0
309 31 5 0.0798 0.46562195074805457 0.15249249876298032 11.220049174558119 0 0 0
957 85 5 0.0582835 8.597573562260148 0.08647646188964458 9.20016619448136 0 1 0
958 85 5 0.0582835 9.158659936900936 1.1506433625772141 7.83100670706308 0 1 0
260 26 5 0.0798 11.965065898045879 5.87221551301216 7.383036762626466 0 0 0
956 85 5 0.0582835 8.908784901491977 1.6896808383985673 9.466186217645642 0 1 0
258 26 5 0.0798 11.512881800736949 3.6320526215198186 6.8512907856190814 0 0 0
259 26 5 0.0798 12.985479020695413 5.212138610833598 8.745058974195453 0 0 0
252 26 1 0.0955 11.985902417851202 5.178989553906351 8.253999316405515 0 0 0
251 26 1 0.0955 11.879637845213201 3.7227552752297584 7.8616473770337 0 0 0
256 26 2 -0.4048 10.95176883885094 3.171386540924683 8.781643084101809 0 0 0
253 26 2 -0.4048 11.119507963903464 5.402853031559634 9.333391910819696 0 0 0
254 26 3 0.8478 10.506172732786213 4.178852276888696 9.632008492928067 0 0 0
255 26 4 -0.5484 9.667815528725507 3.9048024932137606 10.535392766304197 0 0 0
257 26 5 0.0798 12.827757719402099 3.2754529210734056 7.778637953301786 0 0 0
380 37 5 0.0582835 12.386328760774632 1.5644227423366843 10.8201137799325 0 0 0
152 16 1 0.0955 8.395021161284335 7.917641114269205 9.931893546277651 0 0 0
159 16 5 0.0798 8.740127384611107 6.902895882949171 9.860958256570719 0 0 0
1036 97 4 -0.58 12.919255879173067 8.097133009259448 11.169640044025165 0 0 0
1038 97 4 -0.58 15.618556885760965 7.536562834800226 9.776081790593675 0 0 0
374 37 4 -0.5800835 14.005232271237468 3.565701836681341 10.329750149166049 0 0 0
37 4 5 0.0798 17.583863956869003 6.658816040281051 7.6688914185897215 -1 0 0
303 31 2 -0.4048 22.5992321066478 1.4021426937887145 10.10385788529297 -1 0 0
841 76 3 0.7551165 18.23846385342 1.781187972731899 8.046002264531355 0 0 0
373 37 3 0.7551165 14.590341356990512 3.0140193677159357 11.295856103367788 0 0 0
45 5 4 -0.5484 20.18244102765139 5.4949144806906745 7.789388928583113 0 0 0
843 76 2 -0.3889835 18.095649734345105 0.913934585641017 9.029553082890274 0 0 0
371 37 1 0.1266165 16.501690839546487 4.1957048670394075 10.67177515684826 0 0 0
377 37 5 0.0582835 15.996179261633145 5.176678599392201 10.71018768654795 0 0 0
378 37 5 0.0582835 17.553290463802206 4.3115163877512686 10.972064037894414 0 0 0
379 37 5 0.0582835 16.605892432467694 3.850231178441695 9.621628938982596 0 0 0
46 5 2 -0.4048 20.48217919656342 5.238155198277602 10.002871086233219 0 0 0
41 5 1 0.0955 21.030574206239105 6.002760323089548 11.098097336903045 0 0 0
44 5 3 0.8478 20.57669849172513 5.946830079042735 8.837736796395223 0 0 0
43 5 2 -0.4048 21.142429477364438 7.148182473770715 9.079928243239452 0 0 0
844 76 1 0.1266165 19.291706241334637 0.3205707615534109 9.649114782927741 0 0 0
848 76 5 0.0582835 20.096451136721427 1.0713175832236623 9.781642936274173 0 0 0
48 5 5 0.0798 21.96464972452074 5.453688033999373 11.309903896589075 0 0 0
849 76 5 0.0582835 19.108273571233887 -0.06890574471777855 10.612219413235097 0 0 0
988 88 1 0.1266165 3.4835976134776314 7.173519192327049 8.433717646249137 0 0 0
992 88 5 0.0582835 3.202160073373495 8.11304168066687 8.704396050573072 0 0 0
200 20 5 0.0798 1.3825446652367819 9.471985132660054 10.247417329777807 0 0 0
227 23 5 0.0798 5.967521708649727 10.586641576214676 10.616807036379152 0 0 0
221 23 1 0.0955 5.669936852619502 11.59100850737167 10.283878342371112 0 0 0
228 23 5 0.0798 4.681478086000769 11.50041192632457 9.825416335094834 0 0 0
199 20 5 0.0798 1.9443268321810372 10.842426070663112 10.985876493226998 0 0 0
192 20 1 0.0955 1.0806895663758387 10.299540121080366 10.849877438063638 0 0 0
193 20 2 -0.4048 0.1464383782020544 11.138073202765675 10.21763517470094 0 0 0
194 20 3 0.8478 22.638388319262393 11.16687657040432 11.070766782846746 -1 0 0
1035 97 3 0.66 13.417552733178319 8.612088421214649 10.168101720080784 0 0 0
1037 97 3 0.66 14.733890851110468 8.336865882087203 9.490321538722775 0 0 0
156 16 2 -0.4048 9.00010759126835 9.601795451727103 8.339871131394984 0 0 0
158 16 5 0.0798 9.950985208880377 9.367342739387936 10.231383630252179 0 0 0
151 16 1 0.0955 9.462297639439308 8.818619935721156 9.46487726230121 0 0 0
1030 97 7 1 13.602568655954807 10.014136765562071 8.375008441984331 0 0 0
1029 97 2 -0.58 13.836060909126399 11.46523256986956 8.457947381636602 0 0 0
157 16 5 0.0798 10.326996181147459 8.318975886768456 9.078353728331056 0 0 0
1039 97 2 -0.58 14.759538667607275 9.217344450622429 8.447407795212161 0 0 0
1034 97 2 -0.58 12.82870309840554 9.560506889009083 9.49301226206002 0 0 0
207 21 5 0.0798 16.46707321775351 10.806307865116777 7.384781864068039 0 0 0
42 5 1 0.0955 21.48192665645528 7.33435974420543 10.421446778299991 0 0 0
50 5 5 0.0798 22.574505102180034 7.371218711875564 10.677147160918386 0 0 0
49 5 5 0.0798 20.944071749313164 8.222822381408575 10.798663221352937 0 0 0
962 86 4 -0.5800835 12.120545768130793 -0.18354593495873672 9.242416023300892 0 0 0
967 86 5 0.0582835 14.399484552806605 -0.18313528835631132 10.813621484889634 0 0 0
392 38 5 0.0582835 20.679787520025247 3.5156927050781928 0.2842349461261573 0 0 0
719 66 1 0.1266165 3.6968299009326824 7.614948391756739 0.5785505418638647 0 0 0
725 66 5 0.0582835 3.8822188032372704 8.70660613955371 0.3610116352497236 0 0 0
466 44 5 0.0582835 1.5604137745673279 10.0849988716926 0.3993709382946673 0 0 0
465 44 5 0.0582835 0.06189240584177813 10.778484530218723 -0.12795907187403044 0 0 0
140 14 5 0.0798 21.24009458723361 6.573313891184502 22.825047657751163 0 0 0
385 38 3 0.7551165 18.20733992510702 2.665689300984678 23.22297060793849 0 0 -1
384 38 2 -0.3889835 17.195715500237345 1.858775293689925 22.835497426761318 0 0 -1
138 14 5 0.0798 22.69750350585284 8.367958920996708 22.969814038437157 0 0 0
136 14 2 -0.4048 0.7200118621820971 7.0277926545013 22.968200097751897 1 0 0
73 8 2 -0.4048 4.2386408256304655 3.5442046179204536 12.297467561943392 0 0 0
78 8 5 0.0798 7.143979059462384 4.294022073855659 12.286794998605393 0 0 0
76 8 2 -0.4048 5.690031035360189 5.027365511414458 13.347974823986647 0 0 0
75 8 4 -0.5484 3.7588430011492537 4.218639533701045 14.474672933148549 0 0 0
71 8 1 0.0955 6.22751845499675 4.783567043986345 12.063278548394265 0 0 0
74 8 3 0.8478 4.511436449488131 4.271632773207244 13.485103781544566 0 0 0
101 11 1 0.0955 6.117095311198294 8.197019554584458 14.498862890300686 0 0 0
107 11 5 0.0798 6.849006698800359 7.399073500611711 14.612083751175357 0 0 0
308 31 5 0.0798 1.4489980402168878 2.6860058585334987 11.780805537525728 0 0 0
109 11 5 0.0798 4.69552868987394 6.72905957107879 15.114125908815355 0 0 0
990 88 5 0.0582835 1.3723627406922414 4.835396780521293 13.218943772349288 0 0 0
983 88 1 0.1266165 1.2757472988295433 5.566330626858997 12.412737780317073 0 0 0
989 88 5 0.0582835 0.40205038178879593 5.315863901324406 11.909556564002415 0 0 0
991 88 5 0.0582835 1.1701241496982142 6.546114439953317 12.831961178741391 0 0 0
102 11 1 0.0955 4.705026313240541 7.761182830317819 14.862924992008683 0 0 0
1075 100 4 -0.58 23.118046873206417 7.391048050777149 15.030863249175574 -1 0 0
499 47 5 0.0582835 2.1164205150196933 0.9047387071629196 13.391691537574884 0 0 0
491 47 1 0.1266165 2.847578993791271 0.27419150885850635 13.800790297733881 0 0 0
498 47 5 0.0582835 3.8009729773023357 0.8544066265872805 13.830225198933524 0 0 0
375 37 2 -0.3889835 13.963337903430526 2.1683353626860673 12.10364553626516 0 0 0
167 17 5 0.0798 10.00170570528564 7.173469202723869 13.60302167826192 0 0 0
376 37 1 0.1266165 12.600365388461686 1.9447675532603261 11.796265371907893 0 0 0
161 17 1 0.0955 11.079144340388186 6.9753311802086735 13.92022594547699 0 0 0
382 37 5 0.0582835 12.013614593969264 2.878228777481698 11.91297120292729 0 0 0
169 17 5 0.0798 11.01148852346882 5.465191930768025 12.218419418511512 0 0 0
162 17 1 0.0955 11.536070377240527 5.76320707380935 13.112733087915839 0 0 0
381 37 5 0.0582835 12.20486766905591 1.2182278663570025 12.490563895705685 0 0 0
548 51 5 0.0582835 9.690078518294024 3.35100075898972 13.519534860333454 0 0 0
543 51 2 -0.3889835 9.961556098891908 1.4560783918127398 14.153198085129766 0 0 0
187 19 5 0.0798 14.336280287986034 4.838667787568381 13.816209651680563 0 0 0
550 51 5 0.0582835 8.10882801144395 2.461245973836791 13.706243165761306 0 0 0
549 51 5 0.0582835 9.268987384356251 2.254597192150749 12.272478271531282 0 0 0
544 51 1 0.1266165 9.145871184317082 2.4337227201147846 13.356960489664436 0 0 0
168 17 5 0.0798 11.579160856577323 7.806915854246554 13.580336239812649 0 0 0
170 17 5 0.0798 12.531332675277211 5.9733927450511395 12.775159883710234 0 0 0
164 17 3 0.8478 11.415096621471642 5.259120873536734 15.356469539210526 0 0 0
166 17 2 -0.4048 11.050908617832084 6.5570944549513035 15.29367040066835 0 0 0
163 17 2 -0.4048 11.68937553802247 4.769656678196485 14.156508803617912 0 0 0
542 51 4 -0.5800835 9.168308158398228 2.4145792755221818 16.076432637470035 0 0 0
541 51 3 0.7551165 9.86761992010456 1.589492343186746 15.489318595838707 0 0 0
189 19 5 0.0798 13.748070651453792 2.7835785150253285 14.768872492071331 0 0 0
182 19 1 0.0955 14.728449740808973 3.154143030724688 15.16118475203397 0 0 0
310 31 5 0.0798 23.05499802316474 1.3971863703734264 12.020680291022776 -1 0 0
764 69 5 0.0582835 15.7073910306655 7.92562782791731 12.643168877262735 0 0 0
884 79 5 0.0582835 16.085789112259874 0.3651542457528901 12.568188559916631 0 0 0
372 37 2 -0.3889835 15.865880715186172 3.240164015897018 11.589225689929389 0 0 0
113 12 2 -0.4048 21.251241404166205 0.5742645194951952 14.866061661617811 0 0 0
115 12 4 -0.5484 20.15802540653029 0.5745437785805795 12.87127202865116 0 0 0
114 12 3 0.8478 20.662804601535754 0.02483176129041728 13.77553068371964 0 0 0
759 69 2 -0.3889835 17.17664179990656 8.658157434625148 13.85145409100712 0 0 0
47 5 5 0.0798 20.331424323383096 6.13955317470751 11.961139838335198 0 0 0
190 19 5 0.0798 15.497814008063658 2.5142967933715985 14.806333923364072 0 0 0
181 19 1 0.0955 15.03764087561058 4.525279278551873 14.597067809420363 0 0 0
188 19 5 0.0798 16.126523917078 4.520558916725159 14.269389615727956 0 0 0
907 81 5 0.0582835 21.180235622185524 4.983036498345941 14.470726934678225 0 0 0
902 81 4 -0.5800835 18.758369578825697 3.6236384117490523 15.047249137865721 0 0 0
899 81 1 0.1266165 20.49626218493431 5.496857651627186 15.223896784547865 0 0 0
905 81 5 0.0582835 19.53565654497345 5.880158216393962 14.81167914923057 0 0 0
906 81 5 0.0582835 21.031051792058946 6.360987859197117 15.62526741771606 0 0 0
106 11 2 -0.4048 6.027074844893789 8.611389265896747 13.1566307083026 0 0 0
108 11 5 0.0798 6.482429724014173 9.022095242575263 15.075911492958117 0 0 0
110 11 5 0.0798 4.306678805239436 8.34084232788314 15.67766173979115 0 0 0
198 20 5 0.0798 0.32550230947043823 8.755183985427903 12.272862918763282 0 0 0
197 20 5 0.0798 1.140078288474862 10.03287074472694 13.043423397106848 0 0 0
104 11 3 0.8478 4.721726827450039 8.467004730522875 12.689299467478337 0 0 0
103 11 2 -0.4048 3.908963781755464 7.960663157702555 13.699467993548243 0 0 0
105 11 4 -0.5484 4.381435792790277 8.739896802453814 11.565860190565536 0 0 0
191 20 1 0.0955 0.4652387364179622 9.798157053951737 12.19213666852369 0 0 0
1074 100 3 0.66 0.19617105803605583 8.234947757083479 15.587974456989592 0 0 0
1073 100 2 -0.58 0.1489309412019324 9.548851620476265 15.417862956739365 0 0 0
196 20 2 -0.4048 22.797945742333937 10.424971236453898 12.225441984099497 -1 0 0
1018 96 2 -0.58 8.444229035968524 11.434599872534383 12.964178934731905 0 0 0
1020 96 4 -0.58 8.70612220610455 9.229517967601298 12.680753873707982 0 0 0
1019 96 3 0.66 8.697348468487947 10.203924670536908 13.432913146144996 0 0 0
972 87 2 -0.3889835 13.91928080979131 9.372668987936189 13.892685951794451 0 0 0
973 87 3 0.7551165 14.0049625831565 10.59104800976266 13.351382594261326 0 0 0
974 87 4 -0.5800835 13.472862277834533 11.587147206026527 13.904247891364905 0 0 0
977 87 5 0.0582835 12.23341518545421 9.76921054728917 15.131159799887037 0 0 0
975 87 2 -0.3889835 14.675127368188585 10.554353554268257 12.157367888333917 0 0 0
1015 96 3 0.66 8.939346372410103 10.172016383999841 14.872675936468202 0 0 0
1016 96 2 -0.58 8.79847419925185 11.475503036872087 15.305185762288659 0 0 0
1014 96 4 -0.58 9.18799879280319 9.208757303559157 15.603850521849196 0 0 0
971 87 1 0.1266165 13.207705632031496 9.262056152605261 15.183288878534102 0 0 0
978 87 5 0.0582835 13.01363744797346 8.236192560174269 15.440513555843333 0 0 0
979 87 5 0.0582835 13.845081064959011 9.683998736162513 15.98805543452017 0 0 0
766 69 5 0.0582835 17.141175374661465 6.9470248200724205 12.722352210413487 0 0 0
760 69 1 0.1266165 16.82821172204421 7.964066894182974 12.663809025604431 0 0 0
756 69 2 -0.3889835 18.901310467376536 9.595695749371334 15.048315475574851 0 0 0
763 69 5 0.0582835 20.896362634992162 9.030535794092925 15.112563833899353 0 0 0
755 69 1 0.1266165 20.277449901669925 9.899773016693455 15.095527563195912 0 0 0
757 69 3 0.7551165 18.5335678745699 8.929031376463092 13.913375401302378 0 0 0
762 69 5 0.0582835 20.441031086013833 10.61279114220279 15.9593924202664 0 0 0
758 69 4 -0.5800835 19.33493134669964 8.60666810229748 13.044110300213655 0 0 0
765 69 5 0.0582835 17.180582001031137 8.432624847524988 11.73669443232075 0 0 0
761 69 5 0.0582835 20.525868847920233 10.524427662794372 14.232645941239355 0 0 0
474 45 5 0.0582835 23.351898089701976 3.727226276316585 15.263503230687549 -1 0 0
893 80 5 0.0582835 3.9225484394649 2.9798248367347955 21.51050731465146 0 0 0
134 14 3 0.8478 0.5238994666070002 5.743480609087199 22.5120689675226 1 0 0
894 80 5 0.0582835 2.93757191791467 2.6446143471969705 20.109690375163254 0 0 0
60 6 5 0.0798 2.9779727993873224 4.4172903521858675 18.093988493479426 0 0 0
52 6 1 0.0955 3.800273819801976 4.9568570323846375 18.59765094894002 0 0 0
59 6 5 0.0798 4.209493799208972 4.033824714769164 19.055503854904906 0 0 0
53 6 2 -0.4048 5.0256509450562525 5.424564667304155 17.936576793013074 0 0 0
887 80 1 0.1266165 3.0652045587254055 2.3588048152435586 21.143263441570948 0 0 0
57 6 5 0.0798 3.6322854962614013 5.252851577945731 20.717934030820253 0 0 0
51 6 1 0.0955 3.6293377118309924 5.805499058325221 19.749500464804296 0 0 0
889 80 3 0.7551165 3.3663424247645186 0.4187294442500392 22.534484431107284 0 0 0
54 6 3 0.8478 5.575240542185933 6.4379964631498945 18.596005089692685 0 0 0
895 80 5 0.0582835 2.1184150194421285 2.603725491792069 21.68905320665264 0 0 0
888 80 2 -0.3889835 3.434334497096777 0.9461901386481386 21.266363179777343 0 0 0
231 24 1 0.0955 6.1170768564960705 0.9945495020485513 17.545023368010984 0 0 0
5 1 4 -0.5484 6.438311989705379 4.138866389702553 21.475210793175073 0 0 0
478 45 5 0.0582835 2.162473887733589 -0.1228857727800736 18.96778609599058 0 0 0
237 24 5 0.0798 5.322519219496172 0.9333042255080897 18.304751924744952 0 0 0
232 24 1 0.0955 5.814843184626949 2.069540801721442 16.498106015816806 0 0 0
239 24 5 0.0798 4.771271486050232 2.36186416787259 16.607525850314218 0 0 0
470 45 4 -0.5800835 2.331629027199258 1.501033333516525 16.798661864503107 0 0 0
469 45 3 0.7551165 1.1387900167989828 1.2704735279148602 16.965086556741383 0 0 0
467 45 1 0.1266165 0.5926016876362228 3.1484203517737397 15.64056689268086 0 0 0
473 45 5 0.0582835 1.171205604859508 2.8673469020034648 14.792750135843269 0 0 0
58 6 5 0.0798 2.716783495831429 6.378926182955279 19.653175620641846 0 0 0
135 14 4 -0.5484 1.3938133609416212 5.087318503330414 21.98418236469034 1 0 0
250 25 5 0.0798 6.108689701220247 1.0948821377984357 21.412084154115085 0 0 -1
233 24 2 -0.4048 5.971742956746404 1.3783739143979181 15.269623240013381 0 0 0
234 24 3 0.8478 6.307577499323323 0.04844447102816521 15.535539488809569 0 0 0
55 6 4 -0.5484 6.609739446329505 7.071433770111518 18.30549631822504 0 0 0
56 6 2 -0.4048 4.810489996092692 6.783686059492533 19.730196410680442 0 0 0
726 66 5 0.0582835 3.607226809894775 7.072788019655411 23.242316421892042 0 0 -1
4 1 3 0.8478 7.4703370044828645 4.28388378712915 20.796701956647855 0 0 0
471 45 2 -0.3889835 0.5631171344210457 0.26136274370281676 17.664378217063877 0 0 0
468 45 2 -0.3889835 0.12187709677622116 2.0475743440550134 16.40976454876337 0 0 0
242 25 1 0.0955 6.822168889720032 0.24435076322449356 21.22075977461121 0 0 -1
238 24 5 0.0798 7.0001429276624085 1.2817339614769627 18.158656859038572 0 0 0
240 24 5 0.0798 6.498009058208593 2.8760266664975718 16.623406017606925 0 0 0
6 1 2 -0.4048 7.487740601252868 4.197159434865052 19.375459250536224 0 0 0
243 25 2 -0.4048 7.833675388656378 0.8064802182179462 20.423988465461214 0 0 -1
475 45 5 0.0582835 1.1133487057911715 3.9127726859187035 16.28115196079684 0 0 0
1077 100 4 -0.58 1.7069448872693334 6.989426128814558 17.13537110265419 0 0 0
738 67 5 0.0582835 6.365171427755299 6.860437971277931 22.20062596494711 0 0 -1
66 7 2 -0.4048 13.285792264352587 6.763208756365371 22.772768478584354 0 0 -1
63 7 2 -0.4048 12.824446887560647 4.489064249649215 22.556176077743608 0 0 -1
64 7 3 0.8478 13.0135211151841 5.695785770208338 21.955138051150236 0 0 -1
3 1 2 -0.4048 8.760503612213967 4.542129217151993 21.227458303220196 0 0 0
540 51 2 -0.3889835 10.658040189400257 0.6509720294584681 16.249666520668924 0 0 0
8 1 5 0.0798 8.953313101077029 5.3054899416638275 18.166008608194637 0 0 0
165 17 4 -0.5484 11.490607047460106 4.642674376169718 16.404500696137987 0 0 0
7 1 5 0.0798 9.198049310469939 3.4969098473143556 18.492333088207022 0 0 0
244 25 3 0.8478 9.039256586456931 0.8307502634153707 21.24021176537484 0 0 -1
245 25 4 -0.5484 10.121998307633303 1.2780603394115317 20.86918922357705 0 0 -1
65 7 4 -0.5484 12.907574856004286 5.770180809591375 20.706424551370187 0 0 -1
1 1 1 0.0955 8.855853459112241 4.407690394601087 18.87805404185228 0 0 0
2 1 1 0.0955 9.636564908868634 4.626037256568534 20.130507475873973 0 0 0
9 1 5 0.0798 10.411393059628011 3.8934476071446475 20.250506461860788 0 0 0
10 1 5 0.0798 9.942088698432997 5.659813236411225 20.13272632640476 0 0 0
183 19 2 -0.4048 14.558873203796367 3.422676795704604 16.63900316736735 0 0 0
606 56 5 0.0582835 13.66477234983241 1.2761679627791167 20.791177510107946 0 0 0
599 56 1 0.1266165 14.071175411072483 2.214586504643027 20.748402649883985 0 0 0
605 56 5 0.0582835 13.495761210631368 2.85386337167509 20.066415699302187 0 0 0
607 56 5 0.0582835 13.981942785040127 2.5966850380365454 21.719838389795164 0 0 0
602 56 4 -0.5800835 15.541946096959883 4.506798994781114 20.455943872217468 0 0 0
547 51 5 0.0582835 10.896569101744735 1.8078276389883134 17.970329490644097 0 0 0
539 51 1 0.1266165 10.551197917741854 0.7928003976380829 17.636989137675478 0 0 0
546 51 5 0.0582835 11.208170097617618 0.09918053813194799 18.16163872440637 0 0 0
571 53 5 0.0582835 12.071377675456338 7.034102578315186 17.715118976655354 0 0 0
999 93 6 1 14.750741894925932 6.126971227771147 19.616721764428693 0 0 0
600 56 2 -0.3889835 15.475803460436575 2.216127112916883 20.37350854368139 0 0 0
601 56 3 0.7551165 16.04241012910565 3.461802677258004 20.277830877144748 0 0 0
569 53 5 0.0582835 11.504155877694753 7.3201241765667815 19.392633288372625 0 0 0
875 79 1 0.1266165 14.01057597488551 -0.14333097756887542 17.101942134583403 0 0 0
883 79 5 0.0582835 13.72194770330318 0.9157754865537806 16.919665171019215 0 0 0
732 67 2 -0.3889835 8.429860266942192 7.5428592412018824 21.879945801636072 0 0 -1
566 53 4 -0.5800835 14.041953414844112 8.005501450179526 19.088657182997657 0 0 0
545 51 5 0.0582835 9.560123616342722 0.7264442045485497 17.940620937891534 0 0 0
133 14 2 -0.4048 22.84672751194485 5.297798681772833 22.713316659061693 0 0 0
857 77 5 0.0582835 22.45976988605517 5.575977433805102 18.13305009828597 -1 0 0
184 19 3 0.8478 14.722813305875404 4.764669602852426 16.84763097176418 0 0 0
185 19 4 -0.5484 14.635315425290754 5.349091541753985 17.897424305254262 0 0 0
186 19 2 -0.4048 14.993559862947254 5.423539585177787 15.692192866497894 0 0 0
1053 99 4 -0.58 16.01421810755375 7.235776895349163 20.94468376773143 0 0 0
1054 99 3 0.66 16.23818995053019 7.435575897330738 22.142872417701803 0 0 0
394 38 5 0.0582835 19.681559002640256 4.775761824894009 23.30605528181642 0 0 -1
388 38 1 0.1266165 20.19766402706899 3.8503884387081895 22.948244920951357 0 0 -1
387 38 2 -0.3889835 19.18170858301383 2.9540021572707875 22.352319855248087 0 0 -1
393 38 5 0.0582835 20.949151395572585 4.160580373316821 22.16695304474953 0 0 -1
1055 99 2 -0.58 16.688891255883256 6.452535914603047 22.96934487431244 0 0 0
904 81 1 0.1266165 18.115618871724898 1.6785563289987846 16.716509411930858 0 0 0
908 81 5 0.0582835 18.284671069091072 1.1233199588110472 15.771451407617054 0 0 0
910 81 5 0.0582835 17.16563742224781 2.2311120560540028 16.549751205333944 0 0 0
900 81 2 -0.3889835 20.34339743353069 4.539024526212814 16.315858506076015 0 0 0
903 81 2 -0.3889835 19.128827375301825 2.6203516892251155 17.050273989303857 0 0 0
901 81 3 0.7551165 19.38459142022178 3.6139546228110278 16.072120031807 0 0 0
603 56 2 -0.3889835 17.326629901840054 3.301243246206283 19.94880361508287 0 0 0
909 81 5 0.0582835 17.862982947093993 1.031752470555715 17.546497107933714 0 0 0
604 56 1 0.1266165 18.04547369252719 4.51762348833382 19.81581180729757 0 0 0
610 56 5 0.0582835 17.584926153211885 5.046308803421091 19.00915808613338 0 0 0
608 56 5 0.0582835 18.047910819302377 5.107763544999125 20.75630041420568 0 0 0
609 56 5 0.0582835 19.108296787021757 4.1808445768206175 19.557182011036094 0 0 0
858 77 5 0.0582835 22.83737952711039 4.436094109390309 19.543941125289084 -1 0 0
800 72 5 0.0582835 22.89553435404548 1.2851532190580774 20.554446205658465 0 1 -1
851 77 1 0.1266165 22.297802982503764 5.403996415151607 19.215616644132883 -1 0 0
859 77 5 0.0582835 21.199345044763017 5.30754369194723 19.38997998970733 -1 0 0
852 77 2 -0.3889835 22.80773545636849 6.490759500827704 19.9061640178476 -1 0 0
801 72 5 0.0582835 21.937600062022504 -0.00529147040091571 19.827144958350704 0 1 -1
796 72 1 0.1266165 22.102374918315107 0.5626319748288887 20.77008258110555 0 1 -1
794 72 4 -0.5800835 22.88136076435652 1.3935151225823186 23.32372682838491 0 1 -1
793 72 3 0.7551165 22.990899225229676 0.18281578948277788 23.025669369034382 0 1 -1
802 72 5 0.0582835 21.168513948608005 1.0965060278266066 21.084756125137098 0 1 -1
450 43 5 0.0582835 18.358162417287318 6.59189329974254 17.56166712507276 0 0 0
449 43 5 0.0582835 19.176788624024727 8.20490720973825 17.496035147759947 0 0 0
443 43 1 0.1266165 18.542981484910655 7.551146784813424 18.056534980472243 0 0 0
444 43 2 -0.3889835 19.020545238387395 7.296965941781381 19.328218822077165 0 0 0
1070 100 2 -0.58 1.964205287243907 11.050632783667707 15.246140589880602 0 0 0
1069 100 7 1 1.0310903115969074 10.358115811611874 16.17688335696837 0 0 0
737 67 5 0.0582835 6.6414692663710815 8.277843044117315 21.17294807981568 0 0 -1
1076 100 3 0.66 1.2672660607731272 8.036767934682981 16.62693111665781 0 0 0
298 30 5 0.0798 7.072742806066907 9.774020529871903 16.998637377048485 0 0 0
414 40 5 0.0582835 2.552956259953529 8.580897271470628 21.601463364894453 0 0 0
408 40 2 -0.3889835 4.015915323027768 10.023779485512103 21.827273941651136 0 0 0
413 40 5 0.0582835 2.886285358255188 9.358999869896662 20.090528505731445 0 0 0
1068 100 2 -0.58 0.4748842332627591 11.501127952251066 16.899459313600957 0 0 0
1078 100 2 -0.58 1.6958496020579197 9.271865459482663 16.924241524041605 0 0 0
407 40 1 0.1266165 2.8024678376361907 9.515562743087827 21.21981530236773 0 0 0
409 40 3 0.7551165 4.345473803574177 11.27227583334453 21.477328777816886 0 0 0
415 40 5 0.0582835 1.9026482069467225 10.046167238095942 21.30983184520847 0 0 0
292 30 1 0.0955 6.864330192217967 11.13050068993521 18.65884663789388 0 0 0
296 30 2 -0.4048 5.412952004079522 10.833789982480253 16.842030693232555 0 0 0
291 30 1 0.0955 6.288829233084545 10.137380459724849 17.686775721878984 0 0 0
297 30 5 0.0798 5.854109016576991 9.32588091242976 18.203403953943777 0 0 0
299 30 5 0.0798 6.4181611885815215 10.879391991742402 19.642512057316026 0 0 0
739 67 5 0.0582835 6.78356648819365 8.452021491620236 22.958869026437018 0 0 -1
731 67 1 0.1266165 6.993429483616403 7.766381973949855 22.083227171734332 0 0 -1
736 67 1 0.1266165 11.545567346353309 9.582998498302521 21.614400903772054 0 0 -1
741 67 5 0.0582835 12.56509866543406 9.27014504182524 21.479288614243316 0 0 -1
735 67 2 -0.3889835 10.656206670668057 8.405427019228025 21.65976966753582 0 0 -1
742 67 5 0.0582835 11.24344223221494 10.332090558004644 20.850146063275012 0 0 -1
1059 99 4 -0.58 15.788986528109426 9.744060003680401 22.711673695352687 0 0 0
740 67 5 0.0582835 11.464568626912547 10.117513628359188 22.56926944127025 0 0 -1
300 30 5 0.0798 7.931632981522842 11.064584693166996 18.88797334919664 0 0 0
570 53 5 0.0582835 10.49567218030876 7.77015332281287 18.014697369735085 0 0 0
563 53 1 0.1266165 11.52536688192377 7.751621141947886 18.397882397828543 0 0 0
733 67 3 0.7551165 9.301563768020317 8.641561276990366 21.84139167284798 0 0 -1
734 67 4 -0.5800835 8.897731640340545 9.815356336543806 21.95680964455121 0 0 -1
565 53 3 0.7551165 13.411868501013247 9.070490487337688 18.831921847266646 0 0 0
567 53 2 -0.3889835 14.043102240972232 10.278418456941383 18.93039606455694 0 0 0
564 53 2 -0.3889835 12.071957691036326 9.054680994247299 18.45405590685908 0 0 0
1058 99 3 0.66 16.15120411214046 8.618695581125943 23.04118601161933 0 0 0
574 53 5 0.0582835 15.535484823352528 9.530961244987246 20.18074396403128 0 0 0
568 53 1 0.1266165 15.392950176716766 10.229061959212675 19.316483306638336 0 0 0
573 53 5 0.0582835 15.862940079896575 11.181887255955193 19.453956758785264 0 0 0
572 53 5 0.0582835 15.860328726794215 9.6312171072078 18.47395308857098 0 0 0
451 43 5 0.0582835 17.600098974443682 8.096588903542784 18.102712261418137 0 0 0
862 77 5 0.0582835 22.938264226628803 10.222966083055459 18.656289716660723 -1 0 0
861 77 5 0.0582835 23.169248558698804 10.814581716302996 20.27958253621055 -1 0 0
446 43 4 -0.5800835 18.730404992952526 9.484241224868756 19.973834070909646 0 0 0
452 43 5 0.0582835 18.64629813893263 9.336430408938181 22.46927680453053 0 0 0
445 43 3 0.7551165 19.075570580764435 8.321554040195075 20.19883050695776 0 0 0
447 43 2 -0.3889835 19.57412712008351 7.971685139734879 21.36382669784074 0 0 0
448 43 1 0.1266165 19.68593950891724 9.04916752342488 22.305602383074792 0 0 0
860 77 5 0.0582835 21.50153178663656 10.291659717504785 19.73695730695338 -1 0 0
454 43 5 0.0582835 20.33322427492369 9.884733053345503 22.000578912918634 0 0 0
453 43 5 0.0582835 20.039012830207565 8.639463165154957 23.255937975391515 0 0 0
854 77 4 -0.5800835 21.70757347766074 7.966148327915532 18.510636576611375 -1 0 0
856 77 1 0.1266165 22.600365503006003 10.140220540072042 19.725018159836196 -1 0 0
853 77 3 0.7551165 22.446450281695448 7.777079157732366 19.472316175969485 -1 0 0
855 77 2 -0.3889835 22.97099544128761 8.81412481988512 20.190105893750886 -1 0 0
241 25 1 0.0955 7.471763527534106 -0.07730969855076426 22.561148922571245 0 0 -1
497 47 5 0.0582835 2.5664189063333915 0.010699135378063551 14.872145805073307 0 0 0
246 25 2 -0.4048 8.877964472540077 0.35550675348815963 22.478954481858594 0 0 -1
791 72 1 0.1266165 0.28843465134817825 23.315225791881034 1.5869712923042398 1 0 0
1046 98 4 -0.58 0.19303375632703373 22.41643046927311 4.913976436595007 0 0 0
746 68 4 -0.5800835 13.475381779275883 22.982006680979183 1.9558339586768532 0 0 0
754 68 5 0.0582835 11.428969847483838 23.02735294658052 0.07977595054160813 0 0 0
1041 98 3 0.66 22.007629173153603 23.217642738862402 6.3721275554295005 -1 0 0
456 44 2 -0.3889835 3.5184414911652127 13.482598678664063 0.5164163533540514 0 0 0
457 44 3 0.7551165 2.8124189920382547 12.367571194371138 0.9658289165874774 0 0 0
458 44 4 -0.5800835 3.1300283428471514 11.70185136719058 1.9435829644002238 0 0 0
455 44 1 0.1266165 4.749677856171246 13.822545431597275 1.3200186129995695 0 0 0
463 44 5 0.0582835 4.5800330305353185 13.939836127219504 2.330508671655234 0 0 0
462 44 5 0.0582835 5.340799154290786 14.673473060438132 0.8708388429613694 0 0 0
461 44 5 0.0582835 5.425691862819184 12.941185992516338 1.3024803927979993 0 0 0
283 29 2 -0.4048 1.3772247049003907 14.293184576359339 3.2783122172512855 0 0 0
284 29 3 0.8478 2.14334200624982 13.931938386903287 4.341358726492284 0 0 0
683 63 1 0.1266165 3.677362634880385 11.61522645332058 7.14885550298383 0 0 0
435 42 2 -0.3889835 7.3405421212182755 12.426615969446363 4.24325026730763 0 0 0
442 42 5 0.0582835 5.59385330426173 13.234339479338473 4.807733084650806 0 0 0
285 29 4 -0.5484 2.566273231827844 12.838354522408844 4.568477972201259 0 0 0
436 42 1 0.1266165 6.392704510132282 12.7203299382056 5.252068029436794 0 0 0
440 42 5 0.0582835 6.115190048710114 11.871370228762805 5.814536138316974 0 0 0
1013 95 2 -0.58 4.869528234851384 15.145624586648186 6.994192764348585 0 0 0
689 63 5 0.0582835 3.964784564971227 12.312812583040115 6.330860156436247 0 0 0
441 42 5 0.0582835 6.784925761814347 13.417194419520717 6.0049751036848695 0 0 0
690 63 5 0.0582835 3.667661347018551 12.184234854532049 8.052548881108036 0 0 0
522 49 5 0.0582835 22.207227552449808 12.579910746563526 5.249252484507071 0 0 0
516 49 2 -0.3889835 22.52128563358238 14.464387663971683 6.320565600993405 0 0 0
523 49 5 0.0582835 22.67905752315908 12.406411401889104 6.953738318702835 0 0 0
803 73 1 0.1266165 9.654459668865073 14.750323228063378 2.493408538164077 0 0 1
810 73 5 0.0582835 10.061515742126437 14.867158981207774 3.5087566033436093 0 0 1
804 73 2 -0.3889835 10.424041938156659 13.95166559603556 1.5814021828869516 0 0 1
809 73 5 0.0582835 8.675534559080317 14.331666030622634 2.655993235965352 0 0 1
487 46 5 0.0582835 11.18816783746963 13.580086562789512 5.797744727244389 0 0 0
657 60 5 0.0582835 13.812303124064618 13.174308840125345 4.0229160036475236 0 0 0
479 46 1 0.1266165 10.296637851548347 14.099595482443165 6.144946331319356 0 0 0
805 73 3 0.7551165 9.910897977730373 13.698801466210544 0.33897796283996573 0 0 1
14 2 3 0.8478 14.607002793407416 11.609516973784725 1.298444449544523 0 0 0
485 46 5 0.0582835 9.444127493963224 13.462142270225364 5.9189960580836285 0 0 0
486 46 5 0.0582835 10.28981992428906 14.923477980525188 5.413273603206772 0 0 0
658 60 5 0.0582835 14.942406133668754 14.541591356138639 4.41043477937786 0 0 0
806 73 4 -0.5800835 8.793934522761445 14.181347643987372 0.0455474615583048 0 0 1
15 2 4 -0.5484 15.560126495232016 12.27928935416959 0.8836671473255058 0 0 0
652 60 1 0.1266165 13.9481989632076 14.25547917725988 4.110960059787916 0 0 0
656 60 5 0.0582835 13.217868373435625 14.73406503503974 4.762454765320303 0 0 0
480 46 2 -0.3889835 10.36729089914633 14.491880364056827 7.528769563003857 0 0 0
1027 97 4 -0.58 13.553290652276887 13.295118565156775 7.193655089869401 0 0 0
1028 97 3 0.66 13.431239860574514 12.084318057238416 7.32281554583613 0 0 0
515 49 1 0.1266165 22.196451608208463 13.02951682584734 6.244369666573696 0 0 0
216 22 2 -0.4048 19.389485941743796 11.857686399763837 3.514361398205388 -1 0 0
211 22 1 0.0955 18.16519855252374 11.70187628933242 2.7703918779268757 -1 0 0
218 22 5 0.0798 17.499699565778293 12.528159633687174 2.6229610457602734 -1 0 0
521 49 5 0.0582835 21.171471363422064 12.935102500328716 6.4949048530355995 0 0 0
202 21 1 0.0955 17.453326859583743 12.544155183179162 6.411352580091734 0 0 0
203 21 2 -0.4048 18.767120283681077 12.95508269064848 6.874864903010026 0 0 0
209 21 5 0.0798 17.623873983508926 11.927613804875653 5.46754587516157 0 0 0
356 35 5 0.0582835 19.582669313963 15.024961973811319 5.93607025885455 0 0 0
318 32 5 0.0582835 21.802181145285346 13.765295848269915 2.691666477646468 0 0 0
311 32 1 0.1266165 21.979753329068014 13.76092926788639 1.5717847018875526 0 0 0
317 32 5 0.0582835 22.379090394237807 14.744960015843779 1.2137251422715785 0 0 0
319 32 5 0.0582835 22.721337119560093 12.980040524297745 1.3298398916735057 0 0 0
312 32 2 -0.3889835 20.69098514106606 13.445297977055636 0.9963521805968671 0 0 0
776 70 5 0.0582835 16.607020542337594 15.987891044780417 1.700167505016488 0 0 0
777 70 5 0.0582835 17.35159708169852 16.850922376117204 3.0630909258442647 0 0 0
349 35 3 0.7551165 17.53781978795243 15.948597816028164 7.546978137814486 0 0 0
772 70 1 0.1266165 17.224567409714826 16.830201454340852 1.9648640375154223 0 0 0
210 21 5 0.0798 16.8214821668446 13.3173790564486 6.005354023272002 0 0 0
898 80 5 0.0582835 4.164021854376213 22.788485270116986 1.0121505620868878 0 -1 1
792 72 2 -0.3889835 -0.08587749265244983 22.796861711150065 0.3348873904295404 1 0 0
286 29 2 -0.4048 2.4052464296021316 15.022798017234983 5.196310029666011 0 0 0
282 29 1 0.0955 1.0843991767549432 15.689656846991298 3.398624052753343 0 0 0
281 29 1 0.0955 1.7842864698975487 16.148702803324348 4.67007909142469 0 0 0
290 29 5 0.0798 1.1296310442585407 16.293349330602346 2.4882196889165527 0 0 0
288 29 5 0.0798 2.7227852822681986 16.705080440894022 4.352128595210862 0 0 0
287 29 5 0.0798 1.126214702483088 16.55731082246279 5.356855734041451 0 0 0
704 64 5 0.0582835 5.835965954062726 23.247563862897998 4.623317664382076 0 -1 1
1003 95 2 -0.58 6.586551974846626 16.631232726374748 6.390786957526667 0 0 0
1006 95 3 0.66 6.469753662967985 15.952171562554826 4.178065870405597 0 0 0
1007 95 4 -0.58 6.810296235901113 15.710300206017573 3.0295908927445065 0 0 0
1005 95 2 -0.58 5.193409831374694 15.858387148479851 4.714055527805387 0 0 0
1004 95 7 1 5.243903138722626 16.28781331139107 6.170214141779212 0 0 0
1008 95 2 -0.58 4.323251896670802 17.336096771567135 6.5620645215452065 0 0 0
420 41 2 -0.3889835 6.2247552549150305 19.75496594980038 2.96992958047042 0 0 0
421 41 3 0.7551165 4.892321668064111 19.711451407476993 3.253868396928428 0 0 0
423 41 2 -0.3889835 4.525973530529128 20.084228867290307 4.543228880784474 0 0 0
424 41 1 0.1266165 3.1103221057779487 20.022785688493805 4.890063786991335 0 0 0
419 41 1 0.1266165 6.514853012698138 19.33783953655267 1.6666483652453394 0 0 0
422 41 4 -0.5800835 4.094031107092667 19.340029501745953 2.4221223963359684 0 0 0
430 41 5 0.0582835 2.5107536457588875 20.704331191826384 4.2495124499373675 0 0 0
425 41 5 0.0582835 6.141680514269256 20.061172808814028 0.9353076611039848 0 0 0
427 41 5 0.0582835 6.066726196492289 18.359566028250732 1.42848462828468 0 0 0
426 41 5 0.0582835 7.622987287890397 19.224324025277035 1.567939206883743 0 0 0
429 41 5 0.0582835 2.977572627162189 20.316546515966735 5.8843233672275215 0 0 0
798 72 5 0.0582835 0.8781510265140082 22.54591845199662 2.1475111502976936 1 0 0
428 41 5 0.0582835 2.7268040492713195 19.00741979858288 4.809057056838207 0 0 0
867 78 2 -0.3889835 23.33766356970583 19.6818494914261 1.0654578160466448 0 0 0
868 78 1 0.1266165 0.8068657103067283 18.927265701198444 0.5171241635355163 1 0 0
874 78 5 0.0582835 1.5440363743829453 18.808043198767002 1.3231899340433466 1 0 0
896 80 5 0.0582835 2.5631803700916276 22.2076590569036 0.7536871230277244 0 -1 1
892 80 1 0.1266165 3.630524543092241 22.171998871346 0.35794612206189014 0 -1 1
897 80 5 0.0582835 4.016456590556236 21.130247064697684 0.35357551652133457 0 -1 1
1002 95 3 0.66 7.388667392799794 16.479961027452262 5.303965364569224 0 0 0
289 29 5 0.0798 0.01024814544829128 15.715035233897439 3.672612366364236 0 0 0
811 73 5 0.0582835 9.423570847616578 15.726040056178215 1.9731973863753223 0 0 1
537 50 5 0.0582835 7.1986121505592795 22.532758371801364 6.280254836435978 0 0 0
749 68 5 0.0582835 13.658090977011174 22.091840391028526 4.501400173476474 0 0 0
538 50 5 0.0582835 8.758296891028046 21.77185859669047 6.886313529214786 0 0 0
532 50 1 0.1266165 8.16807101993965 22.152499303703713 5.988915178240381 0 0 0
536 50 5 0.0582835 8.670403974682467 23.037697649966645 5.594779528343265 0 0 0
751 68 5 0.0582835 15.238994502006303 21.641092673227597 3.7373098893041212 0 0 0
366 36 5 0.0582835 9.376747561129683 23.022014303506715 2.3171731889133573 0 0 0
1001 95 4 -0.58 8.580090198046463 16.766659162452186 5.397960548014648 0 0 0
531 50 2 -0.3889835 8.077427526173686 21.06746860336647 5.069594781470385 0 0 0
750 68 5 0.0582835 14.360889103763094 20.37960937789792 4.6277534419111035 0 0 0
743 68 1 0.1266165 14.247603809629837 21.262806090999213 3.9322669429885266 0 0 0
529 50 3 0.7551165 9.244363477238904 20.550917528732526 4.631786538757978 0 0 0
530 50 4 -0.5800835 10.289920098486762 21.024817108118917 5.0804572069778615 0 0 0
970 86 5 0.0582835 10.936562928939404 23.150648612481575 6.970906800510529 0 -1 0
649 60 3 0.7551165 13.821749603788566 15.967062648085255 2.3909019463284196 0 0 0
528 50 2 -0.3889835 9.164286495801994 19.545511278470926 3.741004774811959 0 0 0
534 50 5 0.0582835 10.366983496919818 18.18147012844122 2.599100142751374 0 0 0
527 50 1 0.1266165 10.434933357644217 19.022244679416907 3.327663741807495 0 0 0
535 50 5 0.0582835 11.102326591740226 19.80703357379049 2.8797954676037967 0 0 0
533 50 5 0.0582835 11.002791335512272 18.65329731878448 4.1761201489362545 0 0 0
648 60 2 -0.3889835 13.569993461186165 16.2738210242118 1.0488614273481551 0 0 0
650 60 4 -0.5800835 14.210901229575954 16.806306866939373 3.1907201534240524 0 0 0
655 60 5 0.0582835 13.082306458031422 18.33501559221648 1.1668153442072293 0 0 0
744 68 2 -0.3889835 13.555226164386957 20.860756973272878 2.7750826196237486 0 0 0
651 60 2 -0.3889835 13.682222915798134 14.700232840973884 2.707480201263997 0 0 0
404 39 5 0.0582835 11.653712567495104 17.06199556480953 6.128768044785685 0 -1 0
400 39 1 0.1266165 12.028031406174225 17.57298422438471 7.0452541788848775 0 -1 0
405 39 5 0.0582835 12.986081096043781 18.03379413945244 6.872879032439224 0 -1 0
745 68 3 0.7551165 13.222481325744159 21.78101784218591 1.855086412926671 0 0 0
647 60 1 0.1266165 13.753335104865581 17.6616123262557 0.555821517424047 0 0 0
653 60 5 0.0582835 14.792741204660388 17.989140916506948 0.697422501968298 0 0 0
747 68 2 -0.3889835 12.582934509527087 21.28793751499643 0.7999818753732886 0 0 0
575 54 1 0.1266165 19.39721466207752 23.31569826384431 1.368560658993793 0 -1 0
578 54 4 -0.5800835 19.507866646613024 22.745576815406615 3.9589066334037177 0 -1 0
576 54 2 -0.3889835 18.29031568937864 22.66053290886478 2.091534364619944 0 -1 0
585 54 5 0.0582835 16.819859232594364 21.15334786867087 5.887895605921593 0 -1 0
584 54 5 0.0582835 17.862107690912694 22.591311280678063 5.922767435034562 0 -1 0
577 54 3 0.7551165 18.48608090907532 22.44448640100255 3.3767117287398594 0 -1 0
579 54 2 -0.3889835 17.465910502207635 21.84146946487153 4.019607387076788 0 -1 0
580 54 1 0.1266165 17.668461987739022 21.58078615750469 5.440399533157576 0 -1 0
352 35 1 0.1266165 19.34965530874888 16.10385006542301 6.063314708861612 0 0 0
357 35 5 0.0582835 19.578127540740567 16.620560856752085 5.101610053006353 0 0 0
872 78 5 0.0582835 0.43400938697913993 18.041965297854226 0.06367348667837369 1 0 0
581 54 5 0.0582835 20.30649354853914 22.742464606418615 1.5701491221671235 0 -1 0
351 35 2 -0.3889835 17.986520472477135 16.291570952087156 6.307366747320093 0 0 0
348 35 2 -0.3889835 16.178542483991226 16.138586761698598 7.765968860918807 0 0 0
358 35 5 0.0582835 19.994615258076763 16.453741950370492 6.836657911857513 0 0 0
586 54 5 0.0582835 18.625360424632742 20.98171602581006 5.697410898354843 0 -1 0
1045 98 3 0.66 22.986913829647836 22.221777829782553 5.803848897240565 -1 0 0
866 78 4 -0.5800835 22.851889570886605 18.03983362458208 2.638276970449036 0 0 0
865 78 3 0.7551165 22.661622296948636 19.14498294730813 2.0884862955351964 0 0 0
863 78 1 0.1266165 20.837143932210605 19.488020750122587 3.5834890208565806 0 0 0
864 78 2 -0.3889835 21.641690008200793 19.94645232187557 2.5269599431747665 0 0 0
869 78 5 0.0582835 21.39462156199403 19.333919419919 4.472162731629601 0 0 0
870 78 5 0.0582835 20.174535515092227 20.326746182635674 3.672377447496854 0 0 0
871 78 5 0.0582835 20.10023554942112 18.746512944754983 3.245068739564558 0 0 0
1044 98 2 -0.58 22.763485245989834 21.086376634246264 6.517546888135351 -1 0 0
1043 98 7 1 21.732359536773036 21.222991290805922 7.5095538913860995 -1 0 0
130 13 5 0.0798 17.177920869026988 20.160897991438254 0.46762537129727466 0 0 0
1047 98 2 -0.58 20.652925932564763 20.308898619424788 7.286424355896495 -1 0 0
778 70 5 0.0582835 16.729062107925415 17.749238629624408 1.596361514757783 0 0 0
771 70 2 -0.3889835 18.540210142460023 16.63998493461454 1.3014770472773172 0 0 0
582 54 5 0.0582835 19.234358520294943 23.391450482989494 0.29299896562611794 0 -1 0
769 70 3 0.7551165 18.498597961009082 16.72938465338691 -0.08974332188927928 0 0 0
850 76 5 0.0582835 19.748522049005807 23.15295140411343 8.97326928831623 0 -1 0
1012 95 4 -0.58 3.288607413201705 14.680363168478776 8.600262724524624 0 0 0
1011 95 3 0.66 3.814724257847894 15.4626954407899 7.80311849076883 0 0 0
229 23 5 0.0798 7.514456690866221 11.808234874629614 9.580218829273488 0 0 0
222 23 1 0.0955 6.543143463461382 12.24271940039231 9.232520728583298 0 0 0
223 23 2 -0.4048 6.7933529748280685 13.580538582014576 9.696199888185374 0 0 0
230 23 5 0.0798 6.443630024424709 12.005714549756537 8.17271004017683 0 0 0
226 23 2 -0.4048 5.510190707795287 12.617783596340066 11.281995013348146 0 0 0
224 23 3 0.8478 6.174748477284542 13.746953528442265 10.905823153775401 0 0 0
784 71 1 0.1266165 1.4627099754916288 14.808890011323477 10.943381283121202 0 0 0
790 71 5 0.0582835 1.0716812023450206 14.16107542008184 10.140800291071258 0 0 0
789 71 5 0.0582835 2.5270594403068607 14.896707570555677 10.904377484199179 0 0 0
788 71 5 0.0582835 1.1184127948727172 15.824519965488554 10.796684499924758 0 0 0
482 46 4 -0.5800835 10.420593881633353 12.24241961384789 8.20624411590011 0 0 0
483 46 2 -0.3889835 10.513056674441428 13.85810090449 9.760680644671314 0 0 0
484 46 1 0.1266165 10.575229520683752 12.84547379429973 10.736089343056253 0 0 0
490 46 5 0.0582835 9.640267373396263 12.195078180156004 10.813397072200358 0 0 0
488 46 5 0.0582835 11.507380858583991 12.312298422486284 10.642148388631362 0 0 0
481 46 3 0.7551165 10.42850862265641 13.442236699557869 8.471246075637685 0 0 0
976 87 1 0.1266165 14.76273427561222 11.878922088885927 11.491540467097717 0 0 0
982 87 5 0.0582835 13.777953515954783 12.24179281638879 11.229443000276008 0 0 0
681 62 5 0.0582835 13.115140226359685 15.434378750748383 9.856117586339474 0 0 0
682 62 5 0.0582835 12.425752821630466 15.24461233081993 11.513632443836096 0 0 0
981 87 5 0.0582835 15.355924051454519 11.829021690165503 10.608358038660576 0 0 0
676 62 1 0.1266165 12.804213754877438 15.98365762258934 10.765726515268787 0 0 0
355 35 5 0.0582835 15.58524909254729 14.712213694394801 9.160152494637364 0 0 0
517 49 3 0.7551165 22.38033202687831 15.02089355943511 7.60074536513745 0 0 0
350 35 4 -0.5800835 18.333577369225512 15.501189282367406 8.394709669922799 0 0 0
347 35 1 0.1266165 15.638004247064217 15.790218420450667 9.090760879082945 0 0 0
208 21 5 0.0798 16.21069987756026 12.366352305406647 8.012863774347466 0 0 0
201 21 1 0.0955 16.99542227260632 11.70539543838713 7.599434766804547 0 0 0
204 21 3 0.8478 18.98145926770977 12.399838853065424 8.110230862376694 0 0 0
206 21 2 -0.4048 17.992289930916336 11.688223539571988 8.547366987653449 0 0 0
205 21 4 -0.5484 19.983959389289026 12.56922817432369 8.731571292326215 0 0 0
518 49 4 -0.5800835 22.011360778694797 14.394433461377947 8.625067363253622 0 0 0
195 20 4 -0.5484 21.587417669532744 11.769547851409706 10.909799002412411 -1 0 0
343 34 5 0.0582835 18.133530418448572 12.018907712200365 11.251975994130529 0 0 0
997 91 6 1 21.202348011780945 13.508101571369716 10.203802317987625 0 0 0
338 34 4 -0.5800835 19.623619246778148 14.105939473970224 11.297886163210016 0 0 0
818 74 4 -0.5800835 2.860114883602196 22.881265689658598 7.448587657384866 0 0 0
525 49 5 0.0582835 22.99262226226956 18.05366443547117 8.515715986492804 0 0 0
1009 95 3 0.66 3.4608330100744427 16.883717841349643 7.55258277849136 0 0 0
1010 95 4 -0.58 2.602198495312526 17.57113002567432 8.070030100715464 0 0 0
519 49 2 -0.3889835 22.72551525436364 16.34585255183658 7.548980836596449 0 0 0
225 23 4 -0.5484 6.223383630085188 14.788809351770865 11.524331501813164 0 0 0
920 82 5 0.0582835 4.49301392337572 16.77380470269533 11.40105142765028 0 0 0
817 74 3 0.7551165 1.7832046285472187 23.142066031699564 7.95029633786595 0 0 0
277 28 5 0.0798 6.411348663739918 17.12343585485894 9.55328051032343 0 0 0
645 59 5 0.0582835 5.966795110208142 19.80401379670394 6.835615140106006 0 -1 0
823 74 5 0.0582835 2.2271244934868175 20.553454015034582 8.324059504141953 0 0 0
816 74 2 -0.3889835 1.1810101315417683 22.35759865053977 8.882383098427521 0 0 0
636 59 2 -0.3889835 7.299962218225889 21.739679748053995 10.543063204264781 0 -1 0
637 59 3 0.7551165 6.304746937364614 21.069293915146787 9.874642889163006 0 -1 0
815 74 1 0.1266165 1.9355106515286544 21.135101510994957 9.238814338937617 0 0 0
821 74 5 0.0582835 2.9014920201437104 21.28980129201677 9.78659086413834 0 0 0
921 82 5 0.0582835 4.681412846981119 18.44524369135012 11.296054924009212 0 0 0
822 74 5 0.0582835 1.3043599858662462 20.531365746306328 9.853636193913097 0 0 0
638 59 4 -0.5800835 5.290350758806017 20.76099495590497 10.479794140469076 0 -1 0
640 59 1 0.1266165 5.553318664526379 20.088927400763573 7.8574525049066075 0 -1 0
639 59 2 -0.3889835 6.5576277112895935 20.78192707844292 8.557229202707084 0 -1 0
646 59 5 0.0582835 5.177786038012631 19.248218879960497 8.361700953368445 0 -1 0
644 59 5 0.0582835 4.741700788060474 20.846123619170093 7.748564454953518 0 -1 0
524 49 5 0.0582835 23.17935957408575 16.56970981008685 9.577391877719522 0 0 0
520 49 1 0.1266165 22.61325148508597 17.06974085118894 8.772286932030225 0 0 0
280 28 5 0.0798 8.963353683869585 17.168283776092125 8.093716203749906 0 0 0
406 39 5 0.0582835 12.08367391953599 16.863015358559494 7.910011178221676 0 -1 0
961 86 3 0.7551165 13.078370806807692 23.31992957127698 8.452213037499162 0 -1 0
965 86 5 0.0582835 14.14551005433154 21.671645829752542 10.532382351193332 0 -1 0
960 86 2 -0.3889835 14.372281681712701 22.927655579923538 8.796298948987804 0 -1 0
279 28 5 0.0798 8.259115972509091 15.708516796394045 8.857883711184726 0 0 0
399 39 2 -0.3889835 11.092429406040802 18.657891368889764 7.3354225603531695 0 -1 0
278 28 5 0.0798 7.420531761707859 18.524793042116357 8.845198841262357 0 0 0
276 28 2 -0.4048 7.7953049571823785 18.064641630900503 10.769130665586145 0 0 0
396 39 2 -0.3889835 10.422532845273142 20.304347126453415 8.936922755764192 0 -1 0
397 39 3 0.7551165 11.26161695001271 19.265450475241373 8.580925228584704 0 -1 0
680 62 5 0.0582835 11.926848419073082 16.56676745276701 10.543448514514726 0 0 0
675 62 2 -0.3889835 13.908697493996797 16.749496686801216 11.368754165655133 0 0 0
271 28 1 0.0955 7.386071048280947 17.634392868075842 9.504388581110062 0 0 0
272 28 1 0.0955 8.520449430506307 16.739340267313587 9.032246555396895 0 0 0
402 39 5 0.0582835 9.900588189686976 21.699763081288282 10.381664176996932 0 -1 0
395 39 1 0.1266165 10.661328507905944 20.910565727265016 10.213259132122102 0 -1 0
403 39 5 0.0582835 10.482951719573762 20.153266288166733 10.990982555411529 0 -1 0
401 39 5 0.0582835 11.610451171306524 21.300270051402194 10.411714593253615 0 -1 0
273 28 2 -0.4048 9.55239562914186 16.77019952485651 10.109529166102595 0 0 0
398 39 4 -0.5800835 12.13675668358932 18.88151016133775 9.33605081046945 0 -1 0
274 28 3 0.8478 8.992480399455303 17.567638378501385 11.05746757036789 0 0 0
837 75 5 0.0582835 15.715430623744199 18.834893041252492 8.413130842602783 0 0 0
838 75 5 0.0582835 15.595284687726437 20.398242438561873 9.30912280041668 0 0 0
354 35 5 0.0582835 14.657908037434723 16.21140135882159 9.055916324358346 0 0 0
1042 98 2 -0.58 21.298908281283474 22.600231466587857 7.335330584727008 -1 0 0
1048 98 3 0.66 20.40602274040396 19.53005806853499 8.366920365381304 -1 0 0
1049 98 4 -0.58 19.510950519255495 18.671787922345096 8.423800464622225 -1 0 0
1052 98 2 -0.58 22.150942897498645 20.931098849039103 8.88965627176834 -1 0 0
959 86 1 0.1266165 14.660643235097073 22.60781968279555 10.23417480853649 0 -1 0
966 86 5 0.0582835 15.736213662467593 22.44251299438097 10.348446578499297 0 -1 0
353 35 5 0.0582835 16.210644277480426 16.34287734158422 9.831955569437 0 0 0
832 75 1 0.1266165 16.21554975401393 19.510773735737203 9.130009736195593 0 0 0
836 75 5 0.0582835 17.197070699595287 19.816348701751686 8.642632898509584 0 0 0
346 34 5 0.0582835 19.748172057958765 16.40975747741801 10.161776179802395 0 0 0
340 34 1 0.1266165 19.554163780077964 16.757717742649433 11.169263261465831 0 0 0
831 75 2 -0.3889835 16.579355731642742 18.919377184335296 10.376647197546044 0 0 0
526 49 5 0.0582835 21.571907212404344 17.105007846311466 9.110267588645906 0 0 0
1051 98 4 -0.58 21.48772201351712 19.438373009364575 10.570082835683701 -1 0 0
344 34 5 0.0582835 19.386846528764874 17.816715955180648 11.061661699453143 0 0 0
1050 98 3 0.66 21.412380155476054 19.933884505384917 9.438618525214082 -1 0 0
830 75 4 -0.5800835 17.68441769363348 20.751612451708375 10.903399023145802 0 0 0
829 75 3 0.7551165 17.35449549713025 19.65336954925239 11.263301673645838 0 0 0
459 44 2 -0.3889835 1.7171094961141773 12.111975535843472 0.19902940970290783 0 0 0
27 3 5 0.0798 15.31080294949635 15.15576480625153 22.016826947307596 0 0 0
28 3 5 0.0798 14.091449269478778 14.375329112799596 23.069427937048708 0 0 0
873 78 5 0.0582835 1.2532370177213576 19.583540930035454 23.298119899923076 1 0 -1
99 10 5 0.0798 10.133963233059587 16.462270444723472 21.891786089894197 0 0 -1
128 13 5 0.0798 16.55512375754966 22.183719326884216 23.178932273865907 0 0 -1
122 13 1 0.0955 16.86020807236837 20.089328284987324 23.049945492459752 0 0 -1
127 13 5 0.0798 17.67316414021682 21.76101803876478 21.807278482656436 0 0 -1
121 13 1 0.0955 16.743237573054245 21.45679366934165 22.400253452034097 0 0 -1
770 70 4 -0.5800835 17.47240053101124 16.93772399824944 22.87923797653827 0 0 -1
643 59 5 0.0582835 6.351773869145027 22.832355014259107 12.139443558198735 0 -1 0
878 79 4 -0.5800835 14.208483266881647 23.38285800939393 14.474354615871743 0 -1 0
116 12 2 -0.4048 20.710517407155326 22.26902146071685 13.795708713141963 0 -1 0
880 79 1 0.1266165 16.449349143716017 23.064767915819758 13.043105346640266 0 -1 0
877 79 3 0.7551165 15.249535093812398 23.250964997282615 15.11971729536956 0 -1 0
781 71 3 0.7551165 23.279942570516877 14.151027360589712 12.504677658349841 -1 0 0
783 71 2 -0.3889835 0.9950498788808051 14.33884407132928 12.277595621290963 0 0 0
1026 96 2 -0.58 7.212346146704735 12.935132786010652 14.391269395848006 0 0 0
1024 96 3 0.66 7.326707510319628 14.307018238917399 14.452121571204607 0 0 0
1025 96 4 -0.58 6.308736929745705 14.963563250135678 14.686308512588575 0 0 0
919 82 5 0.0582835 1.0897553147934282 14.984202537175271 14.709109260769672 0 0 0
489 46 5 0.0582835 10.643793754643976 13.196323585324405 11.759535245618038 0 0 0
1022 96 3 0.66 8.769270920367962 14.68835260863347 14.200128014372988 0 0 0
1017 96 7 1 8.491136480384819 12.319463397676122 14.098330169733226 0 0 0
1021 96 2 -0.58 9.447622574877517 13.538309694685136 13.991172836917109 0 0 0
559 52 5 0.0582835 11.783895345479865 13.917446412782546 15.638733912326423 0 0 0
557 52 5 0.0582835 13.062305972983687 14.800491166914048 14.577596748500408 0 0 0
980 87 5 0.0582835 15.21555828911482 12.672106561568524 12.203243314084673 0 0 0
558 52 5 0.0582835 13.460970968274498 13.670275943641194 15.71916770462113 0 0 0
551 52 1 0.1266165 12.788917428490054 14.422836224646174 15.546482921753011 0 0 0
780 71 2 -0.3889835 22.969904221941512 13.749719506250155 13.763527798893545 -1 0 0
782 71 4 -0.5800835 22.429438669921595 14.3484742550927 11.641086109185256 -1 0 0
785 71 5 0.0582835 21.15081194113654 12.798114341979042 13.329856222086812 -1 0 0
342 34 5 0.0582835 17.15418504459944 11.740356557638421 12.719117357771387 0 0 0
335 34 1 0.1266165 17.96806990516052 12.313996647909276 12.320868461257717 0 0 0
341 34 5 0.0582835 18.857069472123875 12.048851815117574 12.934788193524176 0 0 0
336 34 2 -0.3889835 17.680688127545437 13.72488974978973 12.375111774893462 0 0 0
337 34 3 0.7551165 18.619240832009915 14.558198828795492 11.820799213755674 0 0 0
786 71 5 0.0582835 21.415432218007016 13.287716056471574 15.09279806313028 -1 0 0
779 71 1 0.1266165 21.55518160104212 13.545192141168888 14.022429813298114 -1 0 0
787 71 5 0.0582835 20.997334964820144 14.480924478016721 13.80096346228322 -1 0 0
665 61 5 0.0582835 18.081394327874555 15.537546695143927 14.8452940040247 -1 0 0
642 59 5 0.0582835 7.998416136212276 22.564253621385824 12.386394514439731 0 -1 0
493 47 3 0.7551165 1.7453641431461282 21.929855950970314 13.200802139738439 0 -1 0
641 59 5 0.0582835 7.053313386060708 21.19134156591889 12.630201689911921 0 -1 0
635 59 1 0.1266165 7.167399555159395 22.084936805137325 11.970059242191638 0 -1 0
913 82 3 0.7551165 2.770734984158284 16.787009472105133 13.518862792039327 0 0 0
915 82 2 -0.3889835 3.144984935389774 17.713656364135467 12.57762056490794 0 0 0
912 82 2 -0.3889835 1.5182764217653673 16.92513220469413 13.961921972890654 0 0 0
916 82 1 0.1266165 4.472069121710727 17.659190867518582 11.987024739026229 0 0 0
914 82 4 -0.5800835 3.452317459956241 15.871546634834234 13.964060746344877 0 0 0
922 82 5 0.0582835 5.247906694201936 17.609856827236506 12.749764564310913 0 0 0
495 47 2 -0.3889835 1.7461698106800614 20.70199366040493 12.55807446683448 0 -1 0
492 47 2 -0.3889835 2.929520238489404 22.669355490906717 13.143040039855924 0 -1 0
611 57 1 0.1266165 7.961525912899914 18.580711613715543 15.117879392536759 0 0 0
618 57 5 0.0582835 6.895279415698558 18.566596722738687 15.349141512154718 0 0 0
911 82 1 0.1266165 0.955766921865856 16.001903493363727 15.000942831599291 0 0 0
619 57 5 0.0582835 8.214009732575857 17.90700778121279 14.31792240584433 0 0 0
617 57 5 0.0582835 8.444411002480168 18.26657066153576 16.058044695466307 0 0 0
496 47 1 0.1266165 0.47838765942251626 19.964833704065462 12.653237535682738 0 -1 0
500 47 5 0.0582835 0.5147031844283333 18.996302531649242 12.189895461125978 0 -1 0
494 47 4 -0.5800835 0.7646914689617468 22.37227529924995 13.798247136113368 0 -1 0
149 15 5 0.0798 4.605564214763278 19.51167409071701 15.051023400818009 0 0 0
612 57 2 -0.3889835 8.404497482143581 19.960885161206548 14.942527898534609 0 0 0
1023 96 4 -0.58 9.349687031200641 15.794509725284152 14.147830149845932 0 0 0
673 62 3 0.7551165 13.652323079973394 17.35692775695987 12.578490593323174 0 0 0
275 28 4 -0.5484 9.539465493987416 17.860018274413726 12.142587274606203 0 0 0
679 62 5 0.0582835 13.540670103138783 19.268904210014263 14.274172497883763 0 0 0
613 57 3 0.7551165 9.75571393975756 20.145704039631767 14.675893501927177 0 0 0
614 57 4 -0.5800835 10.495918280053488 19.139563763093292 14.604507076904323 0 0 0
671 62 1 0.1266165 14.45727659105642 18.697662348984487 14.380446898879274 0 0 0
672 62 2 -0.3889835 14.665248089000617 18.02317458918899 13.093758974634289 0 0 0
674 62 4 -0.5800835 12.542446897953427 17.253894822116365 13.087272346692767 0 0 0
1000 94 6 1 10.698964629305022 17.26615131196199 13.832476268592265 0 0 0
616 57 1 0.1266165 11.729824874974327 21.512875403241743 14.238332689653015 0 0 0
615 57 2 -0.3889835 10.229717354617875 21.448555052392962 14.525021008850505 0 0 0
620 57 5 0.0582835 11.866557700566686 20.9797368046435 13.238423041318997 0 0 0
678 62 5 0.0582835 15.209477106549416 19.347750410504638 14.716037082853898 0 0 0
554 52 4 -0.5800835 11.527307871153837 16.873811640164554 15.801082900015889 0 0 0
677 62 5 0.0582835 14.1719872253187 17.957248114640755 15.137666459039734 0 0 0
622 57 5 0.0582835 12.323921659754175 20.98809465007964 15.009210472706522 0 0 0
621 57 5 0.0582835 11.961720893115219 22.598468456787884 14.248040495626782 0 0 0
111 12 1 0.0955 21.318392891410973 21.7811446407391 14.951699389532408 0 -1 0
885 79 5 0.0582835 17.437806743715726 22.860702154704242 12.607471777003408 0 -1 0
879 79 2 -0.3889835 16.4605541339671 23.083192029032325 14.51933531041106 0 -1 0
339 34 2 -0.3889835 18.414222100211944 15.954021618985573 11.843643392839855 0 0 0
118 12 5 0.0798 22.11813947297273 21.106800496376458 14.731564293425743 0 -1 0
502 47 5 0.0582835 23.27779733254116 20.620760365609577 12.251271805194994 -1 -1 0
501 47 5 0.0582835 0.29951527633702635 19.703062231725234 13.713388292637978 0 -1 0
886 79 5 0.0582835 16.05154140686437 22.093301693802402 12.740746304435191 0 -1 0
833 75 5 0.0582835 18.01568346927089 20.950265434492934 13.575430019816094 0 0 0
345 34 5 0.0582835 20.448952786092416 16.675994339484774 11.804244348751359 0 0 0
834 75 5 0.0582835 18.709370340163595 19.5033473359695 14.235740265555718 0 0 0
828 75 2 -0.3889835 17.69915177857014 19.096062954424326 12.462957690558008 0 0 0
835 75 5 0.0582835 19.440457597138273 20.158764045079565 12.844915007513054 0 0 0
827 75 1 0.1266165 18.51343851062112 19.947024564792557 13.292533582905019 0 0 0
667 61 5 0.0582835 18.685251421355897 17.143422887801016 14.569986533418131 -1 0 0
659 61 1 0.1266165 18.07137354459611 16.550663938560255 15.247852304107914 -1 0 0
666 61 5 0.0582835 17.06778590960283 16.937184416866025 15.183559605484085 -1 0 0
918 82 5 0.0582835 -0.08133620024084376 16.16947074883238 15.23091494858526 0 0 0
236 24 2 -0.4048 6.397011257516272 23.393723825280418 16.895163734014456 0 -1 0
891 80 2 -0.3889835 3.708906011966145 22.728784004789276 22.613455351092412 0 -1 0
748 68 1 0.1266165 12.16703278429042 22.321276490823386 23.32602646623744 0 0 -1
753 68 5 0.0582835 11.723362796256874 21.823076056407736 22.523446516459167 0 0 -1
752 68 5 0.0582835 13.042473931505484 22.957682517957487 23.08328657446459 0 0 -1
112 12 1 0.0955 21.71188358269314 23.0744682779008 15.652322103392489 0 -1 0
120 12 5 0.0798 22.768087843533213 23.041734320361975 15.526849626762406 0 -1 0
119 12 5 0.0798 21.43490136885431 23.106575931972493 16.699926662243577 0 -1 0
876 79 2 -0.3889835 15.299350535607227 23.287817808623075 16.44706000247287 0 -1 0
795 72 2 -0.3889835 22.63020551383818 23.281950925381537 21.761297173658626 0 0 -1
1072 100 4 -0.58 2.6901793308236064 13.063874417159527 14.674404321405754 0 0 0
1071 100 3 0.66 1.9492606547843971 12.401344421619198 15.397310541668649 0 0 0
998 92 6 1 4.060286813065414 14.400120519426414 14.896297635598742 0 0 0
410 40 4 -0.5800835 3.667629986100194 11.947233484216273 20.709329353225712 0 0 0
418 40 5 0.0582835 5.104970367501297 13.813800467237439 22.038484285390545 0 0 0
412 40 1 0.1266165 5.8755229276744565 13.114780617267574 21.703964408850506 0 0 0
411 40 2 -0.3889835 5.461456791978985 11.723860721930954 22.042894731684765 0 0 0
1067 100 3 0.66 0.9252610162328154 12.696027726815199 16.52196438594344 0 0 0
293 30 2 -0.4048 6.331620900216183 12.346268235253302 18.265452348989257 0 0 0
294 30 3 0.8478 5.468881306202826 12.100790977067795 17.222726469323906 0 0 0
295 30 4 -0.5484 4.8407286212487435 13.039833590287211 16.701647678204917 0 0 0
1066 100 4 -0.58 0.5630237333275254 13.760140572468028 17.01136847428956 0 0 0
270 27 5 0.0798 0.4396289869544667 14.96370672405629 20.925526458000405 0 0 0
417 40 5 0.0582835 6.088556373717356 13.247992956259763 20.653506259256922 0 0 0
416 40 5 0.0582835 6.8683460220394545 13.272443345485458 22.23477450932415 0 0 0
269 27 5 0.0798 1.7977921732915576 14.449328444113442 19.895606291307942 0 0 0
262 27 1 0.0955 1.347962923886714 15.258243815510827 20.442619493650227 0 0 0
21 3 1 0.0955 14.446545677578852 14.482593414557984 22.01544416780962 0 0 0
22 3 1 0.0955 14.650537838140064 13.179493669423172 21.332465313654108 0 0 0
30 3 5 0.0798 14.284953699512146 12.390962608098553 21.974457134604073 0 0 0
26 3 2 -0.4048 13.45710071661268 15.187611248330088 21.20500669987953 0 0 0
24 3 3 0.8478 13.058100482259372 14.423053365974228 20.146651070356754 0 0 0
332 33 5 0.0582835 10.845016797647407 11.917785472436602 16.990265420474547 0 0 0
333 33 5 0.0582835 11.141262507306319 13.001363950319 18.327452827952403 0 0 0
326 33 4 -0.5800835 8.974508707533037 14.457355673608598 19.081168964633438 0 0 0
328 33 1 0.1266165 10.352376024792024 12.539715037417574 17.75521411914316 0 0 0
334 33 5 0.0582835 9.79805679274758 11.898604537049494 18.46845467548732 0 0 0
325 33 3 0.7551165 8.888080021234865 14.461154006413516 17.84626989721918 0 0 0
807 73 2 -0.3889835 10.639643148479497 12.979004421493585 23.130498456992154 0 0 0
327 33 2 -0.3889835 9.561241766610243 13.530283902923372 17.085942862035814 0 0 0
813 73 5 0.0582835 10.622640720508763 12.10337132866771 21.236422592114625 0 0 0
808 73 1 0.1266165 10.003943001174001 12.804555825724584 21.77871318456608 0 0 0
812 73 5 0.0582835 9.889246456874826 13.799290461073957 21.190732682062524 0 0 0
814 73 5 0.0582835 8.984069360009135 12.541443807766491 21.89994381590689 0 0 0
23 3 2 -0.4048 13.739877223247644 13.241595665160176 20.186755451439332 0 0 0
552 52 2 -0.3889835 13.07034289548927 15.417294010044348 16.607177049577277 0 0 0
25 3 4 -0.5484 12.23842698374497 14.786941219824495 19.35091232697789 0 0 0
324 33 2 -0.3889835 8.177720842397354 15.320596577408661 17.107020272945203 0 0 0
714 65 5 0.0582835 15.661235804054527 12.428116939531947 16.473216676334264 0 0 0
713 65 5 0.0582835 16.887045692106856 11.765751978962436 15.579332850142524 0 0 0
715 65 5 0.0582835 16.698075276734258 13.617091932442891 15.676338056689458 0 0 0
707 65 1 0.1266165 16.62140213542574 12.657469612963158 16.17128022611096 0 0 0
29 3 5 0.0798 15.736109118153724 13.09579976874191 21.044203075559135 0 0 0
710 65 4 -0.5800835 19.251472804937876 12.8414274541546 15.88376995256111 0 0 0
718 65 5 0.0582835 21.598274987718558 11.933637175647771 17.466840199213138 0 0 0
708 65 2 -0.3889835 17.495999488622083 12.635421155487307 17.320416084603558 0 0 0
711 65 2 -0.3889835 19.67388001843819 12.738614300509973 18.12973617120983 0 0 0
709 65 3 0.7551165 18.867627777634628 12.744179388601452 17.037695714013527 0 0 0
314 32 4 -0.5800835 21.63081329254024 13.426724275946668 22.583242585684484 0 0 -1
313 32 3 0.7551165 20.625876693526774 13.289935157167232 23.248172255780613 0 0 -1
316 32 1 0.1266165 19.236149914800812 12.797402709500327 21.318396198552897 0 0 -1
320 32 5 0.0582835 19.812623468717533 12.018098299636117 20.884536433927142 0 0 -1
321 32 5 0.0582835 18.13316760729907 12.695150667116502 21.042708549992664 0 0 -1
717 65 5 0.0582835 21.587672058589277 12.96564230644497 19.001814441535682 0 0 0
315 32 2 -0.3889835 19.380955327831213 12.966582776330064 22.739656576378835 0 0 -1
712 65 1 0.1266165 21.139329792008002 12.82292920898744 18.019409299308595 0 0 0
716 65 5 0.0582835 21.36960584233678 13.777748867242728 17.411749628627074 0 0 0
322 32 5 0.0582835 19.531383154080114 13.699118926148518 20.78752550018838 0 0 -1
669 61 5 0.0582835 22.31458868693625 15.50250782348732 17.776754253661085 -1 0 0
917 82 5 0.0582835 1.4333409877654157 16.134687397884534 15.988465615207108 0 0 0
472 45 1 0.1266165 1.4937155439496113 22.892963634167316 18.328997262144053 0 -1 0
477 45 5 0.0582835 2.06198088054456 22.350565243190474 17.56703664224132 0 -1 0
235 24 4 -0.5484 6.473686238429214 22.824359856000115 14.720348120898597 0 -1 0
268 27 5 0.0798 1.8317605296509254 15.46278967863795 22.56607076439708 0 0 0
267 27 5 0.0798 3.2192990081944353 15.333547023157022 21.492164527180247 0 0 0
331 33 5 0.0582835 6.712920967129076 15.92423043342775 18.51226040653018 0 0 0
247 25 5 0.0798 7.67796288786603 22.462592384765443 22.7054106877205 0 -1 -1
476 45 5 0.0582835 0.9453519086267075 22.144138181477686 18.97140747587125 0 -1 0
261 27 1 0.0955 2.2341613730735004 15.75635115799367 21.60080932985662 0 0 0
263 27 2 -0.4048 1.090894498263835 16.468735706336993 19.60962339005116 0 0 0
631 58 5 0.0582835 5.6654405178242655 18.76422491191174 20.89853145799711 0 0 -1
266 27 2 -0.4048 2.403177890962056 17.158591998931605 21.341422583057355 0 0 0
629 58 5 0.0582835 4.56025577527201 19.543634463501434 19.795527718612224 0 0 -1
630 58 5 0.0582835 4.715370015248881 17.854256888261716 19.810467400433136 0 0 -1
264 27 3 0.8478 1.7041077147437371 17.507872641811183 20.19122363181179 0 0 0
265 27 4 -0.5484 1.7139129989729278 18.685619396659142 19.776322091946856 0 0 0
623 58 1 0.1266165 5.263380542299662 18.781831622815147 19.93452731086943 0 0 -1
624 58 2 -0.3889835 6.259710480002817 18.957768928843777 18.9317510988234 0 0 -1
626 58 4 -0.5800835 6.936312981136811 20.955914459411936 19.957694255781245 0 0 -1
625 58 3 0.7551165 7.0604242364551295 20.107581591335858 19.044494634986176 0 0 -1
141 15 1 0.0955 3.0993974594694076 19.534674337102437 16.58850624097096 0 0 0
142 15 1 0.0955 4.503582772248572 19.352326515143886 16.156165832288924 0 0 0
143 15 2 -0.4048 4.813002802639821 17.9968417019261 16.362206868640136 0 0 0
144 15 3 0.8478 3.7518298315277785 17.34053156460608 16.856210371607116 0 0 0
147 15 5 0.0798 2.506830770063024 20.032204700560627 15.837080449290038 0 0 0
150 15 5 0.0798 5.295180374957451 19.95754578757674 16.66258666500838 0 0 0
145 15 4 -0.5484 3.8731190804968385 16.135870346968353 17.064025852032504 0 0 0
146 15 2 -0.4048 2.658291636336307 18.191941975092227 17.020909983419255 0 0 0
148 15 5 0.0798 3.093015042897269 20.209118671740484 17.488027292047686 0 0 0
249 25 5 0.0798 6.250067426845975 23.05410465870989 20.819338773096224 0 -1 -1
882 79 5 0.0582835 14.087139384049106 23.280056389050518 18.23052911073071 0 -1 0
634 58 5 0.0582835 8.110650898998976 22.39907874459196 18.34786089613054 0 0 -1
330 33 5 0.0582835 6.849429233570362 16.941393591821765 17.042994049085753 0 0 0
323 33 1 0.1266165 7.427247542908358 16.368921059954815 17.757265254280135 0 0 0
627 58 2 -0.3889835 8.05075017147897 20.309758076021943 18.11198318920671 0 0 -1
654 60 5 0.0582835 13.531588582385584 17.70086828046822 23.109914677368973 0 0 -1
93 10 2 -0.4048 10.068715671816062 18.36952553646971 22.731645086525308 0 0 -1
95 10 4 -0.5484 9.452082000602939 20.548339133922482 22.265938244067467 0 0 -1
94 10 3 0.8478 9.991978004119238 19.500704314829264 21.971376408604872 0 0 -1
91 10 1 0.0955 11.189936391589157 17.974515486839614 20.705032243388935 0 0 -1
96 10 2 -0.4048 10.625087139121705 19.319530619494365 20.786819811258365 0 0 -1
98 10 5 0.0798 12.280716865699706 18.159135231468518 20.845076689142807 0 0 -1
92 10 1 0.0955 10.804119931840916 17.26632211023761 22.01852723448633 0 0 -1
100 10 5 0.0798 11.691007821950079 16.9530569099444 22.486448243812507 0 0 -1
628 58 1 0.1266165 8.857006721955466 21.572642032224635 18.301234964387262 0 0 -1
97 10 5 0.0798 11.16106787685415 17.417027869803974 19.761381350775775 0 0 -1
329 33 5 0.0582835 8.063847553420008 17.095228605538722 18.302287282834328 0 0 0
633 58 5 0.0582835 9.666590721593735 21.576438365090993 17.52896043550854 0 0 -1
632 58 5 0.0582835 9.373153438797639 21.576971932966337 19.20123941920331 0 0 -1
561 52 5 0.0582835 12.238029913963455 19.32590276420313 18.432839618345586 0 0 0
553 52 3 0.7551165 12.400746721905337 16.58996774897605 16.630286813644258 0 0 0
555 52 2 -0.3889835 12.751472051270513 17.383169197318665 17.63654235563977 0 0 0
556 52 1 0.1266165 11.973426451383832 18.650814333008483 17.627106949870818 0 0 0
560 52 5 0.0582835 10.862827596210453 18.484682766782484 17.68530564907717 0 0 0
562 52 5 0.0582835 12.105229079718097 19.22751180244179 16.734057202372526 0 0 0
175 18 4 -0.5484 15.303509028556515 19.605794996240945 17.199067021005007 0 0 0
174 18 3 0.8478 15.51436015695891 18.808647984199133 18.071550418578397 0 0 0
173 18 2 -0.4048 15.580854326619926 19.008328906406135 19.404260676131287 0 0 0
881 79 5 0.0582835 13.261046290209999 22.787887400397253 16.701879110410932 0 -1 0
179 18 5 0.0798 15.193818886037427 17.56040296094536 20.900363946483477 0 0 0
177 18 5 0.0798 14.964114459287705 16.187916643408307 19.0349624061476 0 0 0
172 18 1 0.0955 15.82235128983157 17.78387720884875 20.040000246288233 0 0 0
176 18 2 -0.4048 15.674714254339493 17.53498466687485 17.729705693804256 0 0 0
126 13 2 -0.4048 15.41829001925527 21.415973522877444 21.76412558449956 0 0 -1
125 13 4 -0.5484 13.729722104282805 19.931062405929026 21.609300602655605 0 0 -1
124 13 3 0.8478 14.889090772296962 20.209248756441788 22.024146859684656 0 0 -1
129 13 5 0.0798 17.58986566116172 19.530638479707434 22.508024558038695 0 0 -1
123 13 2 -0.4048 15.681940530528742 19.421835170185624 22.764983668456736 0 0 -1
662 61 4 -0.5800835 20.740334572652554 16.261337344726513 15.837786007139837 -1 0 0
117 12 5 0.0798 20.541807996639363 21.33259161888318 15.46587419858588 0 -1 0
511 48 5 0.0582835 21.746423575526705 19.49791804347541 18.558929496542227 0 0 0
668 61 5 0.0582835 22.04598347954242 16.4506422571773 19.229102495189537 -1 0 0
663 61 2 -0.3889835 20.38936720209805 16.51642581352285 18.00458411344064 -1 0 0
664 61 1 0.1266165 21.837757291722465 16.348202900259714 18.173765795563234 -1 0 0
171 18 1 0.0955 15.888334559378226 16.789293895073243 18.921628702129425 0 0 0
180 18 5 0.0798 16.859691394631895 17.85192274315797 20.41529901791849 0 0 0
510 48 5 0.0582835 21.953961152728564 19.132146582025342 20.326234325386654 0 0 0
512 48 5 0.0582835 17.542792668648453 21.72151371392915 17.29265165513607 0 0 0
660 61 2 -0.3889835 18.5465300064413 16.618892891302707 16.601322111540213 -1 0 0
768 70 2 -0.3889835 19.71495881367318 16.572507899967874 22.847405257539517 0 0 -1
513 48 5 0.0582835 16.297279378465408 21.665185552125394 18.631168536685585 0 0 0
508 48 1 0.1266165 17.35735432130583 21.814196215496786 18.353828333240713 0 0 0
507 48 2 -0.3889835 18.19065311370753 20.93170305664097 19.153511455747232 0 0 0
503 48 1 0.1266165 21.54024485764586 19.81703099840461 19.525620086254158 0 0 0
178 18 5 0.0798 16.720841830646183 16.109163970263822 18.97341553233581 0 0 0
661 61 3 0.7551165 19.976785298617102 16.447992237151453 16.759719391204218 -1 0 0
509 48 5 0.0582835 22.019332129258594 20.789186747846685 19.757372875129924 0 0 0
774 70 5 0.0582835 20.67117289706741 16.28091083273801 20.96212651772155 0 0 -1
767 70 1 0.1266165 19.739472118504295 16.6388438577576 21.400369263552772 0 0 -1
773 70 5 0.0582835 19.419465021497345 17.617224581991124 21.15640913256913 0 0 -1
670 61 5 0.0582835 22.327948181311562 17.16176979818873 17.662089567648252 -1 0 0
514 48 5 0.0582835 17.65349310444837 22.791654132955045 18.812729637457284 0 0 0
775 70 5 0.0582835 19.05269751179323 15.896566724295608 20.99906306763276 0 0 -1
504 48 2 -0.3889835 20.153351267979428 19.994578871936092 19.69684325567579 0 0 0
505 48 3 0.7551165 19.487388454559945 20.908595339516516 18.85350461636763 0 0 0
506 48 4 -0.5800835 20.01319103397216 21.543280308915627 18.01004190059802 0 0 0

Velocities

86 0.0008269878432972136 -0.005303999349372824 0.0003951650948656249
84 0.00402991889410954 0.004832144642145072 -0.0023415920581675476
85 0.005493694115820423 -0.0025040568215685495 0.00434524765232228
724 0.0013258280935131202 -0.0024693406324939613 0.0022162243465271374
953 -0.004981941524453663 0.019132587061508673 0.011350578436647727
723 0.003040173263199083 -0.002103218764306128 -0.010464652851855128
728 0.010152639258411061 -0.010125060716209043 -0.009111269636873153
703 -0.004640190754074693 -0.00252054867160882 -0.00963307057997256
698 0.0011224689100739807 -0.00012164530128358785 0.0008561635396609294
697 0.0012403827937970155 -0.0002033006731626467 -0.002898401138961213
696 0.0010162130621458737 0.0015230506525563546 0.0006251953602297434
695 0.004694816368795771 0.0036113953680359605 -0.0030203221545512813
702 0.0023138051024573845 0.020553270530397332 -0.00813881775823227
701 -0.019903912882018246 0.004407761566578844 0.017450945639486362
83 -0.001080616164506135 -0.0024564846033718916 0.0033272998501643037
82 -0.007238511074953634 0.0016467632768696833 -0.004195220169846661
81 0.0005116999994974687 0.005436473578552632 0.0018154086457385621
89 0.026076987705786366 -0.009306980289617545 -0.02020250596402021
824 -0.010948904301659654 0.005571287973754778 0.011335243365119816
826 -0.018048580195596926 0.01670517822594447 0.00406796285608989
87 0.00032406534297463254 -0.007409251278529245 -0.009692141213948062
820 -0.0012440910575118947 -3.6754559982717146e-05 0.0006127713420424966
825 -0.0009151616026122124 -0.03426623721922335 0.00013435246457168032
598 0.005859208339261917 0.0015046566925282924 -0.007240155443928679
720 -0.003053895411194944 0.0034320581389646683 -0.0005649634156886099
88 0.023281603285625493 -0.005137849094687565 0.03676554937873036
947 0.0006014806121573782 -0.004077850187357224 -0.0032669950613785203
948 0.00591021666154756 0.0036729877119969587 -2.642242614587713e-05
954 0.019317345854570164 0.010337151295142928 -0.012173596233993694
596 -0.006209044813613346 0.0092761850626763 0.0011648048705300684
90 0.0016465560123272152 -0.001315989173594366 0.024892728686745618
699 0.005584201559181043 -0.00392103068480071 -0.009870789079783624
890 -0.0052499503030104646 -0.0014908157021064185 -0.00040325905604114487
799 0.011811465877333113 0.0043323456234370065 0.017550986072360823
819 -0.00516763928483556 1.4241351395775436e-05 0.0017803891058150913
994 -6.0106520805980736e-05 -0.012040144722155229 -0.009823060140301446
945 -0.004058334900390478 -0.003268644082365137 0.032641917810526916
370 0.01809359114961609 -0.012586831502777188 -0.01115253323384771
364 -0.004599333620060025 0.0074419932274525985 0.0027773779661316956
363 0.00032758045159921793 -9.716682316332223e-05 -0.0033769400171099755
61 0.0009030332226320066 -8.061695408870475e-06 -0.0027481469712057555
68 -0.02184713344078356 0.011115062053330637 -0.01594399616577153
940 0.001083632507538717 0.00018204640603191937 0.008271824319068607
944 -0.020592717308593723 -0.002363240173169543 0.0033370615772168157
946 0.005051995149426792 0.008932506018216468 0.01506106869081792
369 0.003877859969412496 0.007832915780968631 -0.006732949996357099
924 0.008097736161535194 0.003227473858475483 -0.009454927625164884
925 0.002126651441561561 0.0024419264819619565 -0.003189822050328335
927 0.0020203958161071475 -0.0024807985951748788 -0.00024475575107385744
926 -0.007690775122992795 0.00019573276557832052 -0.00827508228007252
361 -0.00048132096302859554 -0.004538524806062923 4.694305218950779e-05
362 0.006409509712452277 0.006552343979862764 0.002529146247472207
360 0.005810133538384354 0.002552931076612879 -0.003081949995476771
934 -0.0024662089182387404 0.006981035861801367 0.00884137799242605
928 -0.001236271606581854 0.000539056836383859 0.0016428457283624372
933 0.04129493299191864 0.017421654953618373 0.005156760328973895
932 0.01933804822610296 0.0028690801398369844 -0.01164498291007196
62 -0.0012426374101959243 0.003375973744477805 -0.006990041949595806
70 -0.010701245561908523 0.0023457632313610885 0.021700177712232267
67 -0.00036976507735207525 -0.03349933518044157 0.012111889815063162
368 -0.028562087311753956 -0.018874614226442366 -0.007988613789666308
69 0.0019297921703183164 -0.009984334935185229 -0.00622918203439941
929 -0.008355707286187637 -0.0022735208661608212 0.01419428043889721
923 0.0007510488118442941 0.00829194235420074 0.0011914668831866373
365 -0.052806956061502465 -0.001244398910845549 -0.007541524411227544
931 -0.01556788971090313 -0.027473600318754513 -0.009447773645461458
930 0.034468938002482886 0.012454222772364049 0.007643091512075791
968 0.011842769207401582 -0.006683710225558327 0.0011792618942694896
938 -0.0013419088548600364 -0.002803160251098404 0.0013726570635779172
367 0.0033288869292083835 0.008231188658979788 -0.006367213760546745
359 0.0018187570323558119 0.004436864227791778 0.003936313557332133
964 0.012959033570800933 0.000798946855177718 0.0010763996842370733
969 -0.019532905548322613 -0.010408704614986167 0.0006016288445102535
592 0.003741369064079769 -0.003270155282587482 0.005031998946680255
591 0.003354724604656848 -0.007937946742281966 0.004692986178831803
597 -0.01571236062283438 0.027017143094531078 0.02222090691736905
131 0.0037477190674992736 -0.004333437391517946 -0.0007290690871605258
390 0.0034061955198105317 -0.0007512272061828047 0.021666157287409307
389 -0.007906951285080264 -0.024149540754740007 0.0003124108342735947
383 -0.0019376641543959224 0.0014337190260397528 0.0038538724858053442
846 0.012599535578522504 -0.013205875402161954 0.009798311706891324
839 0.005845725158399575 0.006335690315773823 0.014834812971343763
845 -0.01953873194271078 -0.00927665131484796 0.012097726305940085
386 -0.0017744117683119117 0.002364759016182499 -0.005914715370463522
587 -0.004932945217344002 0.006605147678663374 0.0006550876446369287
588 -0.00020820336709126528 -0.002377245638321486 -0.0012969948212426523
589 0.005756419873701634 0.0033045707714487614 0.0029578615002068148
593 0.003988493759301353 0.008984470472026737 0.015080551847812268
594 0.0002533354788156393 -0.034256453201833875 0.015955991379083878
595 -0.022556122514473288 0.020860737557373887 -0.0011867996442154072
1063 0.0021811441764662217 0.0025777052046318293 0.0031372232611888862
1064 0.0003398618455240586 -0.003814833703546533 0.005918890312478576
1065 -0.0025394023824165685 0.0034053491490861503 0.0011357941784769009
590 -0.003772566348421498 -0.0018047835897477087 0.0007401156863101764
1040 -0.0035858405232276295 0.00035335408400572014 -0.0006758054217018603
1062 -0.0018878395577885548 -0.0006429278524947025 0.00019185878631737454
1061 0.006405188286598571 -0.0027577905684006716 0.003423382391035442
391 0.0016066744478210881 -0.016071941163151415 0.01060564446558265
996 -0.009650753418851594 1.6299884572618978e-05 -0.007319910280870776
583 0.002275084727695703 0.008187336546752789 -0.0013996082229976632
139 -0.0017377808004473364 -0.002967475127192257 0.006295339230096813
132 0.0008091307281505952 0.005056396459725633 0.00022196101868213961
1056 0.002865546942213504 0.004353103065688594 0.007015487757188054
36 -0.0005430890024125431 0.0004267541568619291 -0.0010141566883161493
38 -0.001980366406012195 -0.027183801120679318 -0.04047913229597697
1060 -0.0008900380817678138 -0.0027408028193755016 0.002970966746045508
797 0.0014727456602303267 -0.026606974324127456 0.030445707602416123
31 -0.006224060573999372 0.0002726135784321189 0.0023754016639138884
32 0.006752769409592073 0.00024794490764244807 -0.0007047586772967508
40 -0.019813809589142434 -0.002010172544341367 -0.025721481032920882
847 -0.03754731090212267 0.006606531413899464 0.02566125663794631
840 -0.00570772541302242 0.003387835057559238 0.0005515453386286644
842 0.0029086266432095174 -0.0031249039889056176 -0.005378231738306548
730 -0.029259116244166564 -0.008080357082613931 -0.0055227879633687055
721 -0.0025331333912000467 -0.0005063461414294448 -0.0015658280439642509
692 -0.025993910430153967 0.008943249481834547 -0.0003498620673031726
727 0.013114390317727861 0.009747106684913109 0.007797060779423427
694 0.009925501298018287 -0.006862565883768412 0.004046018662479707
729 0.00846438780356156 0.027152982567061425 0.010560445579059717
688 -0.002944022093218015 -0.002878846320125496 -0.0018868384569748944
693 0.004869203173398066 0.004996083372351449 0.002445544611657281
687 0.0015502348878730606 -0.002213332116814407 0.003719437610234607
685 0.0024981743967825002 -0.0037666378945457667 -0.004961850587450107
684 3.0506466544494446e-05 0.0020870928183870058 0.004440481649321739
722 -0.0034662876545848327 0.005515562384597097 -5.896523036821338e-05
464 0.017622862362882456 0.0016556058699594156 -0.019083000493140323
686 -0.0017341743959300739 -0.005633714105976633 -0.0035901528652094302
995 -0.006764567963365527 -0.005797662866588207 0.008468175410758796
434 -0.005828851644445689 -0.0015268372623147258 -0.0027674246779664496
433 -0.004150664393901745 0.003407795978736867 -5.73071246217544e-05
437 0.02447034287426064 -0.004164020573045496 -0.009851400313756217
439 0.00093308635103846 -0.009467444503031445 -0.010425478176033535
691 0.026034376781759183 -0.03728013416676917 0.008126003367870713
155 0.0003323562805095285 0.0010122807036207402 0.001378469461893164
154 -0.01020764793643218 0.005984855514529473 0.0030258252350818665
993 0.01908415944169556 0.008632046868485664 0.005475307898301708
460 -0.006218713139523729 -0.0020037065479807555 -1.2938618071757771e-05
939 0.00596998654163233 0.002718684660684587 0.006097596323190161
431 -0.000666577185199891 0.001808760121020537 0.004779086493631822
432 -0.0007731154529949676 0.000257389510676568 0.0018826826101360084
438 0.013780924614529753 0.016331222345455476 0.008713585571717742
937 -0.004941179597920673 -0.0076424198791474225 -0.006140616784219883
19 -0.0019046950378780927 -0.008455406926641717 0.008877677064449417
936 0.0009016582670698328 0.0012353033021876491 -0.0014115491695958823
18 -0.009593043321559433 0.020235617390371576 -0.0204354916132977
11 -0.005662929629854443 -0.008038722605105509 -0.0012479149742903124
943 -0.011978838747886552 -0.006200505802328066 -0.011651643309515092
941 -0.005236209512443151 0.019926185589673164 -0.02603024559963841
935 0.004805918688656318 -0.001749459805096397 -0.001963672324959105
1033 -0.0018446633331271089 -0.002679014240450456 0.004365497381076949
12 -0.005176649673441813 0.005528559443232506 0.0031702208793597136
20 -0.013002846337754705 0.02379280641171568 -0.0247193000395292
13 -0.00014435463382151244 4.285874981893877e-05 0.0026064090897019716
942 0.0027740954234183467 0.029997937870019784 0.010657433458273328
17 -0.00663278699740778 -0.002899736762395732 -0.00029199150542644903
16 -0.001975107738986789 0.00859809859240379 0.0029398419572742324
1032 5.365570447033029e-05 -0.0038310191704223518 0.001437519239201561
1031 -0.0029548466037610673 -0.00879898473476918 0.004341506376360443
137 -0.009206852218648004 -0.0022278259224345984 0.006995945609538719
39 -0.017061473238066626 -0.003555488920289394 0.004400374403853258
33 -0.0037581712514517173 -0.0024186879680036973 0.00010991132360410769
215 0.005147201889804991 -0.0028044220366825585 0.004548007523327244
213 0.0015876958364133566 -0.00336190348521646 0.0014302703841796557
214 0.005464431661940752 -0.0050446238965026115 0.0007897308505949927
212 0.008893127714336639 -0.0037504214674484917 -0.0036702263467745127
217 0.017470389335968065 -0.023187735978612446 0.0008849771831955576
1057 0.002194542018213977 -0.0012851704290286724 -0.00805960052951463
34 -0.008954488260554044 -0.0044385306243302745 0.005170709383865394
219 0.0013434970750283107 -0.012016215262281341 0.0052947695868629675
220 -0.010662227189082787 0.014910069781181002 -0.020610416953069394
35 0.0014965623416121243 0.005822972864021498 0.004434502685792762
700 0.0031115399371846185 -0.006997148485840691 -0.005992924353641192
705 0.043507031674453855 -0.007255191554405511 0.002402588544733285
706 -0.0033263800558451214 -0.029234648271808394 -0.016095856580000793
248 -0.03007732517061357 0.02985449427411426 0.029263516402885312
963 0.0015643238266785126 -0.008240672614377347 0.004558665703254515
153 -0.010476997718675527 -0.00357484581082837 -0.0021425325014270916
955 0.014853126641105368 -0.006165665329092731 -0.011874518712962467
949 -0.007350045987829099 -0.004890753487914486 -0.002411350381397173
984 -0.008740561117866738 -0.0008051262142010798 -0.001632805281667753
985 0.007122568760113162 -0.001288685620986028 0.006533678342493982
986 0.006032507863881795 -0.008679233346788332 0.003645986402665753
987 -0.0024785815984863435 0.005216231223747284 0.006376827525513786
80 0.012337388747801447 0.01067589105702384 0.009822294455225677
72 0.003064981580210307 0.002508979875401341 -0.006988271876118783
77 0.0028084012611973947 -0.00530996398484833 0.0051773614528930305
79 0.008986562810947334 0.024349419330994493 -0.01829558007360767
301 -0.0007606292968594856 0.0025618949566989097 -0.0046467378951087985
306 0.0018812385143624605 0.0012894940072478867 -0.0005020726360256991
307 0.004169505520257229 -0.01112088065544998 0.007160718011880813
304 0.0021466729381155354 -0.004292479512191063 0.005716725985285503
302 0.004088795435912861 0.0033572510397444607 -0.00356103872920562
950 -0.0036664215347634475 -0.0021668886594750445 0.0007127029675519412
951 0.0008265291181633872 0.007625078369802082 0.005966949941454467
952 0.0051556479600471505 -0.0035070372276417195 0.009721943407643666
160 0.04091355978046831 -0.01547713863812288 0.032064366917232544
305 -0.004920948150041475 -0.00811649909756089 -0.003677744446757831
309 -0.00352993709355002 -0.01252496463171659 -0.021758257149190406
957 0.0015455206326450545 0.003665009212524485 -0.00023207345834288135
958 0.014396545489499354 0.026214630961737827 0.021967498682059248
260 0.020137916200540288 0.004977339967239034 0.007238273336727759
956 -0.014931992160861949 0.013952086401165234 -0.00801140604285395
258 -0.009849910187051945 -0.009016870688745736 -0.008303825098035145
259 0.016910341955604972 0.007656504353961313 -0.02520678570628265
252 0.0020613722247965487 -0.006405142649847789 0.004003534934841616
251 0.007827621730911638 -0.004896891875839893 -0.003329566451887785
256 0.002098077317697024 -0.002972575733155458 0.006640507809372833
253 -0.0031139925200295753 0.0016982209136438906 0.0032203797939040343
254 -0.0056598103252989565 -0.00265448301101157 -0.009428535619578546
255 0.003607692458455052 -0.0024647106088992506 0.0029452758992844163
257 0.004383452913397329 -0.009496029989114323 0.005656961044537568
380 0.01842205573094258 0.00072422007970506 -0.0021845349679108276
152 -0.003293561683212908 -0.005381421715711234 0.0031095542509621777
159 -0.016691487062169847 0.009366678085361381 0.015173495721998461
1036 -0.004961061490777681 0.004904602330834344 -0.0025162411914429624
1038 -0.004054908423582297 -0.0060689390403000434 0.005107771469227083
374 -0.0010692153315266972 0.0065588886157562564 0.004978244262134687
37 -0.025139479412037948 -0.012018714890720539 -0.002211470243115704
303 0.0020736353376069826 -0.0030075441053457773 -0.00171378478515799
841 -1.4652355944677668e-05 0.00037906978191585357 0.004284235886924739
373 -0.00787428438341495 -0.004821219144027902 0.007302246528501937
45 -0.0035733990669294517 -0.0029969163582104683 0.0014309221796590765
843 -0.0027630593390920843 0.002782558552428205 -0.0015162740388124857
371 -0.003913534505484644 0.0023829164709434918 0.002586987955928473
377 -0.00888401093957708 -0.0042957569893796125 0.0006814365612430648
378 -0.0014918864546255765 0.002996139911978224 0.016369021968796794
379 -0.007653340785717218 -0.0029526830207503804 -0.009739712419528401
46 -0.011144309804415565 -0.0030334546984374256 -0.012820757117105262
41 -0.007691455518768245 0.007717377592977138 0.006852050170247164
44 -0.0013819098975659284 -0.0039899487843381674 0.0008619153508216853
43 -0.002800882589911096 0.007175259120864749 0.00478318547718837
844 0.0016972583929087345 -0.008311041088142658 -0.0019697469939179064
848 -0.01929281607871883 0.010014857882443684 -0.002544767739193733
48 0.0013091511007212785 -0.0018462060731726452 -0.00197532908572655
849 0.000664064485218808 -0.027487043041005122 0.019487466928831056
988 0.002266702277463749 -0.006260432378572078 0.0029000555944622202
992 -0.010434154822478574 0.011413058882633824 -0.003467762082726078
200 -0.005174201304356036 -0.014780124203058121 0.002759633272505449
227 0.010844286242386638 0.00035463961927192987 0.023273600404710156
221 0.004734906890791177 0.006853516316599904 0.0007809303742367423
228 0.015202508415940829 0.009972009240204048 0.012634337653376139
199 -0.013940948503448824 0.004022205289042374 -0.006812028864881482
192 -0.003519571336362192 0.006824579548306979 0.0017952455188610945
193 0.0031091082238715404 -0.005993881692220751 -0.004115039018448094
194 0.006594176775477571 -0.005465229679030452 0.00246507390124257
1035 -9.907894027658023e-05 -0.0019125712022998453 -0.00224042423599052
1037 0.004248513819309354 0.000237843715500878 -0.0014702855130408563
156 -0.003091389282961584 0.00432704158774411 0.0060300485780647945
158 0.019814077199599774 -0.02660444107441965 0.02208625677631815
151 0.0020080415429263067 0.001159939734056161 0.00467373340940558
1030 0.0059248751813508315 2.7516632919241013e-05 0.002559121776413091
1029 -0.002414236423729669 -0.009510353218146014 0.00040592439289862325
157 0.0003941225668339759 -6.167374877342905e-05 -0.0177365654209458
1039 0.009043521683800074 0.0011973173440268739 -0.00048397116226923134
1034 0.003183067592899675 -0.004873034256065808 0.005310631723738639
207 -0.0036820371442509163 0.003829942671734588 -0.005887404007323301
42 0.0036785952071773337 -0.006737512026321208 0.0015019215274088267
50 -0.003503377600287622 0.00019511773107371802 0.009306422103540568
49 -0.008792498830834168 0.01526523304349242 -0.006123821302297947
962 -0.0023286683392858554 0.0018322580303822744 0.0036760521980733927
967 0.03948330692622284 0.020786056724777863 -0.004716988920913141
392 0.007104927016495436 0.011138883013739812 -0.0005890434371823555
719 0.005248037761073454 -0.0004872758367323135 0.0016622878296795982
725 -0.018253520943962785 0.015214496776948954 0.0075528926201173605
466 0.023564139751407205 0.004531565769714455 -0.01626958638384776
465 0.015237026755145069 0.007944983745603918 0.009638423422514794
140 0.0363997206551803 0.010814085340165827 -0.03339831525815652
385 0.0029319634844762075 0.0028566009457199684 -0.00517172536286506
384 -0.0026644249284467226 -0.0003439074941193442 -0.0036689058501016758
138 -0.022019855121556506 -0.011416035238639688 -0.006371343766270983
136 0.00471271174635943 0.0007182272180730118 -0.006044060006851044
73 0.005935703834984895 -0.0048809328108365205 0.0018668841433744027
78 0.0110521872587224 0.006357018279236046 -0.012654892093638072
76 0.0054804909437392605 -0.004157379961331237 0.0017301305686379393
75 0.0038374698889355407 0.0011166001285221928 0.0016813905352496361
71 -0.012250688094340142 -0.0032231187428503117 0.0006174685932477045
74 0.003083738801085396 0.004825966847400433 -0.005096115493861637
101 0.0034282243194213966 0.009670011818508413 -0.0061823287276856955
107 0.011811572623605462 0.01835329929409769 -0.00623259443191198
308 -0.020491312636334368 0.002520087058928123 -0.01839047802024683
109 -0.04225166779755209 -0.023097553332386077 0.0382374560886383
990 -0.017675745983154783 -0.03365199164645802 0.019654306904936025
983 0.003544939678821331 0.00030044989993310237 0.001817874425489952
989 0.004709527159249404 -0.0014266718157644506 0.028703090284868303
991 -0.02032255519738743 -0.013566266039603257 -0.0017610657037946582
102 0.009681920675073199 -0.0018673889548469534 -0.005841509790265358
1075 -0.0005941940271615757 0.0035006300962082283 0.004901247066637703
499 0.014036425383478528 -0.01794671834319017 -0.006111483234838434
491 0.0010155066897308243 -0.003386006331737386 0.002696971802152889
498 0.004312659628107109 -0.0004815229335358279 0.007932609168634685
375 0.005279784510666845 -0.0013734379479525603 0.006220946843603401
167 0.008749315021629617 0.011354944727700449 0.004798077235764934
376 -0.00313559709417153 0.0028140408009517523 0.001597006096378191
161 0.010538040687331217 -0.006600683554526629 -0.004333106458122988
382 -0.00736342197167478 -0.006453787376648757 0.02245469521789069
169 -0.018949699754192733 0.015362881013275863 0.026684975625711017
162 0.00012647296356409592 0.00596976907625835 -0.0010940095225428798
381 0.015281121493385069 -0.001094725400156414 0.013886000518201132
548 -0.0044484301941604045 0.0023703676906071686 -0.011579811086754205
543 -0.0005086903458208131 0.006945594768715546 -0.0006143705048706988
187 0.0002870276910083903 -0.01750315690124752 0.005170445018187069
550 0.001917856751527862 -0.004207875951972259 0.005767453598680169
549 -0.0021411262956787486 -0.011886202955038285 0.01579689834612819
544 0.0077715157390802194 0.003259848044949953 0.005980699941447193
168 -0.03352072989169585 -0.002525477139043141 -0.007973970259450748
170 -0.008474839751372872 0.02728133230844386 0.011618861956298522
164 -0.003655277130127885 0.002142149121612803 -0.00013134445378335048
166 0.0026983907178846278 0.0004573290452706025 5.467618326554739e-05
163 0.0018339775791868765 0.0010346359683593236 0.002968571067068666
542 -0.0011092741641262381 -0.005397045316497921 -0.0017494824668980596
541 0.00027332982254095613 0.000882842724723082 0.001331832760601721
189 0.0388713208291109 -0.0254475403853177 0.006871000769127128
182 -0.0015576606788480572 0.0006838285936578488 0.0009610739547081695
310 0.044386461824273526 -0.03551919788803681 0.021425659754536537
764 -0.0030846123375215975 0.015382992960741245 0.0027288113517112103
884 -0.018493713616603704 0.01107327440962343 0.012330514219185955
372 0.0038602885390439964 -0.004295894676058776 -0.0026873765747283548
113 -0.008047277453459234 0.004235807270222482 -0.005237275352804473
115 -0.0029535196687128064 0.0009845720699591068 -0.003894017106078132
114 -0.0006791961151167249 0.0033877974839564918 0.0037585017118546343
759 -0.00024802047319147347 0.0010814926004370882 -0.00023483270971425425
47 -0.0356134181278399 -0.002345435798591347 -0.012906329807217893
190 0.003870987758037234 0.00837634018789091 0.009764716181788754
181 0.0027284066262580524 0.004007785350519495 0.005811658567323345
188 0.0026705822264926587 0.005496087408054149 -0.013487204762356944
907 0.008362700918167997 0.0022807347502219366 -0.002947723956995815
902 -0.0018653063295475173 0.0067267824413807875 -0.00263716610220151
899 0.0037131986743128213 0.0049434646309822125 0.0011016419076326695
905 -0.002493141132150779 0.0066809971796557 0.0024998356703244584
906 -0.009086972359922547 0.016219679372184954 -0.026120693748893448
106 -0.003551454336609374 -0.0073169556896357825 -0.00196764210784975
108 0.020885313285113293 0.005831874853443345 0.0037129676561231087
110 -0.006906188769961805 -0.01167660754267273 0.008427634490581037
198 0.005388816338985582 0.003694631137275947 -0.013599316442018023
197 -0.004211906184325972 0.03104422924333324 -0.01381129302211318
104 0.0023533903901604564 0.006404399439008842 0.0017702058530022747
103 0.005710573111280706 -0.0029472065578188896 -0.003379459813635893
105 -0.003117964265422958 0.008720570332262166 -0.002442375679623149
191 8.367541634625664e-05 -0.006456585717441512 0.009805104904866427
1074 -0.002734591874834771 0.0019458694225984727 0.0031586242717656686
1073 -0.0017284792220399166 0.002757011073104221 0.0027342217529347755
196 -0.004109806003240434 -0.0020367258036556855 -0.002699778420611912
1018 -0.00797589643615277 0.0023658839489281934 -0.004662485409161018
1020 -0.00402045973780369 0.003976672899236336 0.005744092130439293
1019 0.0019118830614041548 0.009953163320158352 0.005169075537930982
972 -0.006421111435387131 -0.00399591876048366 0.00012303254282591903
973 0.0009855769987113518 0.0032079497974408255 -0.0031930215249478776
974 -0.0019726853376558265 -0.003998119096663642 -0.007287516845546756
977 0.005020074459522822 0.0013582601719480344 0.02462899980029382
975 0.0020916222649831075 0.0034580239038304334 0.0007668616726728524
1015 -0.0029384830952035633 0.0027484912222904873 -0.0038820008670606295
1016 -0.007002037635627628 0.0023140790628687303 -0.00043587421136593256
1014 0.006597903028793258 -0.0017907935828822955 -0.004422665840433266
971 -0.003424274193917066 0.003819754555442689 0.001276854399513026
978 0.02994995250529241 -0.019781802605003795 0.009452292285626692
979 -0.009572312985978784 -0.0319065456935755 0.0055908181990852865
766 0.0010046343163942677 0.03819423648525507 0.0076382472079897235
760 -0.0032317599909103345 0.001762216739458562 0.009997315215705588
756 -0.009055243260381825 0.0023944158959548823 0.006943284115371188
763 0.002166377192557645 0.017837938196205504 0.023031469166459217
755 -0.0014927689225159876 -0.002519262819193779 0.008424915167308153
757 0.0032643606542437325 0.001091154551242777 0.0014574345121637368
762 -0.004063652137327928 0.00043424489461103274 0.009890093340234725
758 0.00396129953155875 0.00260288847000705 -0.002865297159655383
765 -0.03162991909846856 0.008231688818231851 0.003864643648985907
761 -0.023760435134271677 -0.025120726273400038 -0.0032861761224395104
474 -0.01437253344401301 -0.01926667023266129 0.012627245009072132
893 -0.013178441312843833 0.033558736287310015 -0.017852738077040024
134 -0.003931581848809324 -0.006368756978414827 -0.006951356201778469
894 -0.001437542755242727 0.0023139496730837984 -0.00799047800447729
60 0.011358503304984847 0.0028371897776815823 -0.004056309295147792
52 0.00722712604914194 -0.005609204765533644 0.00030166697612470865
59 0.007289446800811227 -0.018988222987673872 -0.010880600754993511
53 -0.0002712773182329123 -0.0005800802100160378 -0.003794602090574767
887 0.0003902233337506493 -0.0013730673395727726 0.0010175025997102576
57 -0.0013156262739447823 0.0019178256231431722 -0.00044762638608430305
51 0.0052505772615030945 0.0022581011078449554 0.002383567260331278
889 -0.002815320267107336 -0.00013492046522272372 -0.003073314361883185
54 -0.0022525743840130954 0.0018016844250474126 -0.00014741092392084388
895 0.019175536506716103 0.029851391167374872 0.017938380594909473
888 -0.0006785864875335977 0.004153112403001829 0.0007589244501617795
231 0.0014555283213161987 0.0021361336337544193 0.009077692526296881
5 0.0014786507707862833 -0.003986120975933141 -0.0037729003002796397
478 -0.006770770067367452 0.013718733347135102 0.00035373865416518673
237 0.014478083660078925 -0.007330362515420582 -0.009102717685107151
232 -0.007691417181922093 0.003087608590214689 -0.0018652618695438863
239 0.017458655691942573 -0.004636557243965122 0.012901271209513846
470 -0.000721180293757719 -0.005190826210440629 -0.002492217846487267
469 0.004579542212286278 0.0009373827784065628 0.0028279191483070506
467 0.00425461492620048 0.0027827892284697153 -0.005554207759326099
473 -0.0051378453710610675 0.015302630679032625 -0.013390749999459363
58 -0.01193768838680379 -0.006619371261804777 0.018070154398997396
135 0.0010011327603255836 -0.0010939384323571657 0.0022684095116868464
250 -0.006250579676028434 -0.0002370247477425681 -0.008845613012298047
233 -0.00467491334534792 0.00017860690594232012 0.0006107878524157959
234 0.0010109031973306753 0.005946716475333928 -0.002877014280500016
55 0.0002476322771486468 0.003291153333967543 0.00341650625424933
56 0.0049554666018926455 -0.002858581675509059 -0.003350654311896307
726 0.028587015972520693 -0.01396240560716144 0.019807292509634943
4 0.007401522563353728 -0.0015442422134738325 0.0015284274411088493
471 0.006825130212394777 0.006838698618630876 0.0008836596517109659
468 0.005215255409770239 0.0044487169228614966 0.0023572933515849386
242 0.007656025382642772 -0.002942086522375891 0.0001603321336474612
238 0.004254134244401299 0.023736170720074657 -0.011037592634013653
240 0.010941595992142937 0.022648951271445717 -0.00883951381754896
6 -0.0016347917366942868 -0.0027764541753424223 -0.005144447106499526
243 0.0017036222465237017 0.0045588498902615114 -0.0044139649580724446
475 -0.01725319844345637 0.01558101554637934 -0.003555014219847153
1077 -0.0037467179676841994 0.0018849450912787325 0.00836359353715401
738 0.0016848936019706834 -0.028588178373772016 0.001966315298949039
66 -0.0055120652438890244 -0.0033045558049759984 0.0037079498799346454
63 -0.0016988699505151132 0.0033092991379943966 0.00044749317203949027
64 -0.0010811008237321031 -0.0018386280797802559 -0.0003891849445387146
3 0.0018217590482029979 -0.0006578478868983818 -0.0060062122735631855
540 -0.004364637727911262 -0.002488049782639693 0.00583946417601745
8 0.003437621728774404 0.004072869671104733 -0.021160783067417106
165 -0.008170565192465755 -0.0010773498406321121 -0.0010963029761681645
7 0.016706392768134324 -0.018688092381016094 -0.004057756073622611
244 0.0010664165891693866 0.0038377919462418237 0.007875966047121529
245 0.0010160619351664369 0.0007622813557953148 0.0045644030844461825
65 0.004761599960599639 0.001823589692108537 0.00391942289712963
1 0.0050485905707891255 -0.003249378187598357 -0.010520482412350823
2 0.0009010202316324138 -0.003918802745280753 -0.0021902877240321953
9 0.014859823473696097 -0.00012723668497158314 0.011861569350768184
10 -0.013639615007697793 -0.015188766667557719 0.003982568738132349
183 -0.0011076542230529442 -0.0037233977452701154 -0.00034055593022740095
606 0.015177057139596424 -0.02576336223829988 0.025615483706000825
599 0.0025648092887516523 0.0008322587908552213 -0.004141050628979222
605 0.008151775249109108 0.0026389312967656647 -0.0036919357503073427
607 -0.013393436974911008 0.01538712081445777 0.0036687701569616017
602 -0.013433251415126295 -0.0035677705906657186 0.009664117307850209
547 -0.005055657267640936 -0.01800055894631077 -0.00010392970669465139
539 0.0033754351611957906 -0.001314130450363146 0.00044429900362541133
546 -0.02267459728013355 0.01354177203082688 -0.011270333237183794
571 -0.005658768041726889 -0.009928255770413218 0.013394311584795024
999 -0.0014336922764901596 0.0033590689646930154 0.003370562003356075
600 0.003484992537782411 0.00788038924677979 -0.0076610500589427335
601 0.000834346411534665 0.003027761456598736 -0.0007471983722846439
569 0.005275583837772573 0.016215756726712004 0.007732467487371581
875 -0.007799908137905726 0.00039590575487185757 -0.001328010728542077
883 0.013809334578777102 -0.016978225697615566 0.0020195662875189292
732 3.113278044917914e-05 0.005832000511385522 -0.004192601705351286
566 0.00040362956273740704 0.0019991594172122477 0.00588218986714959
545 -0.004897897424455978 0.008149791299109288 0.005103812199973058
133 -0.004800811272547622 0.003027275393340255 -0.0009728907959486465
857 0.014161534586835374 -0.013880621741356052 -0.014363979511277908
184 -0.0007617740261208353 0.007869769679886883 -0.011271589324018836
185 -0.005825438156056412 -0.002404872090662755 -0.005957763531700806
186 -0.003359861313935117 -0.007398116454465924 0.0028728513722796885
1053 -0.0027265687637762354 0.006443546938878137 -0.0044380557399923025
1054 0.0026221291479576964 -0.0018119804829347123 0.00020560478925083606
394 -0.00028335897309969896 -0.015883970953530693 0.003512557381335333
388 -0.00914299029836572 0.005394745334424819 0.002388363126100185
387 -0.001127363764958662 -0.0013484278767399531 -0.0035741957207143715
393 -0.007624965570706111 0.0010576961264152887 0.001164816594301883
1055 -0.0009756765271326023 0.008671617228443578 -0.0026162078908368164
904 -0.007311891163421368 0.0006623768822523063 0.0023283341714158555
908 -0.015760058808939312 -0.016421555370296836 0.015426934625425161
910 -0.01635535756545819 0.01281686262773662 0.004604308288042521
900 -0.001461475576021278 -0.0036197122358597035 0.002274082484740541
903 0.0032302725625033 0.001339090515046694 0.005990213241615762
901 -0.000798856899226726 -0.001131344598231377 -0.0017285250990545613
603 0.002869058885502356 0.001238291083842888 -0.0032341648980862957
909 -0.01215721575385671 0.004904823901530076 -0.015108042564664798
604 -0.002859309416559922 -0.0038872804879356146 0.0036579459999870256
610 -0.014855173446231306 0.0038748967993879604 0.009658996509022359
608 0.00857393509920718 0.017421053817784728 0.011638535272691458
609 -0.011192157785976079 0.008399448992544864 0.0011476947242403937
858 -0.007061825392561078 0.015505256765795169 -0.003284527992569068
800 0.016811794591104223 -0.01225455008650443 -0.014369483924471915
851 0.004704141685551045 0.006172621608249956 0.00036729405541775334
859 0.00343475798425895 0.00341088624194553 -0.01176749750378327
852 -0.0004994180640873463 0.005961548220348259 -0.002442895576840022
801 -0.004202031721383963 -0.001518024395947374 0.015846110538985547
796 -0.006324807055574295 -0.003887380575803636 -0.005425794281316802
794 0.004340978419093557 0.007837365651912 0.0009316269060207824
793 -0.0019055955235203958 -0.001004954870715562 -0.0018399634041320484
802 -0.0015584174862884963 0.012290491601386271 0.0013455913620067993
450 -0.0032578207961825954 0.006324656686522505 -0.0162952696882721
449 0.007415120121718409 0.0313487885151415 -0.004499408834781348
443 0.0044019678314221496 -0.0004077921288036547 0.0025367328493797517
444 -0.002049803677346219 -0.0005346857160811243 0.00470359939084837
1070 -0.0009340478200814122 -0.0015052658053387067 0.0034291378984727798
1069 0.010357385920145528 0.0008578000591258459 0.0058332036542745125
737 0.026242119476984183 -0.013773415782422952 0.025371699800733404
1076 0.0002821518610686767 -0.0007028787320426542 -0.0015265397372427414
298 0.007912875001797057 0.01392921689607437 -0.0052999841420777
414 -0.00324468181715524 -0.012854194439222479 0.018879888093775592
408 -0.006612384518969594 0.0006860500091920232 -0.001937893957980217
413 -0.01241250511530464 -0.010155392061934535 -0.017373628879194837
1068 0.00010520446777543497 0.0002323670868909191 0.000987902525336441
1078 0.0033524653954304057 -0.0020594594376700474 0.006700218772208338
407 0.006583893130323861 0.003462636130511875 -0.010304909525274495
409 0.0028962009406861907 0.005715455080733411 0.0010311659756030835
415 0.004070235012820905 -0.01642209564314214 0.006515341939786906
292 0.008036795016667465 0.0016712249965165913 -0.0025826024503016413
296 -0.0036707783067404243 -0.0003111209854653413 -0.0020391959701469183
291 -0.004037497639870402 -0.0019149603268696612 -0.0037779094980341316
297 0.005134493332600265 -0.012677387569280486 0.009002859176422434
299 -0.003891212989805519 -0.011715581354833733 0.021343790421159577
739 -0.0015873586652669555 -0.011707981362350888 0.019649643989628846
731 0.0027997057752777413 0.006278880034881658 -0.0041272454197189435
736 0.006189460335031686 -0.003805071911890546 0.00470567029247274
741 -0.0062675108693065 -0.00284102783735237 -0.013478214143548925
735 -0.0057562762597613264 0.002818903755523051 -0.001311953391303767
742 -0.009715474329478477 -0.0009609909085708948 0.001893407292063927
1059 0.008286554421504652 -0.00022842741810525958 0.006277572200481309
740 -0.01927020177446287 0.019896392307158405 -0.012433623158159907
300 -0.021722055338586992 0.011794433117887807 0.006442608832204243
570 -0.0304900350897007 0.016308410476182315 -0.026490499421941788
563 0.006459065664220864 0.0013319235972160048 0.002747846726345491
733 0.0006164284614232924 0.006354332753869724 -0.0031170867611722253
734 0.0025140822247705047 -0.002459138264472012 0.004078753897393643
565 -0.0010989426538698958 0.0058228388212647805 0.00524875149015002
567 -0.002028298449735647 0.0044348345012916145 0.0028582812048111683
564 -0.007004812220819949 -0.0036715015854654146 -0.004931941880692128
1058 -0.0018590723232222092 -0.0009728026769643606 0.004038710592544645
574 -0.0031264122237294667 0.004774446645909148 -0.0001079380349784027
568 0.0028237065113108895 -0.0022457588396252873 0.002009779337854328
573 -0.005908489962380369 0.012747095288996957 0.005988240958463018
572 -0.004523202352894509 0.006558750217938902 -0.004323301557958318
451 0.008727674959726615 0.008548371578182737 0.006322758746236743
862 -0.007072898972327011 0.012303490344922131 0.01692133744909622
861 0.017023829510180003 0.00019002151943911112 0.013872844126023994
446 0.0016772219626178364 0.0008857421896253251 0.003313474512034062
452 0.0064292006410064575 -0.005840416755775015 -0.009503766941313848
445 -0.001022966547512736 0.005837771472247683 0.0043447933846924875
447 0.005655266428721896 -0.0013678276002668862 0.0007916033829733848
448 0.0007306374106666175 0.005495905645709807 0.000504767874774741
860 -0.012694148103364849 0.0038520107124816487 0.02696568905051136
454 -0.03050946033321261 0.001181685082106335 0.006259409295295443
453 0.014801169955280776 -0.004988666150874125 0.013932414220997802
854 0.006654709850592122 0.0017964768920621069 -0.0036934102899134464
856 0.002398998675597691 -0.008524749005614106 -0.006593601575517265
853 0.0023762058916787262 -0.001257773875171973 -0.002448710615441258
855 0.0017115203408721077 -9.814287896275228e-05 -0.0007428088596854918
241 -0.0019700045078943486 -0.0015516063292982509 -0.004289210891030481
497 -7.16023859148136e-05 -0.01193589574075546 -0.04706856410495847
246 0.0005016814833125142 0.007807145316673898 -0.005978258699289179
791 0.00594149873457591 -0.0007914544492931541 0.0035722064531970663
1046 -2.8841648649950542e-05 0.002674800188173048 3.2108176030927903e-05
746 -0.006359896937957649 0.00332159951074297 -0.0026069010887326753
754 -0.01756301153212819 0.001858257915018169 0.031139043337046052
1041 0.007061179215425602 -0.012360505078336371 0.0008241167210363773
456 0.0034763379336949078 0.0007821863600466343 0.00014359690599961445
457 -0.0028272875943406725 -0.003630322953497641 0.005826921043909912
458 0.0007036119880107451 -0.0005517330973705377 0.004617295889079069
455 -0.0031942733112939547 -0.0003512524979588184 0.0026005465342322253
463 -0.004611723050155016 -0.015388332532361729 -0.008258745066662063
462 -0.020800963575425553 -0.00038717686260585034 0.008224152223630326
461 0.023280862150808414 4.1782470137889666e-05 -0.008812260469185824
283 0.007622509642804823 -0.0028133152054982367 0.00722700516340525
284 0.005777902548180788 0.004188028306167348 0.0018737373001620028
683 0.0005877936240275269 -0.003506344644426811 0.0028225786430030467
435 0.004983124777018147 -0.010419869669254019 -0.003524825708541869
442 -0.013448587745798888 -0.009403309773917313 0.0008075147218927041
285 0.002030879039566417 -0.003045831490938864 0.007222564407697841
436 -0.000106444748931113 0.000557880601424414 0.0020970403496307745
440 0.009486698246988738 0.018206232291704684 0.00793772609426436
1013 0.005657087179624184 0.0032626179804686943 -0.003784003327920842
689 0.00907438518687434 -9.922632313664831e-05 -0.016482295076606517
441 0.007033438546315421 -0.02754977931833231 -0.010465992686248465
690 -0.0024777244380128345 0.028428002890951577 -0.0193234377522811
522 0.006282655139736958 0.029804808432359463 0.005115318297885489
516 -0.006704204457548341 0.005443862904237336 -0.003246247038472017
523 -0.017738979777215738 0.00017624690240844598 0.002849156157583093
803 -0.0033091260694749665 -0.004524241424585586 0.003710255642978644
810 -0.003833579330955942 -0.005946174106144078 -0.014301489432570187
804 0.00741132039998004 -0.004030995931062734 -0.0012823018974289313
809 0.012534887426161236 0.010842272621488463 0.014648320815718527
487 -0.015370731810599432 0.013507992683858949 0.0034297433437357867
657 0.013040949931073477 0.016482755623195115 0.005416236555676533
479 -0.002136622758879255 -0.00365269640691408 0.0034470416245031836
805 0.000768188366499201 -0.0007825505454624141 -0.001188243960074585
14 -0.007543066743839327 0.002038166577685192 0.003912018343943725
485 0.004554123549390637 -0.006117759698959753 -0.017121477130309783
486 -0.005385824549570131 -0.010148913746765579 2.47474784845609e-05
658 0.015920323195279595 0.005132301294920887 0.004934999514916465
806 0.001211327422491032 0.005268582506633424 -0.0029319954043939625
15 -0.004071367063865669 -0.0015534899306747349 -0.0054083941246271345
652 0.0037078463371810265 0.0026117034583165175 0.0011801267826996064
656 -0.012262729901343224 -0.016627505881312146 0.03052967446837371
480 -0.006617177822876268 0.0020270321453830743 -0.0007586684365311845
1027 -0.0019529095982004346 0.002132260089790849 -4.0051975862633255e-05
1028 -0.0031313475209866935 -0.0054777624097407844 -0.00036767943269972895
515 0.002281107772443637 -0.0008444553031966886 -0.0019461073625365894
216 0.0018119586736568712 0.0008594050636649505 0.0006855632963121209
211 -0.0010760320822902594 0.003919822700244829 0.002171348045720269
218 0.03419649181648988 -0.022313161436882407 0.014373830579200103
521 -0.025531466021110807 0.003342992980498836 0.0031001715257156894
202 0.0022330881185683746 -0.000436026212720274 0.0010386065542996909
203 0.0015954844952694159 0.000710083620392324 -0.003539832138745641
209 -0.018482121489130168 -0.012127281912053107 0.015260254942838287
356 -0.013568073991469583 -0.016144645413826663 -0.01813725922485688
318 0.009305428490890296 0.008306916667438395 -0.014033338538130756
311 -0.004207832637656198 0.000323714864108428 0.005626842272027035
317 0.016161630611547965 -0.003733389367345751 -0.0002837577225901196
319 0.00823536260916243 0.010664591843061262 0.01970481815582967
312 -0.00459972542131422 -0.0011463358145836918 0.0005970784745406724
776 0.0010036677468224838 0.009018308823803492 -0.002150996929116713
777 -0.0075601109070256136 -0.00032939230745711074 0.01887948556429831
349 -0.0050711500952881254 -0.004847023232361426 0.00026847036715416583
772 0.003883857730505819 0.0008420175430293854 -0.002318199190466307
210 0.004619115159664999 0.015862317225446156 -0.0016998088429115198
898 -0.015525819015492553 0.024370307039253605 0.0016021861811151743
792 -0.0013265350303813006 0.002239531267563244 -0.0027480792233958427
286 0.004058556407009771 0.0007243964530680598 -0.0070016074426587785
282 -0.002216014438692586 0.0033429295101355997 -6.07155478290913e-06
281 0.004035488176877873 0.0036334078328816486 0.009764244201173776
290 -0.0017419320960548265 -0.020724145894971468 0.00757795310167286
288 0.019124725953638764 -0.003149100800202017 0.015954900967788153
287 0.013255073762761312 -0.02586157069395025 -0.0035744490720382494
704 -0.0030784186863833207 0.003629907178232203 -0.00892765290165274
1003 -0.00449216450225046 0.004623724235468614 -0.003292553612394492
1006 0.004201264871854453 -0.003887262900432621 -0.006751732386421122
1007 0.0023894245569736185 -0.000368346215097817 -0.002910027751416274
1005 0.001669087431305424 -0.0002378461485358829 0.0009474825090974994
1004 -0.003711093124562542 0.004293206780743557 -0.000510160386023242
1008 -0.0026286590361232595 0.0023639573029672982 -0.004660998789593271
420 0.0020515775530542814 0.0018821380511673997 0.000226311611257081
421 -0.0024009818479746306 0.0015920145727091248 -0.006014959546441158
423 -0.004215025474068947 0.005284541274331752 -0.0011202183398666805
424 -0.003239734011208074 0.0024233553430820388 -0.0052166666526183465
419 -0.003127485810466937 -0.00311062020865258 0.005954020642912073
422 -0.0007429137276144755 0.0007823744623242089 0.006578199493671389
430 0.010271980391831836 -0.032796634684996384 -0.01848061306388076
425 0.014693061724692534 -0.015066909345648178 0.01732759583158537
427 0.001442170471068717 -0.02168646370117397 -0.0009849010819003533
426 -0.02289366640175699 -0.014590819657197341 -0.026122529613093224
429 0.002152540893040829 0.022540688073579215 -0.02488226851096241
798 0.005123976985361187 0.01984531494979997 -0.0006171813239739072
428 0.00247570034887339 0.009411086291665111 0.0005076197790091979
867 -0.0025579880754520736 -0.0003634811595926934 -0.002027283816432562
868 -0.0020032572618335735 0.002026808636976922 0.006453445485637349
874 -0.003241645183604483 -0.01902263071105912 0.008150897874189333
896 -0.010345938663465427 0.0012482426340163087 -0.013617307609215649
892 -0.00728483474709066 0.005863706188679604 -0.0018520140855892988
897 0.00399178921471115 -0.014854133909843515 0.007193719006228522
1002 -0.006609554933325252 0.0014775413281564297 -0.0007797912574834777
289 0.015918560582727673 -0.03051604304521861 0.020283986234979404
811 -0.022183380940968438 0.007897897801016627 0.009815457768692424
537 -0.0024446526684699836 -0.017797669641334807 0.005191033031425803
749 0.011908301364705146 -0.005361297241791683 0.02377039916948799
538 -0.002486600768013482 0.006441313807787941 0.009572369889771568
532 -0.002466127774441386 -0.004102736001293709 -0.007961088535036357
536 0.002205286921076504 -0.010914021887990637 -0.03472091241263522
751 0.004789296624514312 -0.015246184241015058 0.003586013327782553
366 0.0008551288932980059 -0.012109775954660779 0.009405279904745344
1001 -0.0007632718688110892 -0.005075361804441983 0.005543963511587238
531 -0.00015308270570577222 0.00391239465958833 -0.003312337046203207
750 0.028139729953980532 -0.009150219624438015 -0.032538036431228524
743 0.005426308278689917 -0.0029080253626234693 0.01107594394152249
529 -0.000840075383229778 -0.0003152856166161657 -0.003167299591517622
530 -0.00039442972106811625 0.00922500420839775 0.009883643273218085
970 -0.001633036894462811 -0.020393383102878585 0.0017119303007294099
649 -0.00038582859915423735 -0.0033324517998810166 -0.0006718419917106647
528 0.002485732523394834 0.002264073842743145 0.002170496910012642
534 -0.001525504152955609 -0.0002652529573042687 0.011367499058074673
527 0.0054799786503418714 0.004048635339642809 -0.0038131475871492236
535 -0.007803973578854708 -0.021158361127918295 -0.016431899204251917
533 -0.02780483655047222 0.00394262588975126 -0.005367135880600772
648 -0.001932253675393345 -0.004594148668917743 0.0011477061669557982
650 -0.0015300475474936605 -0.006598934462383312 -0.004736438845984772
655 -0.0015963221540287293 0.008422863887464266 0.0014250677765971875
744 0.003936751923364396 -0.0051514723022726226 -0.010593940872797995
651 0.0051667824136615685 -0.0062350897889157115 0.0019664617500218646
404 -0.0042149988426250645 0.017741784968875452 0.011431414761620413
400 0.0013219796947672648 0.0041998811787877285 0.002047482335810822
405 0.008639370439558333 0.002923316057213291 -0.019006017719472763
745 0.0015989559568617478 0.0006788617737095719 -0.0037767106534343977
647 -0.0049437578283336725 -0.0023781816611176394 -0.0014209680136014556
653 0.0030807491026447406 -0.009640797199621052 0.010159306894799606
747 0.0018174216752305282 -2.9506868646280937e-05 0.0032521495735128667
575 0.0029261139508540853 -0.004712528246396299 -0.0006107856450467564
578 0.0057884696096593075 -0.002614645959395324 0.0025778356150245865
576 0.002315519722532279 -0.0017493015307435422 0.0032567603696085612
585 -0.006164101863235446 0.0032613077768664104 0.0011349636611617813
584 0.024248362228110776 0.010390500906541802 0.0010562573831580501
577 -0.005461027132613375 -0.0005362613367902511 -0.002255075934104551
579 0.0029692667158202945 0.0067355745567606136 9.209516488003366e-05
580 -0.0025598464432604485 -0.0020357269192347776 0.0002998389164109681
352 -0.0019527765942169385 0.0045501453043293 0.0007655492274596269
357 -0.00769786369983987 0.007226389731146949 0.015254721294664281
872 -0.008917816737634742 -0.009776704187071378 0.021134442141644425
581 0.0004420239165117299 0.020102657563199566 -0.009852912993974339
351 -0.0008215152329068273 -0.0006276409435745139 0.001186081935743845
348 0.0004832674208289786 -0.0010307092544106873 0.0020360796980208543
358 0.00960709885587174 -0.0073999707312855 -0.012640641948346144
586 0.01659368957955269 0.03722122915750939 0.0054755307323754235
1045 -0.0030022772755014825 -0.0016762930156341963 0.004065671964287264
866 -0.00034244260732843145 -0.001983564024190659 0.005119920283647286
865 0.0010828963944099108 -0.0003617362268434117 -0.006036685541076246
863 -0.010158589520093816 0.0047319413727886835 0.002287130297308453
864 -0.004615970867991455 -8.918453425989535e-06 -0.006299096492494365
869 -0.03686253064002685 -0.005190300899129315 0.0020746509877478778
870 0.022639772380222897 -0.01712736498651338 -0.015264039923403371
871 -0.012034164982691659 0.020015279176046157 0.005279646372645169
1044 -0.003540123518385204 -0.0016105736907143526 -0.0009359823965908428
1043 -0.011819824101836855 9.801728422361004e-05 0.004273478811217172
130 0.021063136423370363 -0.010677272178685422 -0.009402554112688612
1047 -0.0031958944133370693 0.00867341136063406 -0.0008861484207221593
778 0.0017506697146820597 0.013325183616146109 0.014484584179311415
771 -0.0027348610176905555 0.0009616736294707649 0.0005632280396445005
582 0.011646716381361498 -0.0046838101392407995 0.0023756297924768244
769 -0.006935199912089466 0.0025273862588037366 0.00018003554432355977
850 -0.009424544750479843 0.006497728309743302 -0.043621609499902715
1012 -0.001364568850306055 -0.004705093540730941 -0.004636853109364849
1011 -0.0028646996781484147 -0.006153737877558654 -0.007691027158175118
229 -0.04144182083322016 -0.015791022873408507 0.012214694648109653
222 -0.006851506842696995 -0.008213753272337627 0.00224136504557185
223 -0.005751972520335962 0.003358255226911157 0.002158293331278011
230 0.005651654156461445 0.007625900966608741 0.027435055911607494
226 -7.909373925573217e-05 0.007262341674142121 0.004480639090439439
224 -0.002143308008991513 0.00023205772758642097 -0.0035952936935093297
784 -0.0017303365612611093 -0.0011571713100273925 -0.0015230469238622453
790 -0.0059582262081293086 -0.02541288640490861 -0.016337640406384368
789 0.020303554300809386 -0.011740817674081562 0.020020450776602375
788 0.002490624593139925 0.00901087349527268 0.023630743118535805
482 0.0011786743637009118 0.0036776137223436247 0.0029351952003102565
483 -0.005859378152503303 -0.0010238125415168756 0.008226611568475496
484 0.006212632910947503 0.006255051984876228 0.0067707139392663256
490 0.01763356273052766 -0.025337714041011906 0.01887668726997029
488 0.023424275455279944 0.018003668794483934 0.020791825916229446
481 0.004720772445471935 0.00324308637366301 -0.0038825652626020665
976 -0.0010218798290111946 -0.003571616277409395 -0.0005421200820534631
982 0.008973240942230357 -0.0013981784732262708 0.018826719938294142
681 0.004289228782854216 -0.005286328358776898 -0.00928431574648701
682 -0.01882560514797051 0.006671981017088316 0.023948691309451042
981 0.015256421340561929 0.015481026479213908 0.01018350314422057
676 -0.004337956350981083 0.0024932339477856053 0.0039025478563897943
355 0.0050871437873596164 0.0075301791680234716 0.004250476047655436
517 -0.0024708810043238758 -0.0011898322124569715 -0.0005166428549704636
350 0.004688781276727881 -0.003795131570519928 -0.008053276013701035
347 -0.005147526482438236 0.0002124393430219186 -8.919008793627052e-05
208 -0.006746820164747112 0.023250409317458004 0.03170516028844285
201 -0.006241121308122884 0.009908887538628104 -0.0020225921945694167
204 -0.004921975389533006 0.001215839232476698 -0.004689943468501152
206 -0.0006391014596148055 0.0056885934163355655 -0.0019255229655626134
205 -0.004574822890511905 -0.00462831798813754 -0.005013012597219831
518 0.0032195190194773365 0.003924914077671976 -0.0016755258296790084
195 0.003925468781013732 -0.0006542034204701909 -0.0020123581781091564
343 0.008274128893539023 0.013247694033921554 -0.002550769849650344
997 -0.009817588625757033 0.008319305551072347 -0.0025899589990645813
338 -0.003155100048446358 0.007887338320374063 -0.0007110786471871755
818 -0.0005504515237173568 0.003363776194866146 -0.005441599547794312
525 -0.05030918250918259 -0.00695275343983567 0.015195201714950974
1009 0.004058854819997288 -0.0032774341243232796 -3.1463346551163736e-05
1010 -0.0057719081109059425 -0.00835743772875828 -0.0008273626377291159
519 -0.008431541559714626 -0.0014897028191703954 0.006348381950089127
225 -0.005169406913052388 0.0014648948216035111 -0.0025180921694706064
920 0.006909525312257299 -0.010057105934799542 0.019562950854676582
817 -0.005325477695910584 -0.006844215547624941 -0.0030616699677064284
277 0.0022226427869617574 0.0005478755059538728 -0.0061510011972854915
645 -0.007303702851655779 -0.0014664266752126055 0.030048827825708502
823 -0.02214134866097838 -0.021241432059837667 0.015762229183916784
816 0.0008401680228623922 -0.0074893637283953984 -0.001995858891010863
636 -0.00012776508520825238 -0.0011174048142553162 -0.003288268390144407
637 -0.003769632054073364 -0.006365279827500048 -0.004969726972515981
815 0.0013852358651151454 0.006642725315397435 0.0072071988082309385
821 0.0022277675616225994 -0.013947053243019704 0.011254384543829463
921 0.004602738521623468 -0.0081136393514909 0.01007179102071143
822 0.016555700224916557 0.016427293876740207 -0.019974621702431083
638 -0.0014830451132335214 7.599281911006137e-05 -0.005506748046331424
640 -0.003916481948512838 -0.006963999808940049 0.007665462096928134
639 -0.0029385652843517338 0.0009672855617626875 -0.001385270296371693
646 0.001488671609038394 -0.00033998079400551523 -4.342339765831746e-05
644 -0.01425560775702326 0.012804547048574474 -0.007640128340942453
524 -0.0036838814348819555 -0.0014597963949390962 0.0203808744433618
520 -0.0023525928444833324 0.0037248796926960637 0.001396714832347295
280 0.005277094804361665 0.006427751624119839 0.01241677793243052
406 0.02398628544478291 0.00683383739003086 0.01213872032987079
961 -0.0004192971780092852 0.0028739975582504867 0.0006662974908935917
965 0.0024285553921444807 0.019324886666746383 0.006669593511218054
960 0.007550801226000542 -0.0038342676087956065 -0.0004486001181004385
279 0.03097889099269187 0.01116850334063447 0.0018641237176262888
399 0.002185998865220964 -2.477545086105492e-05 0.002643658469050003
278 -0.006348927833761425 0.0023314153865370423 0.01200546047554361
276 0.0007038193795431908 0.0013572499380475555 -0.004819040662980123
396 0.0008783639829117236 -0.011563027535356613 -0.004359501375179
397 -0.00020594769200637893 -0.0009252263869454462 -0.006063903416117629
680 -0.008200221638373 -0.00742097033196566 0.029325006142549168
675 -0.001866431903381309 -0.001324067190214625 -0.0027283469361191032
271 -0.003000542022954009 0.006053136018736279 -0.00014355532348696247
272 0.004721168679861622 -0.008852968406145514 -0.005422069023428671
402 0.0006127492467909703 0.023707683828883386 0.017834204302966054
395 -0.003712195455702977 -0.002931592331401287 0.0022988252392889216
403 0.018377717276737583 -0.01627411940680899 -0.018931527967557076
401 0.003473303419486213 0.005598309521305644 0.041450425365298416
273 0.003966520741348689 -0.0019462853789647798 -0.0028540373004980976
398 -0.002376031024569614 0.00011995520355557787 -0.0020995739447165276
274 0.001369105215590887 -0.003648666578385373 0.007631415979567541
837 0.00871032868166292 -0.0013990465111227062 0.012318489512444344
838 0.011782733107818957 -0.0008209083002313454 -0.01159707387817605
354 0.004898904711451708 0.003998694561397231 -0.03662900345304828
1042 0.0015499825921001802 -0.0012494351066666993 -0.0005715853152948168
1048 0.002682409341804975 -0.0035734717826438563 -0.004386660419817151
1049 -0.0027739615539421314 0.0031858722790905226 0.0030676242601039815
1052 0.006240528003816121 0.004448411141251566 0.0037258203376119973
959 -0.008565964203979896 0.0007307415159045847 0.0021824190569036997
966 0.0012985037211076193 -0.008894287859539867 0.014843300141213442
353 -0.013680918169389631 -0.003576128255205105 0.0068787670354318224
832 -0.0011541890412449254 0.0010479767784173216 -0.009775797663298221
836 0.004061970237300347 -0.03330644640321836 0.03234502593295371
346 0.002374684561033637 -0.003921262499499122 0.0070726218410201306
340 -0.003473433765838225 -0.0022394843353721605 -0.0010733808550248516
831 -0.0009270009466542481 -0.0014252426032804158 -0.010974021744473152
526 -0.014325629626626516 -0.003175836096931107 0.01260393490676103
1051 -0.0008357747101847339 -0.0005093012246549387 -0.0013535785287150433
344 0.012991129807066274 -0.028276987646295812 -0.0018424371077487714
1050 0.0026548762893606934 0.0003927991290723219 -0.014306426940027228
830 -0.00526354051330002 0.004653266907533794 -0.004131629726376285
829 0.0021686833682363297 0.0024842666103877826 -0.00035447286697734185
459 0.0017635924059533192 0.007681693164851747 0.0031073374719855365
27 -9.529079918144385e-06 -0.002310053785874638 -0.0010055566848041096
28 -0.01827507315349091 -0.028418056514814993 0.005719062500408001
873 -0.012678611869983496 -0.00972825406534269 -0.0142265280288674
99 -0.016183501976570522 0.051510901427793285 -0.011267014299162636
128 -0.02853084285664066 0.009070860289251623 -0.003100355236511142
122 -0.003259348681984433 -0.005849767580128846 -4.479140995948422e-05
127 0.004121730787975039 -0.004412468234456086 0.01706600765469014
121 0.0006177809014110763 0.0009075478965546923 -5.1831584253075165e-05
770 0.0074054307523230304 0.005197392970758503 0.00021962621238850322
643 -0.010051573456206933 0.0018650034018848518 0.010965073569405535
878 -0.0007700396482027238 -0.005826091856376001 0.005098630743934697
116 0.0022558875805420812 -0.010259502963117315 0.0074674895560647445
880 -0.0012536685295637773 -0.007335892728757798 0.0018462140260398104
877 0.002805090368441722 -0.0007221357788152787 0.0009777210608877128
781 0.00441511300525563 -0.002661703660243293 -0.0038269230524223207
783 -0.0023855247691313875 -0.001245981986808094 0.0033788675157697457
1026 0.006707523879427989 -0.0025122293678132117 -0.00033803033996183
1024 0.012364289377835704 0.0008644196263919892 -0.0019927570185146533
1025 0.003538010724677484 0.005546159720671375 0.001718597401017896
919 -0.006862076244053794 0.014067137769428043 0.004004588738419908
489 0.00391207478919931 0.0022001721181344096 0.002214989483676398
1022 -0.0030638011527394475 0.005991333051410571 -0.0028076920661253423
1017 -0.0022551653897829515 0.0013330096759212652 0.004536900044657754
1021 0.00884875215486354 -0.0035715263721519124 -9.18154970018561e-05
559 0.002505262740283088 -0.011349311814436186 -0.014343302969306283
557 -0.0032769238942166965 0.011469452621386557 -0.007871198938104227
980 -0.015515546592926909 -0.008333031700099539 0.012648872143212806
558 -0.0034816194265570215 0.008307042226459756 0.006172584762756871
551 -0.0012128627955633753 0.013831695668966389 1.281970621221958e-05
780 0.0031555592321618766 -0.007870341825050312 -0.007879710173870373
782 0.002803575687789521 -0.002221895586660908 -0.0027685570154887614
785 -0.023262899225372214 0.00155725957871413 -0.01761311646234884
342 -0.006579956242552773 -0.013181911558137683 0.0018796691333410596
335 -0.0017712625814401018 0.00048346974177500735 0.0037594107731377647
341 0.011895420233181563 -0.0030812282607240752 0.0165944701041443
336 -3.7228389210109e-05 -0.002886702074879939 -0.00030450951341092663
337 -0.0026799532756322272 -0.0021114531878187667 0.0038957021225956763
786 -0.01092762354389581 -0.0071324514168760265 0.00045109184905958076
779 -0.0050886281357034125 0.0020175858478241383 -0.007861143567238148
787 0.00917182270120621 0.024915582334046785 -0.008865079355165425
665 -0.03409874453060333 0.024431299559776395 -0.017793180489516662
642 -0.01753587478538011 -0.00697860645816455 0.01306392074079091
493 -0.008913815274443867 -0.0007610165790434681 -0.007390913479615855
641 0.01468260394808692 0.0031196175365941054 -0.02069326745143346
635 -0.00040337068224063905 0.0032883552519742242 -0.006376453218957762
913 -0.00730877164099534 0.007960523047126196 -0.001341914292340052
915 3.762900979687197e-06 -0.00043493264739864946 -0.0022551221699771275
912 -0.0017153716894968791 0.0032989981035469566 0.0031267884909332144
916 0.005423853760723321 -0.0020332897958779293 0.0002368216759867025
914 -0.0045879360164046154 -0.00596320835331969 0.004222817699033858
922 0.02195135342476837 0.014115636879898395 -0.014274731287503424
495 0.0015683010336424925 0.006706150334137569 -0.00903600857467499
492 0.0013961018807487674 0.0027987870057922214 -0.001246364918833487
611 0.00673018708436472 -0.0024597248212828177 0.005032108473840074
618 -0.006415879315939184 0.01300836268124264 -0.004036261391992546
911 0.00881106397058938 0.0013124792181414158 -0.007398959017691036
619 0.02718761868969599 0.000531964279107112 0.019370134662812052
617 0.022633098357624604 -0.018023449361738286 0.03523935953142736
496 0.0020153078160602533 -0.0002447922903118576 -0.0018940604926566229
500 0.0012485120186178059 -0.006143850676789645 0.0343676402188079
494 -0.0031109977401658556 0.0034415971040298813 -0.0033798589808876844
149 0.005612748654684524 0.0009711505816386219 0.004516962480451133
612 0.006110773488573144 -0.0037114446134610185 0.0015257110611413265
1023 0.0030612312037074083 -0.008644374500806082 0.00045337093282152416
673 0.002768660658819183 -0.001674459987486381 0.00357846721846436
275 -0.004392729624636348 0.00024459982828268015 0.002572077994152304
679 -0.01932741032145085 0.0052596160636578715 -0.027258327031247035
613 0.0017316686466763342 -0.0027110929093222083 0.0066827627815395346
614 0.00013257987604028054 -0.0031596729856735364 -0.0023083917293195886
671 -0.0038414047963695585 -0.005519646475050618 0.002406826802328663
672 0.004862280674017707 0.000845972490987818 0.005923213315941789
674 0.0019407769557022476 -0.003646020095262585 0.0006700075044950981
1000 0.001936909528974497 0.0010665081867058627 -0.009445802601925225
616 -0.010091383188270868 -0.002906654767664493 -0.0022197479975066756
615 -0.004030427090271026 0.0016194280264790661 -0.0031328623138557297
620 0.002988521542386691 -0.0057518687625638925 -0.008507042008615198
678 -0.0077910760777128545 -0.010468308909573572 -0.017143622740350504
554 0.0026161554348697698 0.0034496161938366915 0.0018894587248431789
677 -0.02072074754148578 0.007716580815676766 -0.014970201988901595
622 -0.0227231719386768 -0.008263774690269406 -0.021247107546465006
621 -0.0019159269081495082 0.014747660627947403 -0.0038230239780218498
111 0.004407624490748605 -0.004533128551151957 -0.008028971114251117
885 0.007251258883983694 0.010046269185522882 0.004361421534593828
879 0.0019957584755883272 -0.00013207819487087624 0.002636343772055553
339 0.0038414522636223375 -0.0023828312645734007 -0.004846740958724277
118 0.012151020675588316 -0.04442613479169551 -0.008651693349949393
502 -0.010429234794199422 0.007835484267119462 0.004902997343061789
501 0.005952388534196671 -0.007384359826226171 0.009201691399809498
886 -0.0007316704403500518 0.008529535204462462 -0.013489172139499976
833 -0.013034979342812135 0.0028578221477714347 -0.019699615606369947
345 0.004467933994770421 -0.004803596613840276 0.011410478527622657
834 -0.012610667836977717 0.03144753556790944 0.023920493504334228
828 -0.004269187804771205 0.00580822230089064 -0.004753365494673349
835 0.00895322437526183 -0.016862270783825444 0.03136517997869444
827 -0.016828428964914335 0.0038202897429631625 -0.0013831256671932141
667 0.015411789038240588 -0.0023800967623080933 0.026771502983442223
659 0.003557714892172433 0.004932423607975723 -0.0032611127033773204
666 -0.0010842267706226102 0.008694646580231842 0.001771998252151528
918 -0.026771272432365652 -0.027706127646986958 -0.0033309670486685538
236 0.0006664576038439971 -0.0009249732573473276 -0.004612859569063507
891 -0.004788678587793081 -0.0022937729618630245 -0.0007088274082579868
748 -0.005960922871903286 -0.0036242090927228604 -0.004984244603941281
753 -0.01885441534979528 -0.0016877107639086816 -0.020845198602899444
752 0.013835910169334118 -0.018351651883546757 -0.004911549877693233
112 0.004130468044244018 0.0010080759599226435 -0.000442867099407036
120 -0.016117639858076734 -0.023271928126909584 0.007295318827663073
119 0.017262568989891404 -0.009496946380728904 -0.01887173165658459
876 -0.003044500094058185 0.00027764333982269705 0.003526346013997456
795 0.0021845602337478955 -0.002082016858406424 -0.0030764185726693885
1072 0.0007700767258101335 0.001704175173266213 -0.0020092308112852077
1071 0.001273163621744976 0.0005956227902191947 -0.002802517159926172
998 0.010489411315523254 -0.009520316934208498 -0.009688602614799442
410 0.0007917781345611521 -0.0011223909369750457 0.0035711533587828503
418 -0.004847215436523188 -0.005318148002697464 0.01436207046287263
412 -5.3068431525099813e-05 0.0008964338085977531 0.0036382869352952207
411 0.01016532431395506 0.006731030484363338 -0.000995734195520233
1067 -0.0030608994113226987 0.00441293457286446 0.0032604714621480412
293 0.000809037978230205 0.0033927757331589756 0.001115284274988871
294 0.009097485073627721 0.002594249626488275 0.0008751718025343912
295 0.004607262886715983 0.007975498507901961 0.004811235734021202
1066 -0.0058832377929912095 0.0007361393087084831 -0.0037244053784259855
270 -0.033603808207531345 0.01490277379961781 -0.01072850758961471
417 -0.0138719638867563 -0.02028946127287139 0.02193768695785642
416 0.011571206821299276 0.010049331809034416 0.013074230683452238
269 0.0034669062060743963 0.024430247950816202 -0.001536577327771677
262 -0.007835652862761305 0.0053302632737710935 -0.007813575399371829
21 -0.004247483996055788 -0.00028383606356108715 -0.0019163509357563184
22 0.003364506724068247 -0.00589447190854517 -0.006325800826265681
30 0.005352259450799367 -0.0014189090683523287 0.016012702131356363
26 0.001226511673037041 0.0024789891508041045 -0.0008594061856492554
24 0.004916785962060402 0.003036073185161254 -0.0024556557846023928
332 -0.013713727358798819 -0.013082270020381561 -0.008826657889550527
333 -0.005068940842608874 -0.012653155548618364 0.019781367273417835
326 -0.003086977075558002 0.003176313039126345 0.003530314030882644
328 0.0014827973383079653 -8.975904577351854e-05 0.007973719726032055
334 -0.0011857786888206656 -0.020211295564515216 0.02104073974502082
325 0.006465041748668474 -0.002805403613247779 -0.00267040472928177
807 -0.0032428043594648283 0.004654360158012342 0.004071890472759666
327 0.0016289723150026702 1.0449542226082327e-05 0.002871759662687379
813 -0.011243658132991635 0.012137482180303145 -0.0038888098346598955
808 -0.0052438588799265965 -0.0008207673119824525 -0.0033514468923625334
812 -0.03223309864428534 0.006350248954347129 0.004166188057157044
814 0.0020456321692399492 0.005813069020540843 0.016254244600319667
23 -0.0009303617231118592 0.0021541204066892103 0.004852935521416723
552 -0.004045741747958007 -0.0004879449041454678 -0.0020931591479487984
25 0.006112491498211954 -0.0024184746242272817 -0.0015681495292737256
324 -0.0005029084680935292 -0.0025931629532369277 0.0007284182781324151
714 0.004499409995625277 0.012168888644564276 -0.01692503899824677
713 0.033150274060416755 -0.018088477667663937 -0.002615091834990405
715 -0.01962667703414301 0.021084995359676544 0.020293458829565597
707 0.004128461643801373 -0.0045277879463632925 -0.0026478396371637605
29 -0.02449171156626047 0.008122867144867402 -0.01195562468566358
710 0.011906221911752217 0.001353496823290533 6.454571944072822e-05
718 -0.008497296939618332 -0.0037744588912499225 0.01958810099962675
708 0.0012939059993373294 -0.0038126571465653377 -0.004216570133522943
711 -0.003793206491223079 -0.007564812618665005 0.000878821091202619
709 -0.0009111266162944643 -0.0015378377736095814 0.006053085958615701
314 0.0021070100201498725 -0.002604250499574468 -0.0032009691364988826
313 0.01111019911626221 0.008930562468175078 0.0003097126948067332
316 -0.004567115429314604 -0.0033707561501584585 0.0013498099498293775
320 0.01127756355980324 -0.009486181087398649 0.0023661037177100234
321 -0.0011219873451668214 0.021505289569978832 0.009574613958483517
717 -0.025121446918053503 -0.0014875237556894495 0.007557634195787112
315 -0.004079598566209591 -0.00551179239170832 -0.006680897572904484
712 0.005573756382411288 0.0014593754037489678 0.0020675983434557915
716 0.017937856522371228 0.017354521038642486 0.019448377864950867
322 0.01575852724477638 -0.004848057488819374 -0.020216814065211936
669 -0.017039731679967925 0.0037056521509513285 0.007961904543851742
917 0.02562694747693386 0.003507152924517686 -0.002703190147643976
472 0.006839558524196039 0.0036285531729620744 -0.0031660355934933176
477 -0.0003092590099705687 0.016425326312440466 -0.00596635221151643
235 0.007783151541566001 0.00015554311760012022 -0.002225132072764384
268 0.004323456028764496 -0.029820131942757934 -0.02710922919516581
267 -0.012846050415618496 0.014471134089560533 -0.00037671141775967083
331 0.012892525640865207 -0.010361838652507322 0.004653587588535299
247 -0.01582501877867632 0.006362915619372152 -0.008670434963546006
476 0.016208112414584478 0.007994828673027355 -0.013955210663699664
261 0.000522414697038741 -0.0033734836539698033 0.0048038938614000885
263 0.002753588439852527 -0.0009352015881999788 0.00014746814994437557
631 -0.0058240391310293215 0.002554812006944314 0.005981678282810816
266 0.0019848550386243826 -0.0021913694433539996 -0.0039003408322204926
629 0.007663158091957972 0.002312265325859115 0.01805907973508098
630 0.018505283941461788 -0.009739442697509574 0.021529275941202963
264 -0.0002575482168859132 -0.009616596768886999 -0.004180905042263823
265 0.0009513506240285607 -0.005940058769288389 -0.0023536393408421013
623 0.00047924479792111924 -0.0002553401041319161 0.0008636106117756288
624 -0.0022303650812552692 0.0029327456740196713 -0.0006070704787524299
626 0.004676009821876422 -0.003011158474070556 0.005825748586307418
625 -0.0059632328715072324 -0.0019227287089886125 0.0024993519578415152
141 -0.007999992409273484 0.0058539712141588525 -0.007800420905000638
142 -0.009722977206296321 -0.0016537523759058421 0.006586181988980494
143 0.006481213129792968 -0.0035903801704096645 -0.001230214302487127
144 -0.0034903530430158104 -0.001626350130589368 -0.00046381584176653415
147 0.01599245763349798 -0.015455698934219022 0.004028531722723183
150 0.02697157860248757 -0.015337450268618344 0.011078950770269902
145 0.010628787526229519 -0.0023945410160317294 0.00015498084708820162
146 0.0004906153730410372 0.00012002444896795868 -0.007319210996085711
148 0.030375462247200207 -0.004985761428501799 0.003390100764017193
249 -0.004595994823250112 0.017523783826219868 0.020268265683610294
882 -0.029643126329540234 -0.010452189868745933 0.012012153165019728
634 0.018173686891679593 0.010789202076162551 0.0004125534394868335
330 -0.00028564748767496046 0.01932810413320798 0.017021654481065566
323 0.0021118284467251517 0.001444208426740942 -0.0034815788739340253
627 0.0014127337393624233 -0.004895160551131062 0.001799311046338381
654 -0.009886138516626886 0.006486931588852643 -0.025785904493120515
93 -0.005395264493272297 -0.0012307138941971656 -0.00042445871003140645
95 -0.008490093850135567 -0.004020066243059509 0.012188574355245431
94 -0.0032784521580462808 -0.003291088352668964 -0.002203068641469825
91 0.0006819834159728708 -0.004453219126319302 -0.0022566990757854504
96 -0.004645098928097779 0.0060611806402993 -0.0010738361982015063
98 -0.019955665744703147 0.016233249760143505 -0.0034800172038219664
92 -0.006075818943964855 -0.011922849279303796 -0.0005436209749551542
100 -0.006917433971634351 -0.008131100753007893 0.02887012178662402
628 0.003926543272990417 0.003171431783572985 -0.0013060485698074013
97 0.014853570031477695 0.0030506984390054463 -0.009634753446178302
329 -0.005033255287701916 -0.0006530137305661051 0.010921070826034173
633 -5.906095018293639e-05 -0.017880526445158498 -0.012016698576199894
632 0.03200233954102906 -0.0065981669692318935 -0.03271873685722687
561 0.0007472130938128031 -0.0008801900197252253 -0.008089900607963538
553 0.002524411451341853 -0.001311206150495699 0.0027892191983009008
555 0.002181087996241893 0.0010356555877668898 0.00066878694896274
556 0.0029183721451052605 -0.005605838142677192 0.00246694753233527
560 0.03575387923099228 0.03518558106529723 -0.030857831722436217
562 0.0147656981077735 -0.0017420808995918633 -0.007415775252017751
175 0.00030771063648074375 0.0030801501293725333 0.008532753072576242
174 -0.0006936903155824364 -0.0005432688097873936 0.005850730723010241
173 0.0038264697052094905 -0.003477745085925311 -0.008701186081984285
881 -0.0037341283087355313 0.01427747570204954 -0.00937463839058259
179 -0.0020161049318931723 -0.015962368359385058 0.019260584128910806
177 0.018968110562302985 -0.002867139702662862 0.03228276330225758
172 0.00971477330176289 0.002900967778124768 -0.0031667781862899586
176 0.001782625764166441 -0.0020146303143033775 0.003325194619113614
126 -0.0075433549927883745 0.004677359474541336 -0.005044000033023552
125 0.0022395585267824115 0.0005552203950501904 -0.00041649190968977913
124 -0.00044530782327424016 0.010735380913758693 0.002543656323268006
129 0.023729135329820822 0.003660511353291449 0.002779166432307987
123 0.010042062205248649 -6.115643977836486e-05 -0.004461441551874211
662 -0.0033057992835266994 0.0008530407624692842 -0.007950901410944197
117 0.013512673180290568 -0.013359440819524756 -0.032339473267053234
511 0.005911040411636086 0.00809313807833505 0.009132620348224523
668 -0.011027877362324148 0.008299135204477552 -0.003104107245785247
663 -0.004544656872764371 -0.0024115870852396263 -0.0015643373404650924
664 -0.003825474225207978 0.0003189650586101995 -0.0010191127870380005
171 0.001003616794708482 0.0016031556520248783 -0.003371296981001746
180 0.015204573553255198 0.0010288576110629901 -0.011470830370888852
510 -0.001579117257710936 0.006721169023295704 -0.00180431720161536
512 0.026576393071931364 -0.0061620092774957525 -0.00210070664148773
660 -0.003805856099494449 -0.0009771406033571627 -0.0011925420853497572
768 0.004992407292991702 -0.0010233312884961006 -0.006229643498850475
513 -0.013772344454556587 -0.002521298766697827 -0.018883975514677857
508 0.002979686607608131 0.0013616672399265166 -0.0026461224435473866
507 0.0022170823660892704 -0.004302304956876678 0.0026641954376668557
503 0.005381203788295443 0.004040839869672242 -0.002421369743342448
178 -0.029920838033666852 0.01261650655383245 -0.009702840514977877
661 -0.0011816722638861618 0.0018226739938060333 -0.0027683489182606046
509 -0.00945798648337635 -0.016932167086856627 0.016671247762978094
774 -0.011204136684099699 -0.008647458114041447 0.014842506308554253
767 0.0038425181650125024 0.00040336258735051994 -0.002523088366979313
773 -0.002786428330929131 -0.007250647081402754 0.004746541598293633
670 -0.019970706752957524 -0.009875571363720118 -0.007130419604696162
514 0.0038190327820403045 -0.010822354043953217 -0.0043125133068344776
775 -0.011879167895400208 -0.014263319803828023 -0.012660268804975505
504 0.004309782488085306 -0.0001988043896007801 -0.0034818525344709477
505 0.0056348038718068965 0.003043179262211955 -0.005623973048981103
506 0.0014209201442960382 -0.0006013139544986453 0.0036174750766679005

Bonds

1 5 84 85
2 4 84 86
3 3 724 728
4 3 724 729
5 3 724 730
6 2 723 724
7 5 697 698
8 4 697 699
9 4 696 697
10 2 695 696
11 3 695 701
12 3 695 702
13 3 695 703
14 4 83 84
15 2 82 83
16 3 82 89
17 3 82 90
18 1 81 82
19 2 81 86
20 3 81 87
21 3 81 88
22 3 820 824
23 3 820 825
24 3 820 826
25 4 720 721
26 2 947 948
27 3 947 953
28 3 947 954
29 3 947 955
30 4 948 949
31 2 699 700
32 2 819 820
33 3 364 368
34 3 364 369
35 3 364 370
36 2 363 364
37 1 61 62
38 2 61 66
39 3 61 67
40 3 61 68
41 3 940 944
42 3 940 945
43 3 940 946
44 4 924 925
45 5 925 926
46 4 925 927
47 2 927 928
48 5 361 362
49 4 361 363
50 4 360 361
51 3 928 932
52 3 928 933
53 3 928 934
54 2 62 63
55 3 62 69
56 3 62 70
57 2 923 924
58 3 923 929
59 3 923 930
60 3 923 931
61 2 359 360
62 3 359 365
63 3 359 366
64 3 359 367
65 3 964 968
66 3 964 969
67 3 964 970
68 3 592 596
69 3 592 597
70 3 592 598
71 2 591 592
72 1 131 132
73 2 131 136
74 3 131 137
75 3 131 138
76 2 383 384
77 3 383 389
78 3 383 390
79 3 383 391
80 2 839 840
81 3 839 845
82 3 839 846
83 3 839 847
84 2 587 588
85 3 587 593
86 3 587 594
87 3 587 595
88 4 588 589
89 5 589 590
90 4 589 591
91 5 1063 1064
92 4 1063 1065
93 5 1040 1041
94 5 1061 1062
95 6 1061 1063
96 2 132 133
97 3 132 139
98 3 132 140
99 7 1056 1057
100 7 1056 1060
101 7 1056 1065
102 4 1060 1061
103 1 31 32
104 2 31 36
105 3 31 37
106 3 31 38
107 2 32 33
108 3 32 39
109 3 32 40
110 4 840 841
111 5 721 722
112 4 721 723
113 3 688 692
114 3 688 693
115 3 688 694
116 2 687 688
117 5 685 686
118 4 685 687
119 4 684 685
120 5 433 434
121 4 433 435
122 5 154 155
123 4 154 156
124 3 460 464
125 3 460 465
126 3 460 466
127 2 939 940
128 2 431 432
129 3 431 437
130 3 431 438
131 3 431 439
132 4 432 433
133 5 937 938
134 4 937 939
135 4 936 937
136 1 11 12
137 2 11 16
138 3 11 17
139 3 11 18
140 2 935 936
141 3 935 941
142 3 935 942
143 3 935 943
144 2 12 13
145 3 12 19
146 3 12 20
147 4 13 14
148 5 1032 1033
149 4 1031 1032
150 4 33 34
151 4 213 214
152 5 214 215
153 4 214 216
154 2 212 213
155 3 212 219
156 3 212 220
157 4 1057 1058
158 5 34 35
159 4 34 36
160 3 700 704
161 3 700 705
162 3 700 706
163 2 963 964
164 4 153 154
165 5 949 950
166 4 949 951
167 4 984 985
168 5 985 986
169 4 985 987
170 2 987 988
171 2 72 73
172 3 72 79
173 3 72 80
174 1 301 302
175 2 301 306
176 3 301 307
177 3 301 308
178 5 304 305
179 4 304 306
180 2 302 303
181 3 302 309
182 3 302 310
183 2 951 952
184 3 952 956
185 3 952 957
186 3 952 958
187 2 252 253
188 3 252 259
189 3 252 260
190 1 251 252
191 2 251 256
192 3 251 257
193 3 251 258
194 4 253 254
195 5 254 255
196 4 254 256
197 2 152 153
198 3 152 159
199 3 152 160
200 4 303 304
201 5 841 842
202 4 841 843
203 5 373 374
204 4 373 375
205 2 843 844
206 2 371 372
207 3 371 377
208 3 371 378
209 3 371 379
210 1 41 42
211 2 41 46
212 3 41 47
213 3 41 48
214 5 44 45
215 4 44 46
216 4 43 44
217 3 844 848
218 3 844 849
219 3 844 850
220 3 988 992
221 3 988 993
222 3 988 994
223 1 221 222
224 2 221 226
225 3 221 227
226 3 221 228
227 2 192 193
228 3 192 199
229 3 192 200
230 4 193 194
231 5 194 195
232 4 194 196
233 5 1035 1036
234 6 1035 1037
235 5 1037 1038
236 4 1037 1039
237 1 151 152
238 2 151 156
239 3 151 157
240 3 151 158
241 7 1030 1031
242 7 1030 1034
243 7 1030 1039
244 7 1029 1030
245 4 1034 1035
246 2 42 43
247 3 42 49
248 3 42 50
249 2 719 720
250 3 719 725
251 3 719 726
252 3 719 727
253 5 385 386
254 4 385 387
255 4 384 385
256 4 73 74
257 1 71 72
258 2 71 76
259 3 71 77
260 3 71 78
261 5 74 75
262 4 74 76
263 1 101 102
264 2 101 106
265 3 101 107
266 3 101 108
267 2 983 984
268 3 983 989
269 3 983 990
270 3 983 991
271 2 102 103
272 3 102 109
273 3 102 110
274 2 491 492
275 3 491 497
276 3 491 498
277 3 491 499
278 2 375 376
279 3 376 380
280 3 376 381
281 3 376 382
282 1 161 162
283 2 161 166
284 3 161 167
285 3 161 168
286 2 162 163
287 3 162 169
288 3 162 170
289 2 543 544
290 3 544 548
291 3 544 549
292 3 544 550
293 5 164 165
294 4 164 166
295 4 163 164
296 5 541 542
297 4 541 543
298 2 182 183
299 3 182 189
300 3 182 190
301 4 372 373
302 4 113 114
303 5 114 115
304 4 114 116
305 2 759 760
306 1 181 182
307 2 181 186
308 3 181 187
309 3 181 188
310 2 899 900
311 3 899 905
312 3 899 906
313 3 899 907
314 5 104 105
315 4 104 106
316 4 103 104
317 1 191 192
318 2 191 196
319 3 191 197
320 3 191 198
321 5 1074 1075
322 6 1074 1076
323 4 1073 1074
324 4 1018 1019
325 5 1019 1020
326 4 972 973
327 5 973 974
328 4 973 975
329 2 975 976
330 4 1015 1016
331 6 1015 1019
332 7 1016 1017
333 5 1014 1015
334 2 971 972
335 3 971 977
336 3 971 978
337 3 971 979
338 3 760 764
339 3 760 765
340 3 760 766
341 4 756 757
342 2 755 756
343 3 755 761
344 3 755 762
345 3 755 763
346 5 757 758
347 4 757 759
348 5 134 135
349 4 134 136
350 2 52 53
351 3 52 59
352 3 52 60
353 4 53 54
354 2 887 888
355 3 887 893
356 3 887 894
357 3 887 895
358 1 51 52
359 2 51 56
360 3 51 57
361 3 51 58
362 5 889 890
363 4 889 891
364 5 54 55
365 4 54 56
366 4 888 889
367 1 231 232
368 2 231 236
369 3 231 237
370 3 231 238
371 2 232 233
372 3 232 239
373 3 232 240
374 5 469 470
375 4 469 471
376 2 467 468
377 3 467 473
378 3 467 474
379 3 467 475
380 4 233 234
381 5 234 235
382 4 234 236
383 5 4 5
384 4 4 6
385 2 471 472
386 4 468 469
387 2 242 243
388 3 242 249
389 3 242 250
390 4 243 244
391 4 63 64
392 5 64 65
393 4 64 66
394 4 3 4
395 4 540 541
396 5 244 245
397 4 244 246
398 1 1 2
399 2 1 6
400 3 1 7
401 3 1 8
402 2 2 3
403 3 2 9
404 3 2 10
405 4 183 184
406 2 599 600
407 3 599 605
408 3 599 606
409 3 599 607
410 2 539 540
411 3 539 545
412 3 539 546
413 3 539 547
414 4 600 601
415 5 601 602
416 4 601 603
417 2 875 876
418 3 875 881
419 3 875 882
420 3 875 883
421 4 732 733
422 4 133 134
423 5 184 185
424 4 184 186
425 5 1053 1054
426 4 1054 1055
427 6 1054 1058
428 3 388 392
429 3 388 393
430 3 388 394
431 2 387 388
432 7 1055 1056
433 3 904 908
434 3 904 909
435 3 904 910
436 4 900 901
437 2 903 904
438 5 901 902
439 4 901 903
440 2 603 604
441 3 604 608
442 3 604 609
443 3 604 610
444 2 851 852
445 3 851 857
446 3 851 858
447 3 851 859
448 4 852 853
449 3 796 800
450 3 796 801
451 3 796 802
452 5 793 794
453 4 793 795
454 2 443 444
455 3 443 449
456 3 443 450
457 3 443 451
458 4 444 445
459 4 1070 1071
460 7 1069 1070
461 7 1069 1073
462 7 1069 1078
463 5 1076 1077
464 4 1076 1078
465 4 408 409
466 7 1068 1069
467 2 407 408
468 3 407 413
469 3 407 414
470 3 407 415
471 5 409 410
472 4 409 411
473 2 292 293
474 3 292 299
475 3 292 300
476 1 291 292
477 2 291 296
478 3 291 297
479 3 291 298
480 2 731 732
481 3 731 737
482 3 731 738
483 3 731 739
484 3 736 740
485 3 736 741
486 3 736 742
487 2 735 736
488 2 563 564
489 3 563 569
490 3 563 570
491 3 563 571
492 5 733 734
493 4 733 735
494 5 565 566
495 4 565 567
496 2 567 568
497 4 564 565
498 5 1058 1059
499 3 568 572
500 3 568 573
501 3 568 574
502 5 445 446
503 4 445 447
504 2 447 448
505 3 448 452
506 3 448 453
507 3 448 454
508 3 856 860
509 3 856 861
510 3 856 862
511 5 853 854
512 4 853 855
513 2 855 856
514 1 241 242
515 2 241 246
516 3 241 247
517 3 241 248
518 2 791 792
519 3 791 797
520 3 791 798
521 3 791 799
522 4 1041 1042
523 6 1041 1045
524 4 456 457
525 5 457 458
526 4 457 459
527 2 455 456
528 3 455 461
529 3 455 462
530 3 455 463
531 4 283 284
532 5 284 285
533 4 284 286
534 2 683 684
535 3 683 689
536 3 683 690
537 3 683 691
538 2 435 436
539 3 436 440
540 3 436 441
541 3 436 442
542 4 516 517
543 2 803 804
544 3 803 809
545 3 803 810
546 3 803 811
547 4 804 805
548 2 479 480
549 3 479 485
550 3 479 486
551 3 479 487
552 5 805 806
553 4 805 807
554 5 14 15
555 4 14 16
556 3 652 656
557 3 652 657
558 3 652 658
559 4 480 481
560 5 1027 1028
561 4 1028 1029
562 6 1028 1032
563 2 515 516
564 3 515 521
565 3 515 522
566 3 515 523
567 1 211 212
568 2 211 216
569 3 211 217
570 3 211 218
571 2 202 203
572 3 202 209
573 3 202 210
574 4 203 204
575 2 311 312
576 3 311 317
577 3 311 318
578 3 311 319
579 4 312 313
580 5 349 350
581 4 349 351
582 3 772 776
583 3 772 777
584 3 772 778
585 4 792 793
586 2 282 283
587 3 282 289
588 3 282 290
589 1 281 282
590 2 281 286
591 3 281 287
592 3 281 288
593 7 1003 1004
594 5 1006 1007
595 4 1005 1006
596 7 1004 1005
597 7 1004 1008
598 7 1004 1013
599 4 1008 1009
600 4 420 421
601 5 421 422
602 4 421 423
603 2 423 424
604 3 424 428
605 3 424 429
606 3 424 430
607 2 419 420
608 3 419 425
609 3 419 426
610 3 419 427
611 2 867 868
612 3 868 872
613 3 868 873
614 3 868 874
615 3 892 896
616 3 892 897
617 3 892 898
618 4 1002 1003
619 6 1002 1006
620 3 532 536
621 3 532 537
622 3 532 538
623 5 1001 1002
624 2 531 532
625 2 743 744
626 3 743 749
627 3 743 750
628 3 743 751
629 5 529 530
630 4 529 531
631 5 649 650
632 4 649 651
633 4 528 529
634 2 527 528
635 3 527 533
636 3 527 534
637 3 527 535
638 4 648 649
639 4 744 745
640 2 651 652
641 3 400 404
642 3 400 405
643 3 400 406
644 5 745 746
645 4 745 747
646 2 647 648
647 3 647 653
648 3 647 654
649 3 647 655
650 2 747 748
651 2 575 576
652 3 575 581
653 3 575 582
654 3 575 583
655 4 576 577
656 5 577 578
657 4 577 579
658 2 579 580
659 3 580 584
660 3 580 585
661 3 580 586
662 3 352 356
663 3 352 357
664 3 352 358
665 2 351 352
666 4 348 349
667 5 1045 1046
668 5 865 866
669 4 865 867
670 2 863 864
671 3 863 869
672 3 863 870
673 3 863 871
674 4 864 865
675 4 1044 1045
676 7 1043 1044
677 7 1043 1047
678 7 1043 1052
679 4 1047 1048
680 2 771 772
681 5 769 770
682 4 769 771
683 5 1011 1012
684 4 1011 1013
685 2 222 223
686 3 222 229
687 3 222 230
688 4 223 224
689 5 224 225
690 4 224 226
691 3 784 788
692 3 784 789
693 3 784 790
694 2 483 484
695 3 484 488
696 3 484 489
697 3 484 490
698 5 481 482
699 4 481 483
700 3 976 980
701 3 976 981
702 3 976 982
703 3 676 680
704 3 676 681
705 3 676 682
706 5 517 518
707 4 517 519
708 2 347 348
709 3 347 353
710 3 347 354
711 3 347 355
712 1 201 202
713 2 201 206
714 3 201 207
715 3 201 208
716 5 204 205
717 4 204 206
718 5 1009 1010
719 6 1009 1011
720 2 519 520
721 5 817 818
722 4 817 819
723 4 816 817
724 4 636 637
725 5 637 638
726 4 637 639
727 2 815 816
728 3 815 821
729 3 815 822
730 3 815 823
731 3 640 644
732 3 640 645
733 3 640 646
734 2 639 640
735 3 520 524
736 3 520 525
737 3 520 526
738 5 961 962
739 4 961 963
740 4 960 961
741 2 399 400
742 4 396 397
743 5 397 398
744 4 397 399
745 2 675 676
746 1 271 272
747 2 271 276
748 3 271 277
749 3 271 278
750 2 272 273
751 3 272 279
752 3 272 280
753 2 395 396
754 3 395 401
755 3 395 402
756 3 395 403
757 4 273 274
758 5 274 275
759 4 274 276
760 7 1042 1043
761 5 1048 1049
762 6 1048 1050
763 2 959 960
764 3 959 965
765 3 959 966
766 3 959 967
767 3 832 836
768 3 832 837
769 3 832 838
770 3 340 344
771 3 340 345
772 3 340 346
773 2 831 832
774 5 1050 1051
775 4 1050 1052
776 5 829 830
777 4 829 831
778 2 459 460
779 2 122 123
780 3 122 129
781 3 122 130
782 1 121 122
783 2 121 126
784 3 121 127
785 3 121 128
786 3 880 884
787 3 880 885
788 3 880 886
789 5 877 878
790 4 877 879
791 5 781 782
792 4 781 783
793 2 783 784
794 5 1024 1025
795 4 1024 1026
796 5 1022 1023
797 6 1022 1024
798 7 1017 1018
799 7 1017 1021
800 7 1017 1026
801 4 1021 1022
802 2 551 552
803 3 551 557
804 3 551 558
805 3 551 559
806 4 780 781
807 2 335 336
808 3 335 341
809 3 335 342
810 3 335 343
811 4 336 337
812 5 337 338
813 4 337 339
814 2 779 780
815 3 779 785
816 3 779 786
817 3 779 787
818 5 493 494
819 4 493 495
820 2 635 636
821 3 635 641
822 3 635 642
823 3 635 643
824 5 913 914
825 4 913 915
826 2 915 916
827 4 912 913
828 3 916 920
829 3 916 921
830 3 916 922
831 2 495 496
832 4 492 493
833 2 611 612
834 3 611 617
835 3 611 618
836 3 611 619
837 2 911 912
838 3 911 917
839 3 911 918
840 3 911 919
841 3 496 500
842 3 496 501
843 3 496 502
844 4 612 613
845 5 673 674
846 4 673 675
847 5 613 614
848 4 613 615
849 2 671 672
850 3 671 677
851 3 671 678
852 3 671 679
853 4 672 673
854 3 616 620
855 3 616 621
856 3 616 622
857 2 615 616
858 1 111 112
859 2 111 116
860 3 111 117
861 3 111 118
862 2 879 880
863 2 339 340
864 4 828 829
865 2 827 828
866 3 827 833
867 3 827 834
868 3 827 835
869 2 659 660
870 3 659 665
871 3 659 666
872 3 659 667
873 2 891 892
874 3 748 752
875 3 748 753
876 3 748 754
877 2 112 113
878 3 112 119
879 3 112 120
880 4 876 877
881 2 795 796
882 5 1071 1072
883 3 412 416
884 3 412 417
885 3 412 418
886 2 411 412
887 4 1067 1068
888 6 1067 1071
889 4 293 294
890 5 294 295
891 4 294 296
892 5 1066 1067
893 2 262 263
894 3 262 269
895 3 262 270
896 1 21 22
897 2 21 26
898 3 21 27
899 3 21 28
900 2 22 23
901 3 22 29
902 3 22 30
903 5 24 25
904 4 24 26
905 3 328 332
906 3 328 333
907 3 328 334
908 5 325 326
909 4 325 327
910 2 807 808
911 2 327 328
912 3 808 812
913 3 808 813
914 3 808 814
915 4 23 24
916 4 552 553
917 4 324 325
918 2 707 708
919 3 707 713
920 3 707 714
921 3 707 715
922 4 708 709
923 2 711 712
924 5 709 710
925 4 709 711
926 5 313 314
927 4 313 315
928 3 316 320
929 3 316 321
930 3 316 322
931 2 315 316
932 3 712 716
933 3 712 717
934 3 712 718
935 3 472 476
936 3 472 477
937 3 472 478
938 1 261 262
939 2 261 266
940 3 261 267
941 3 261 268
942 4 263 264
943 5 264 265
944 4 264 266
945 2 623 624
946 3 623 629
947 3 623 630
948 3 623 631
949 4 624 625
950 5 625 626
951 4 625 627
952 1 141 142
953 2 141 146
954 3 141 147
955 3 141 148
956 2 142 143
957 3 142 149
958 3 142 150
959 4 143 144
960 5 144 145
961 4 144 146
962 2 323 324
963 3 323 329
964 3 323 330
965 3 323 331
966 2 627 628
967 4 93 94
968 5 94 95
969 4 94 96
970 1 91 92
971 2 91 96
972 3 91 97
973 3 91 98
974 2 92 93
975 3 92 99
976 3 92 100
977 3 628 632
978 3 628 633
979 3 628 634
980 5 553 554
981 4 553 555
982 2 555 556
983 3 556 560
984 3 556 561
985 3 556 562
986 5 174 175
987 4 174 176
988 4 173 174
989 2 172 173
990 3 172 179
991 3 172 180
992 5 124 125
993 4 124 126
994 4 123 124
995 2 663 664
996 3 664 668
997 3 664 669
998 3 664 670
999 1 171 172
1000 2 171 176
1001 3 171 177
1002 3 171 178
1003 4 660 661
1004 4 768 769
1005 3 508 512
1006 3 508 513
1007 3 508 514
1008 2 507 508
1009 2 503 504
1010 3 503 509
1011 3 503 510
1012 3 503 511
1013 5 661 662
1014 4 661 663
1015 2 767 768
1016 3 767 773
1017 3 767 774
1018 3 767 775
1019 4 504 505
1020 5 505 506
1021 4 505 507

Angles

1 1 81 86 84
2 3 83 84 85
3 1 83 84 86
4 3 85 84 86
5 2 723 724 728
6 2 723 724 729
7 2 723 724 730
8 4 728 724 729
9 4 728 724 730
10 4 729 724 730
11 5 721 723 724
12 3 696 697 698
13 6 696 697 699
14 3 698 697 699
15 5 695 696 697
16 2 696 695 701
17 2 696 695 702
18 2 696 695 703
19 4 701 695 702
20 4 701 695 703
21 4 702 695 703
22 1 82 83 84
23 1 81 82 83
24 2 81 82 89
25 2 81 82 90
26 2 83 82 89
27 2 83 82 90
28 4 89 82 90
29 1 82 81 86
30 2 82 81 87
31 2 82 81 88
32 2 86 81 87
33 2 86 81 88
34 4 87 81 88
35 2 819 820 824
36 2 819 820 825
37 2 819 820 826
38 4 824 820 825
39 4 824 820 826
40 4 825 820 826
41 5 719 720 721
42 2 948 947 953
43 2 948 947 954
44 2 948 947 955
45 4 953 947 954
46 4 953 947 955
47 4 954 947 955
48 5 947 948 949
49 5 697 699 700
50 5 817 819 820
51 2 363 364 368
52 2 363 364 369
53 2 363 364 370
54 4 368 364 369
55 4 368 364 370
56 4 369 364 370
57 5 361 363 364
58 1 62 61 66
59 2 62 61 67
60 2 62 61 68
61 2 66 61 67
62 2 66 61 68
63 4 67 61 68
64 2 939 940 944
65 2 939 940 945
66 2 939 940 946
67 4 944 940 945
68 4 944 940 946
69 4 945 940 946
70 5 923 924 925
71 3 924 925 926
72 6 924 925 927
73 3 926 925 927
74 5 925 927 928
75 3 360 361 362
76 6 360 361 363
77 3 362 361 363
78 5 359 360 361
79 2 927 928 932
80 2 927 928 933
81 2 927 928 934
82 4 932 928 933
83 4 932 928 934
84 4 933 928 934
85 1 61 62 63
86 2 61 62 69
87 2 61 62 70
88 2 63 62 69
89 2 63 62 70
90 4 69 62 70
91 2 924 923 929
92 2 924 923 930
93 2 924 923 931
94 4 929 923 930
95 4 929 923 931
96 4 930 923 931
97 2 360 359 365
98 2 360 359 366
99 2 360 359 367
100 4 365 359 366
101 4 365 359 367
102 4 366 359 367
103 2 963 964 968
104 2 963 964 969
105 2 963 964 970
106 4 968 964 969
107 4 968 964 970
108 4 969 964 970
109 2 591 592 596
110 2 591 592 597
111 2 591 592 598
112 4 596 592 597
113 4 596 592 598
114 4 597 592 598
115 5 589 591 592
116 1 132 131 136
117 2 132 131 137
118 2 132 131 138
119 2 136 131 137
120 2 136 131 138
121 4 137 131 138
122 2 384 383 389
123 2 384 383 390
124 2 384 383 391
125 4 389 383 390
126 4 389 383 391
127 4 390 383 391
128 2 840 839 845
129 2 840 839 846
130 2 840 839 847
131 4 845 839 846
132 4 845 839 847
133 4 846 839 847
134 2 588 587 593
135 2 588 587 594
136 2 588 587 595
137 4 593 587 594
138 4 593 587 595
139 4 594 587 595
140 5 587 588 589
141 3 588 589 590
142 6 588 589 591
143 3 590 589 591
144 7 1061 1063 1064
145 1 1061 1063 1065
146 3 1064 1063 1065
147 8 1056 1065 1063
148 3 1060 1061 1062
149 1 1060 1061 1063
150 7 1062 1061 1063
151 1 131 132 133
152 2 131 132 139
153 2 131 132 140
154 2 133 132 139
155 2 133 132 140
156 4 139 132 140
157 9 1055 1056 1057
158 9 1055 1056 1060
159 9 1055 1056 1065
160 9 1057 1056 1060
161 9 1057 1056 1065
162 9 1060 1056 1065
163 1 31 36 34
164 8 1056 1060 1061
165 1 32 31 36
166 2 32 31 37
167 2 32 31 38
168 2 36 31 37
169 2 36 31 38
170 4 37 31 38
171 1 31 32 33
172 2 31 32 39
173 2 31 32 40
174 2 33 32 39
175 2 33 32 40
176 4 39 32 40
177 5 839 840 841
178 3 720 721 722
179 6 720 721 723
180 3 722 721 723
181 2 687 688 692
182 2 687 688 693
183 2 687 688 694
184 4 692 688 693
185 4 692 688 694
186 4 693 688 694
187 5 685 687 688
188 3 684 685 686
189 6 684 685 687
190 3 686 685 687
191 5 683 684 685
192 3 432 433 434
193 6 432 433 435
194 3 434 433 435
195 3 153 154 155
196 1 153 154 156
197 3 155 154 156
198 2 459 460 464
199 2 459 460 465
200 2 459 460 466
201 4 464 460 465
202 4 464 460 466
203 4 465 460 466
204 5 937 939 940
205 2 432 431 437
206 2 432 431 438
207 2 432 431 439
208 4 437 431 438
209 4 437 431 439
210 4 438 431 439
211 5 431 432 433
212 3 936 937 938
213 6 936 937 939
214 3 938 937 939
215 5 935 936 937
216 1 12 11 16
217 2 12 11 17
218 2 12 11 18
219 2 16 11 17
220 2 16 11 18
221 4 17 11 18
222 2 936 935 941
223 2 936 935 942
224 2 936 935 943
225 4 941 935 942
226 4 941 935 943
227 4 942 935 943
228 1 11 12 13
229 2 11 12 19
230 2 11 12 20
231 2 13 12 19
232 2 13 12 20
233 4 19 12 20
234 1 12 13 14
235 1 11 16 14
236 1 1028 1032 1031
237 7 1028 1032 1033
238 3 1031 1032 1033
239 8 1030 1031 1032
240 1 32 33 34
241 1 212 213 214
242 3 213 214 215
243 1 213 214 216
244 3 215 214 216
245 1 211 212 213
246 2 211 212 219
247 2 211 212 220
248 2 213 212 219
249 2 213 212 220
250 4 219 212 220
251 8 1056 1057 1058
252 3 33 34 35
253 1 33 34 36
254 3 35 34 36
255 2 699 700 704
256 2 699 700 705
257 2 699 700 706
258 4 704 700 705
259 4 704 700 706
260 4 705 700 706
261 5 961 963 964
262 1 152 153 154
263 3 948 949 950
264 6 948 949 951
265 3 950 949 951
266 5 983 984 985
267 3 984 985 986
268 6 984 985 987
269 3 986 985 987
270 5 985 987 988
271 1 71 72 73
272 2 71 72 79
273 2 71 72 80
274 2 73 72 79
275 2 73 72 80
276 4 79 72 80
277 1 302 301 306
278 2 302 301 307
279 2 302 301 308
280 2 306 301 307
281 2 306 301 308
282 4 307 301 308
283 1 301 306 304
284 3 303 304 305
285 1 303 304 306
286 3 305 304 306
287 1 301 302 303
288 2 301 302 309
289 2 301 302 310
290 2 303 302 309
291 2 303 302 310
292 4 309 302 310
293 5 949 951 952
294 2 951 952 956
295 2 951 952 957
296 2 951 952 958
297 4 956 952 957
298 4 956 952 958
299 4 957 952 958
300 1 251 252 253
301 2 251 252 259
302 2 251 252 260
303 2 253 252 259
304 2 253 252 260
305 4 259 252 260
306 1 252 251 256
307 2 252 251 257
308 2 252 251 258
309 2 256 251 257
310 2 256 251 258
311 4 257 251 258
312 1 251 256 254
313 1 252 253 254
314 3 253 254 255
315 1 253 254 256
316 3 255 254 256
317 1 151 152 153
318 2 151 152 159
319 2 151 152 160
320 2 153 152 159
321 2 153 152 160
322 4 159 152 160
323 1 302 303 304
324 3 840 841 842
325 6 840 841 843
326 3 842 841 843
327 3 372 373 374
328 6 372 373 375
329 3 374 373 375
330 5 841 843 844
331 2 372 371 377
332 2 372 371 378
333 2 372 371 379
334 4 377 371 378
335 4 377 371 379
336 4 378 371 379
337 1 41 46 44
338 1 42 41 46
339 2 42 41 47
340 2 42 41 48
341 2 46 41 47
342 2 46 41 48
343 4 47 41 48
344 3 43 44 45
345 1 43 44 46
346 3 45 44 46
347 1 42 43 44
348 2 843 844 848
349 2 843 844 849
350 2 843 844 850
351 4 848 844 849
352 4 848 844 850
353 4 849 844 850
354 2 987 988 992
355 2 987 988 993
356 2 987 988 994
357 4 992 988 993
358 4 992 988 994
359 4 993 988 994
360 1 222 221 226
361 2 222 221 227
362 2 222 221 228
363 2 226 221 227
364 2 226 221 228
365 4 227 221 228
366 1 191 192 193
367 2 191 192 199
368 2 191 192 200
369 2 193 192 199
370 2 193 192 200
371 4 199 192 200
372 1 192 193 194
373 3 193 194 195
374 1 193 194 196
375 3 195 194 196
376 3 1034 1035 1036
377 1 1034 1035 1037
378 7 1036 1035 1037
379 7 1035 1037 1038
380 1 1035 1037 1039
381 3 1038 1037 1039
382 1 151 156 154
383 1 152 151 156
384 2 152 151 157
385 2 152 151 158
386 2 156 151 157
387 2 156 151 158
388 4 157 151 158
389 9 1029 1030 1031
390 9 1029 1030 1034
391 9 1029 1030 1039
392 9 1031 1030 1034
393 9 1031 1030 1039
394 9 1034 1030 1039
395 8 1028 1029 1030
396 8 1030 1039 1037
397 8 1030 1034 1035
398 1 41 42 43
399 2 41 42 49
400 2 41 42 50
401 2 43 42 49
402 2 43 42 50
403 4 49 42 50
404 2 720 719 725
405 2 720 719 726
406 2 720 719 727
407 4 725 719 726
408 4 725 719 727
409 4 726 719 727
410 3 384 385 386
411 6 384 385 387
412 3 386 385 387
413 5 383 384 385
414 1 131 136 134
415 1 72 73 74
416 1 71 76 74
417 1 72 71 76
418 2 72 71 77
419 2 72 71 78
420 2 76 71 77
421 2 76 71 78
422 4 77 71 78
423 3 73 74 75
424 1 73 74 76
425 3 75 74 76
426 1 102 101 106
427 2 102 101 107
428 2 102 101 108
429 2 106 101 107
430 2 106 101 108
431 4 107 101 108
432 2 984 983 989
433 2 984 983 990
434 2 984 983 991
435 4 989 983 990
436 4 989 983 991
437 4 990 983 991
438 1 101 102 103
439 2 101 102 109
440 2 101 102 110
441 2 103 102 109
442 2 103 102 110
443 4 109 102 110
444 2 492 491 497
445 2 492 491 498
446 2 492 491 499
447 4 497 491 498
448 4 497 491 499
449 4 498 491 499
450 5 373 375 376
451 2 375 376 380
452 2 375 376 381
453 2 375 376 382
454 4 380 376 381
455 4 380 376 382
456 4 381 376 382
457 1 162 161 166
458 2 162 161 167
459 2 162 161 168
460 2 166 161 167
461 2 166 161 168
462 4 167 161 168
463 1 161 162 163
464 2 161 162 169
465 2 161 162 170
466 2 163 162 169
467 2 163 162 170
468 4 169 162 170
469 5 541 543 544
470 2 543 544 548
471 2 543 544 549
472 2 543 544 550
473 4 548 544 549
474 4 548 544 550
475 4 549 544 550
476 3 163 164 165
477 1 163 164 166
478 3 165 164 166
479 1 161 166 164
480 1 162 163 164
481 3 540 541 542
482 6 540 541 543
483 3 542 541 543
484 1 181 182 183
485 2 181 182 189
486 2 181 182 190
487 2 183 182 189
488 2 183 182 190
489 4 189 182 190
490 5 371 372 373
491 1 112 113 114
492 3 113 114 115
493 1 113 114 116
494 3 115 114 116
495 5 757 759 760
496 1 182 181 186
497 2 182 181 187
498 2 182 181 188
499 2 186 181 187
500 2 186 181 188
501 4 187 181 188
502 2 900 899 905
503 2 900 899 906
504 2 900 899 907
505 4 905 899 906
506 4 905 899 907
507 4 906 899 907
508 1 101 106 104
509 3 103 104 105
510 1 103 104 106
511 3 105 104 106
512 1 102 103 104
513 1 192 191 196
514 2 192 191 197
515 2 192 191 198
516 2 196 191 197
517 2 196 191 198
518 4 197 191 198
519 3 1073 1074 1075
520 1 1073 1074 1076
521 7 1075 1074 1076
522 8 1069 1073 1074
523 1 191 196 194
524 8 1017 1018 1019
525 1 1015 1019 1018
526 7 1015 1019 1020
527 3 1018 1019 1020
528 5 971 972 973
529 3 972 973 974
530 6 972 973 975
531 3 974 973 975
532 5 973 975 976
533 3 1014 1015 1016
534 7 1014 1015 1019
535 1 1016 1015 1019
536 8 1015 1016 1017
537 2 972 971 977
538 2 972 971 978
539 2 972 971 979
540 4 977 971 978
541 4 977 971 979
542 4 978 971 979
543 2 759 760 764
544 2 759 760 765
545 2 759 760 766
546 4 764 760 765
547 4 764 760 766
548 4 765 760 766
549 5 755 756 757
550 2 756 755 761
551 2 756 755 762
552 2 756 755 763
553 4 761 755 762
554 4 761 755 763
555 4 762 755 763
556 3 756 757 758
557 6 756 757 759
558 3 758 757 759
559 3 133 134 135
560 1 133 134 136
561 3 135 134 136
562 1 51 52 53
563 2 51 52 59
564 2 51 52 60
565 2 53 52 59
566 2 53 52 60
567 4 59 52 60
568 1 52 53 54
569 2 888 887 893
570 2 888 887 894
571 2 888 887 895
572 4 893 887 894
573 4 893 887 895
574 4 894 887 895
575 1 52 51 56
576 2 52 51 57
577 2 52 51 58
578 2 56 51 57
579 2 56 51 58
580 4 57 51 58
581 3 888 889 890
582 6 888 889 891
583 3 890 889 891
584 3 53 54 55
585 1 53 54 56
586 3 55 54 56
587 5 887 888 889
588 1 232 231 236
589 2 232 231 237
590 2 232 231 238
591 2 236 231 237
592 2 236 231 238
593 4 237 231 238
594 1 231 232 233
595 2 231 232 239
596 2 231 232 240
597 2 233 232 239
598 2 233 232 240
599 4 239 232 240
600 3 468 469 470
601 6 468 469 471
602 3 470 469 471
603 2 468 467 473
604 2 468 467 474
605 2 468 467 475
606 4 473 467 474
607 4 473 467 475
608 4 474 467 475
609 1 232 233 234
610 3 233 234 235
611 1 233 234 236
612 3 235 234 236
613 1 51 56 54
614 3 3 4 5
615 1 3 4 6
616 3 5 4 6
617 5 469 471 472
618 5 467 468 469
619 1 241 242 243
620 2 241 242 249
621 2 241 242 250
622 2 243 242 249
623 2 243 242 250
624 4 249 242 250
625 1 1 6 4
626 1 242 243 244
627 1 61 66 64
628 1 62 63 64
629 3 63 64 65
630 1 63 64 66
631 3 65 64 66
632 1 2 3 4
633 5 539 540 541
634 3 243 244 245
635 1 243 244 246
636 3 245 244 246
637 1 2 1 6
638 2 2 1 7
639 2 2 1 8
640 2 6 1 7
641 2 6 1 8
642 4 7 1 8
643 1 1 2 3
644 2 1 2 9
645 2 1 2 10
646 2 3 2 9
647 2 3 2 10
648 4 9 2 10
649 1 182 183 184
650 2 600 599 605
651 2 600 599 606
652 2 600 599 607
653 4 605 599 606
654 4 605 599 607
655 4 606 599 607
656 2 540 539 545
657 2 540 539 546
658 2 540 539 547
659 4 545 539 546
660 4 545 539 547
661 4 546 539 547
662 5 599 600 601
663 3 600 601 602
664 6 600 601 603
665 3 602 601 603
666 2 876 875 881
667 2 876 875 882
668 2 876 875 883
669 4 881 875 882
670 4 881 875 883
671 4 882 875 883
672 5 731 732 733
673 1 132 133 134
674 3 183 184 185
675 1 183 184 186
676 3 185 184 186
677 1 181 186 184
678 3 1053 1054 1055
679 7 1053 1054 1058
680 1 1055 1054 1058
681 2 387 388 392
682 2 387 388 393
683 2 387 388 394
684 4 392 388 393
685 4 392 388 394
686 4 393 388 394
687 5 385 387 388
688 8 1054 1055 1056
689 2 903 904 908
690 2 903 904 909
691 2 903 904 910
692 4 908 904 909
693 4 908 904 910
694 4 909 904 910
695 5 899 900 901
696 5 901 903 904
697 3 900 901 902
698 6 900 901 903
699 3 902 901 903
700 5 601 603 604
701 2 603 604 608
702 2 603 604 609
703 2 603 604 610
704 4 608 604 609
705 4 608 604 610
706 4 609 604 610
707 2 852 851 857
708 2 852 851 858
709 2 852 851 859
710 4 857 851 858
711 4 857 851 859
712 4 858 851 859
713 5 851 852 853
714 2 795 796 800
715 2 795 796 801
716 2 795 796 802
717 4 800 796 801
718 4 800 796 802
719 4 801 796 802
720 3 792 793 794
721 6 792 793 795
722 3 794 793 795
723 2 444 443 449
724 2 444 443 450
725 2 444 443 451
726 4 449 443 450
727 4 449 443 451
728 4 450 443 451
729 5 443 444 445
730 8 1069 1070 1071
731 9 1068 1069 1070
732 9 1068 1069 1073
733 9 1068 1069 1078
734 9 1070 1069 1073
735 9 1070 1069 1078
736 9 1073 1069 1078
737 7 1074 1076 1077
738 1 1074 1076 1078
739 3 1077 1076 1078
740 5 407 408 409
741 8 1067 1068 1069
742 8 1069 1078 1076
743 2 408 407 413
744 2 408 407 414
745 2 408 407 415
746 4 413 407 414
747 4 413 407 415
748 4 414 407 415
749 3 408 409 410
750 6 408 409 411
751 3 410 409 411
752 1 291 292 293
753 2 291 292 299
754 2 291 292 300
755 2 293 292 299
756 2 293 292 300
757 4 299 292 300
758 1 291 296 294
759 1 292 291 296
760 2 292 291 297
761 2 292 291 298
762 2 296 291 297
763 2 296 291 298
764 4 297 291 298
765 2 732 731 737
766 2 732 731 738
767 2 732 731 739
768 4 737 731 738
769 4 737 731 739
770 4 738 731 739
771 2 735 736 740
772 2 735 736 741
773 2 735 736 742
774 4 740 736 741
775 4 740 736 742
776 4 741 736 742
777 5 733 735 736
778 2 564 563 569
779 2 564 563 570
780 2 564 563 571
781 4 569 563 570
782 4 569 563 571
783 4 570 563 571
784 3 732 733 734
785 6 732 733 735
786 3 734 733 735
787 3 564 565 566
788 6 564 565 567
789 3 566 565 567
790 5 565 567 568
791 5 563 564 565
792 1 1054 1058 1057
793 7 1054 1058 1059
794 3 1057 1058 1059
795 2 567 568 572
796 2 567 568 573
797 2 567 568 574
798 4 572 568 573
799 4 572 568 574
800 4 573 568 574
801 3 444 445 446
802 6 444 445 447
803 3 446 445 447
804 5 445 447 448
805 2 447 448 452
806 2 447 448 453
807 2 447 448 454
808 4 452 448 453
809 4 452 448 454
810 4 453 448 454
811 2 855 856 860
812 2 855 856 861
813 2 855 856 862
814 4 860 856 861
815 4 860 856 862
816 4 861 856 862
817 3 852 853 854
818 6 852 853 855
819 3 854 853 855
820 5 853 855 856
821 1 242 241 246
822 2 242 241 247
823 2 242 241 248
824 2 246 241 247
825 2 246 241 248
826 4 247 241 248
827 1 241 246 244
828 2 792 791 797
829 2 792 791 798
830 2 792 791 799
831 4 797 791 798
832 4 797 791 799
833 4 798 791 799
834 3 1040 1041 1042
835 7 1040 1041 1045
836 1 1042 1041 1045
837 5 455 456 457
838 3 456 457 458
839 6 456 457 459
840 3 458 457 459
841 2 456 455 461
842 2 456 455 462
843 2 456 455 463
844 4 461 455 462
845 4 461 455 463
846 4 462 455 463
847 1 282 283 284
848 3 283 284 285
849 1 283 284 286
850 3 285 284 286
851 2 684 683 689
852 2 684 683 690
853 2 684 683 691
854 4 689 683 690
855 4 689 683 691
856 4 690 683 691
857 5 433 435 436
858 2 435 436 440
859 2 435 436 441
860 2 435 436 442
861 4 440 436 441
862 4 440 436 442
863 4 441 436 442
864 8 1004 1013 1011
865 5 515 516 517
866 2 804 803 809
867 2 804 803 810
868 2 804 803 811
869 4 809 803 810
870 4 809 803 811
871 4 810 803 811
872 5 803 804 805
873 2 480 479 485
874 2 480 479 486
875 2 480 479 487
876 4 485 479 486
877 4 485 479 487
878 4 486 479 487
879 3 804 805 806
880 6 804 805 807
881 3 806 805 807
882 3 13 14 15
883 1 13 14 16
884 3 15 14 16
885 2 651 652 656
886 2 651 652 657
887 2 651 652 658
888 4 656 652 657
889 4 656 652 658
890 4 657 652 658
891 5 479 480 481
892 3 1027 1028 1029
893 7 1027 1028 1032
894 1 1029 1028 1032
895 2 516 515 521
896 2 516 515 522
897 2 516 515 523
898 4 521 515 522
899 4 521 515 523
900 4 522 515 523
901 1 211 216 214
902 1 212 211 216
903 2 212 211 217
904 2 212 211 218
905 2 216 211 217
906 2 216 211 218
907 4 217 211 218
908 1 201 202 203
909 2 201 202 209
910 2 201 202 210
911 2 203 202 209
912 2 203 202 210
913 4 209 202 210
914 1 202 203 204
915 2 312 311 317
916 2 312 311 318
917 2 312 311 319
918 4 317 311 318
919 4 317 311 319
920 4 318 311 319
921 5 311 312 313
922 3 348 349 350
923 6 348 349 351
924 3 350 349 351
925 2 771 772 776
926 2 771 772 777
927 2 771 772 778
928 4 776 772 777
929 4 776 772 778
930 4 777 772 778
931 5 791 792 793
932 1 281 286 284
933 1 281 282 283
934 2 281 282 289
935 2 281 282 290
936 2 283 282 289
937 2 283 282 290
938 4 289 282 290
939 1 282 281 286
940 2 282 281 287
941 2 282 281 288
942 2 286 281 287
943 2 286 281 288
944 4 287 281 288
945 8 1002 1003 1004
946 1 1002 1006 1005
947 7 1002 1006 1007
948 3 1005 1006 1007
949 8 1004 1005 1006
950 9 1003 1004 1005
951 9 1003 1004 1008
952 9 1003 1004 1013
953 9 1005 1004 1008
954 9 1005 1004 1013
955 9 1008 1004 1013
956 8 1004 1008 1009
957 5 419 420 421
958 3 420 421 422
959 6 420 421 423
960 3 422 421 423
961 5 421 423 424
962 2 423 424 428
963 2 423 424 429
964 2 423 424 430
965 4 428 424 429
966 4 428 424 430
967 4 429 424 430
968 2 420 419 425
969 2 420 419 426
970 2 420 419 427
971 4 425 419 426
972 4 425 419 427
973 4 426 419 427
974 5 865 867 868
975 2 867 868 872
976 2 867 868 873
977 2 867 868 874
978 4 872 868 873
979 4 872 868 874
980 4 873 868 874
981 2 891 892 896
982 2 891 892 897
983 2 891 892 898
984 4 896 892 897
985 4 896 892 898
986 4 897 892 898
987 3 1001 1002 1003
988 7 1001 1002 1006
989 1 1003 1002 1006
990 2 531 532 536
991 2 531 532 537
992 2 531 532 538
993 4 536 532 537
994 4 536 532 538
995 4 537 532 538
996 5 529 531 532
997 2 744 743 749
998 2 744 743 750
999 2 744 743 751
1000 4 749 743 750
1001 4 749 743 751
1002 4 750 743 751
1003 3 528 529 530
1004 6 528 529 531
1005 3 530 529 531
1006 3 648 649 650
1007 6 648 649 651
1008 3 650 649 651
1009 5 527 528 529
1010 2 528 527 533
1011 2 528 527 534
1012 2 528 527 535
1013 4 533 527 534
1014 4 533 527 535
1015 4 534 527 535
1016 5 647 648 649
1017 5 743 744 745
1018 5 649 651 652
1019 2 399 400 404
1020 2 399 400 405
1021 2 399 400 406
1022 4 404 400 405
1023 4 404 400 406
1024 4 405 400 406
1025 3 744 745 746
1026 6 744 745 747
1027 3 746 745 747
1028 2 648 647 653
1029 2 648 647 654
1030 2 648 647 655
1031 4 653 647 654
1032 4 653 647 655
1033 4 654 647 655
1034 5 745 747 748
1035 2 576 575 581
1036 2 576 575 582
1037 2 576 575 583
1038 4 581 575 582
1039 4 581 575 583
1040 4 582 575 583
1041 5 575 576 577
1042 3 576 577 578
1043 6 576 577 579
1044 3 578 577 579
1045 5 577 579 580
1046 2 579 580 584
1047 2 579 580 585
1048 2 579 580 586
1049 4 584 580 585
1050 4 584 580 586
1051 4 585 580 586
1052 2 351 352 356
1053 2 351 352 357
1054 2 351 352 358
1055 4 356 352 357
1056 4 356 352 358
1057 4 357 352 358
1058 5 349 351 352
1059 5 347 348 349
1060 1 1041 1045 1044
1061 7 1041 1045 1046
1062 3 1044 1045 1046
1063 3 864 865 866
1064 6 864 865 867
1065 3 866 865 867
1066 2 864 863 869
1067 2 864 863 870
1068 2 864 863 871
1069 4 869 863 870
1070 4 869 863 871
1071 4 870 863 871
1072 5 863 864 865
1073 8 1043 1044 1045
1074 9 1042 1043 1044
1075 9 1042 1043 1047
1076 9 1042 1043 1052
1077 9 1044 1043 1047
1078 9 1044 1043 1052
1079 9 1047 1043 1052
1080 8 1043 1047 1048
1081 5 769 771 772
1082 3 768 769 770
1083 6 768 769 771
1084 3 770 769 771
1085 7 1009 1011 1012
1086 1 1009 1011 1013
1087 3 1012 1011 1013
1088 1 221 222 223
1089 2 221 222 229
1090 2 221 222 230
1091 2 223 222 229
1092 2 223 222 230
1093 4 229 222 230
1094 1 222 223 224
1095 1 221 226 224
1096 3 223 224 225
1097 1 223 224 226
1098 3 225 224 226
1099 2 783 784 788
1100 2 783 784 789
1101 2 783 784 790
1102 4 788 784 789
1103 4 788 784 790
1104 4 789 784 790
1105 5 481 483 484
1106 2 483 484 488
1107 2 483 484 489
1108 2 483 484 490
1109 4 488 484 489
1110 4 488 484 490
1111 4 489 484 490
1112 3 480 481 482
1113 6 480 481 483
1114 3 482 481 483
1115 2 975 976 980
1116 2 975 976 981
1117 2 975 976 982
1118 4 980 976 981
1119 4 980 976 982
1120 4 981 976 982
1121 2 675 676 680
1122 2 675 676 681
1123 2 675 676 682
1124 4 680 676 681
1125 4 680 676 682
1126 4 681 676 682
1127 3 516 517 518
1128 6 516 517 519
1129 3 518 517 519
1130 2 348 347 353
1131 2 348 347 354
1132 2 348 347 355
1133 4 353 347 354
1134 4 353 347 355
1135 4 354 347 355
1136 1 202 201 206
1137 2 202 201 207
1138 2 202 201 208
1139 2 206 201 207
1140 2 206 201 208
1141 4 207 201 208
1142 3 203 204 205
1143 1 203 204 206
1144 3 205 204 206
1145 1 201 206 204
1146 3 1008 1009 1010
1147 1 1008 1009 1011
1148 7 1010 1009 1011
1149 5 517 519 520
1150 3 816 817 818
1151 6 816 817 819
1152 3 818 817 819
1153 5 815 816 817
1154 5 635 636 637
1155 3 636 637 638
1156 6 636 637 639
1157 3 638 637 639
1158 2 816 815 821
1159 2 816 815 822
1160 2 816 815 823
1161 4 821 815 822
1162 4 821 815 823
1163 4 822 815 823
1164 2 639 640 644
1165 2 639 640 645
1166 2 639 640 646
1167 4 644 640 645
1168 4 644 640 646
1169 4 645 640 646
1170 5 637 639 640
1171 2 519 520 524
1172 2 519 520 525
1173 2 519 520 526
1174 4 524 520 525
1175 4 524 520 526
1176 4 525 520 526
1177 3 960 961 962
1178 6 960 961 963
1179 3 962 961 963
1180 5 959 960 961
1181 5 397 399 400
1182 1 271 276 274
1183 5 395 396 397
1184 3 396 397 398
1185 6 396 397 399
1186 3 398 397 399
1187 5 673 675 676
1188 1 272 271 276
1189 2 272 271 277
1190 2 272 271 278
1191 2 276 271 277
1192 2 276 271 278
1193 4 277 271 278
1194 1 271 272 273
1195 2 271 272 279
1196 2 271 272 280
1197 2 273 272 279
1198 2 273 272 280
1199 4 279 272 280
1200 2 396 395 401
1201 2 396 395 402
1202 2 396 395 403
1203 4 401 395 402
1204 4 401 395 403
1205 4 402 395 403
1206 1 272 273 274
1207 3 273 274 275
1208 1 273 274 276
1209 3 275 274 276
1210 8 1041 1042 1043
1211 3 1047 1048 1049
1212 1 1047 1048 1050
1213 7 1049 1048 1050
1214 8 1043 1052 1050
1215 2 960 959 965
1216 2 960 959 966
1217 2 960 959 967
1218 4 965 959 966
1219 4 965 959 967
1220 4 966 959 967
1221 2 831 832 836
1222 2 831 832 837
1223 2 831 832 838
1224 4 836 832 837
1225 4 836 832 838
1226 4 837 832 838
1227 2 339 340 344
1228 2 339 340 345
1229 2 339 340 346
1230 4 344 340 345
1231 4 344 340 346
1232 4 345 340 346
1233 5 829 831 832
1234 7 1048 1050 1051
1235 1 1048 1050 1052
1236 3 1051 1050 1052
1237 3 828 829 830
1238 6 828 829 831
1239 3 830 829 831
1240 5 457 459 460
1241 1 121 122 123
1242 2 121 122 129
1243 2 121 122 130
1244 2 123 122 129
1245 2 123 122 130
1246 4 129 122 130
1247 1 122 121 126
1248 2 122 121 127
1249 2 122 121 128
1250 2 126 121 127
1251 2 126 121 128
1252 4 127 121 128
1253 1 111 116 114
1254 2 879 880 884
1255 2 879 880 885
1256 2 879 880 886
1257 4 884 880 885
1258 4 884 880 886
1259 4 885 880 886
1260 3 876 877 878
1261 6 876 877 879
1262 3 878 877 879
1263 3 780 781 782
1264 6 780 781 783
1265 3 782 781 783
1266 5 781 783 784
1267 8 1017 1026 1024
1268 7 1022 1024 1025
1269 1 1022 1024 1026
1270 3 1025 1024 1026
1271 3 1021 1022 1023
1272 1 1021 1022 1024
1273 7 1023 1022 1024
1274 9 1016 1017 1018
1275 9 1016 1017 1021
1276 9 1016 1017 1026
1277 9 1018 1017 1021
1278 9 1018 1017 1026
1279 9 1021 1017 1026
1280 8 1017 1021 1022
1281 2 552 551 557
1282 2 552 551 558
1283 2 552 551 559
1284 4 557 551 558
1285 4 557 551 559
1286 4 558 551 559
1287 5 779 780 781
1288 2 336 335 341
1289 2 336 335 342
1290 2 336 335 343
1291 4 341 335 342
1292 4 341 335 343
1293 4 342 335 343
1294 5 335 336 337
1295 3 336 337 338
1296 6 336 337 339
1297 3 338 337 339
1298 2 780 779 785
1299 2 780 779 786
1300 2 780 779 787
1301 4 785 779 786
1302 4 785 779 787
1303 4 786 779 787
1304 3 492 493 494
1305 6 492 493 495
1306 3 494 493 495
1307 2 636 635 641
1308 2 636 635 642
1309 2 636 635 643
1310 4 641 635 642
1311 4 641 635 643
1312 4 642 635 643
1313 3 912 913 914
1314 6 912 913 915
1315 3 914 913 915
1316 5 913 915 916
1317 5 911 912 913
1318 2 915 916 920
1319 2 915 916 921
1320 2 915 916 922
1321 4 920 916 921
1322 4 920 916 922
1323 4 921 916 922
1324 5 493 495 496
1325 5 491 492 493
1326 2 612 611 617
1327 2 612 611 618
1328 2 612 611 619
1329 4 617 611 618
1330 4 617 611 619
1331 4 618 611 619
1332 2 912 911 917
1333 2 912 911 918
1334 2 912 911 919
1335 4 917 911 918
1336 4 917 911 919
1337 4 918 911 919
1338 2 495 496 500
1339 2 495 496 501
1340 2 495 496 502
1341 4 500 496 501
1342 4 500 496 502
1343 4 501 496 502
1344 5 611 612 613
1345 3 672 673 674
1346 6 672 673 675
1347 3 674 673 675
1348 3 612 613 614
1349 6 612 613 615
1350 3 614 613 615
1351 2 672 671 677
1352 2 672 671 678
1353 2 672 671 679
1354 4 677 671 678
1355 4 677 671 679
1356 4 678 671 679
1357 5 671 672 673
1358 2 615 616 620
1359 2 615 616 621
1360 2 615 616 622
1361 4 620 616 621
1362 4 620 616 622
1363 4 621 616 622
1364 5 613 615 616
1365 1 112 111 116
1366 2 112 111 117
1367 2 112 111 118
1368 2 116 111 117
1369 2 116 111 118
1370 4 117 111 118
1371 5 877 879 880
1372 5 337 339 340
1373 5 827 828 829
1374 2 828 827 833
1375 2 828 827 834
1376 2 828 827 835
1377 4 833 827 834
1378 4 833 827 835
1379 4 834 827 835
1380 2 660 659 665
1381 2 660 659 666
1382 2 660 659 667
1383 4 665 659 666
1384 4 665 659 667
1385 4 666 659 667
1386 1 231 236 234
1387 5 889 891 892
1388 2 747 748 752
1389 2 747 748 753
1390 2 747 748 754
1391 4 752 748 753
1392 4 752 748 754
1393 4 753 748 754
1394 1 111 112 113
1395 2 111 112 119
1396 2 111 112 120
1397 2 113 112 119
1398 2 113 112 120
1399 4 119 112 120
1400 5 875 876 877
1401 5 793 795 796
1402 1 1067 1071 1070
1403 7 1067 1071 1072
1404 3 1070 1071 1072
1405 2 411 412 416
1406 2 411 412 417
1407 2 411 412 418
1408 4 416 412 417
1409 4 416 412 418
1410 4 417 412 418
1411 5 409 411 412
1412 3 1066 1067 1068
1413 7 1066 1067 1071
1414 1 1068 1067 1071
1415 1 292 293 294
1416 3 293 294 295
1417 1 293 294 296
1418 3 295 294 296
1419 1 261 262 263
1420 2 261 262 269
1421 2 261 262 270
1422 2 263 262 269
1423 2 263 262 270
1424 4 269 262 270
1425 1 22 21 26
1426 2 22 21 27
1427 2 22 21 28
1428 2 26 21 27
1429 2 26 21 28
1430 4 27 21 28
1431 1 21 22 23
1432 2 21 22 29
1433 2 21 22 30
1434 2 23 22 29
1435 2 23 22 30
1436 4 29 22 30
1437 1 21 26 24
1438 3 23 24 25
1439 1 23 24 26
1440 3 25 24 26
1441 2 327 328 332
1442 2 327 328 333
1443 2 327 328 334
1444 4 332 328 333
1445 4 332 328 334
1446 4 333 328 334
1447 3 324 325 326
1448 6 324 325 327
1449 3 326 325 327
1450 5 805 807 808
1451 5 325 327 328
1452 2 807 808 812
1453 2 807 808 813
1454 2 807 808 814
1455 4 812 808 813
1456 4 812 808 814
1457 4 813 808 814
1458 1 22 23 24
1459 5 551 552 553
1460 5 323 324 325
1461 2 708 707 713
1462 2 708 707 714
1463 2 708 707 715
1464 4 713 707 714
1465 4 713 707 715
1466 4 714 707 715
1467 5 707 708 709
1468 5 709 711 712
1469 3 708 709 710
1470 6 708 709 711
1471 3 710 709 711
1472 3 312 313 314
1473 6 312 313 315
1474 3 314 313 315
1475 2 315 316 320
1476 2 315 316 321
1477 2 315 316 322
1478 4 320 316 321
1479 4 320 316 322
1480 4 321 316 322
1481 5 313 315 316
1482 2 711 712 716
1483 2 711 712 717
1484 2 711 712 718
1485 4 716 712 717
1486 4 716 712 718
1487 4 717 712 718
1488 2 471 472 476
1489 2 471 472 477
1490 2 471 472 478
1491 4 476 472 477
1492 4 476 472 478
1493 4 477 472 478
1494 1 262 261 266
1495 2 262 261 267
1496 2 262 261 268
1497 2 266 261 267
1498 2 266 261 268
1499 4 267 261 268
1500 1 262 263 264
1501 1 261 266 264
1502 3 263 264 265
1503 1 263 264 266
1504 3 265 264 266
1505 2 624 623 629
1506 2 624 623 630
1507 2 624 623 631
1508 4 629 623 630
1509 4 629 623 631
1510 4 630 623 631
1511 5 623 624 625
1512 3 624 625 626
1513 6 624 625 627
1514 3 626 625 627
1515 1 142 141 146
1516 2 142 141 147
1517 2 142 141 148
1518 2 146 141 147
1519 2 146 141 148
1520 4 147 141 148
1521 1 141 142 143
1522 2 141 142 149
1523 2 141 142 150
1524 2 143 142 149
1525 2 143 142 150
1526 4 149 142 150
1527 1 142 143 144
1528 3 143 144 145
1529 1 143 144 146
1530 3 145 144 146
1531 1 141 146 144
1532 2 324 323 329
1533 2 324 323 330
1534 2 324 323 331
1535 4 329 323 330
1536 4 329 323 331
1537 4 330 323 331
1538 5 625 627 628
1539 1 92 93 94
1540 3 93 94 95
1541 1 93 94 96
1542 3 95 94 96
1543 1 92 91 96
1544 2 92 91 97
1545 2 92 91 98
1546 2 96 91 97
1547 2 96 91 98
1548 4 97 91 98
1549 1 91 96 94
1550 1 91 92 93
1551 2 91 92 99
1552 2 91 92 100
1553 2 93 92 99
1554 2 93 92 100
1555 4 99 92 100
1556 2 627 628 632
1557 2 627 628 633
1558 2 627 628 634
1559 4 632 628 633
1560 4 632 628 634
1561 4 633 628 634
1562 3 552 553 554
1563 6 552 553 555
1564 3 554 553 555
1565 5 553 555 556
1566 2 555 556 560
1567 2 555 556 561
1568 2 555 556 562
1569 4 560 556 561
1570 4 560 556 562
1571 4 561 556 562
1572 3 173 174 175
1573 1 173 174 176
1574 3 175 174 176
1575 1 172 173 174
1576 1 171 172 173
1577 2 171 172 179
1578 2 171 172 180
1579 2 173 172 179
1580 2 173 172 180
1581 4 179 172 180
1582 1 171 176 174
1583 1 121 126 124
1584 3 123 124 125
1585 1 123 124 126
1586 3 125 124 126
1587 1 122 123 124
1588 5 661 663 664
1589 2 663 664 668
1590 2 663 664 669
1591 2 663 664 670
1592 4 668 664 669
1593 4 668 664 670
1594 4 669 664 670
1595 1 172 171 176
1596 2 172 171 177
1597 2 172 171 178
1598 2 176 171 177
1599 2 176 171 178
1600 4 177 171 178
1601 5 659 660 661
1602 5 767 768 769
1603 2 507 508 512
1604 2 507 508 513
1605 2 507 508 514
1606 4 512 508 513
1607 4 512 508 514
1608 4 513 508 514
1609 5 505 507 508
1610 2 504 503 509
1611 2 504 503 510
1612 2 504 503 511
1613 4 509 503 510
1614 4 509 503 511
1615 4 510 503 511
1616 3 660 661 662
1617 6 660 661 663
1618 3 662 661 663
1619 2 768 767 773
1620 2 768 767 774
1621 2 768 767 775
1622 4 773 767 774
1623 4 773 767 775
1624 4 774 767 775
1625 5 503 504 505
1626 3 504 505 506
1627 6 504 505 507
1628 3 506 505 507

Dihedrals

1 3 81 86 84 83
2 3 81 86 84 85
3 8 84 86 81 87
4 8 84 86 81 88
5 8 721 723 724 728
6 8 721 723 724 729
7 8 721 723 724 730
8 12 696 697 699 700
9 10 698 697 699 700
10 11 698 697 699 700
11 10 695 696 697 698
12 11 695 696 697 698
13 12 695 696 697 699
14 8 697 696 695 701
15 8 697 696 695 702
16 8 697 696 695 703
17 3 82 83 84 85
18 3 82 83 84 86
19 8 84 83 82 89
20 8 84 83 82 90
21 1 81 82 83 84
22 2 81 82 83 84
23 4 83 82 81 86
24 5 83 82 81 86
25 6 83 82 81 87
26 7 83 82 81 87
27 6 83 82 81 88
28 7 83 82 81 88
29 1 82 81 86 84
30 2 82 81 86 84
31 6 86 81 82 89
32 7 86 81 82 89
33 6 86 81 82 90
34 7 86 81 82 90
35 9 87 81 82 89
36 9 87 81 82 90
37 9 88 81 82 89
38 9 88 81 82 90
39 10 719 720 721 722
40 11 719 720 721 722
41 12 719 720 721 723
42 8 721 720 719 725
43 8 721 720 719 726
44 8 721 720 719 727
45 10 947 948 949 950
46 11 947 948 949 950
47 12 947 948 949 951
48 8 949 948 947 953
49 8 949 948 947 954
50 8 949 948 947 955
51 8 697 699 700 704
52 8 697 699 700 705
53 8 697 699 700 706
54 8 817 819 820 824
55 8 817 819 820 825
56 8 817 819 820 826
57 8 361 363 364 368
58 8 361 363 364 369
59 8 361 363 364 370
60 1 62 61 66 64
61 2 62 61 66 64
62 6 66 61 62 69
63 7 66 61 62 69
64 6 66 61 62 70
65 7 66 61 62 70
66 9 67 61 62 69
67 9 67 61 62 70
68 9 68 61 62 69
69 9 68 61 62 70
70 10 923 924 925 926
71 11 923 924 925 926
72 12 923 924 925 927
73 8 925 924 923 929
74 8 925 924 923 930
75 8 925 924 923 931
76 12 924 925 927 928
77 10 926 925 927 928
78 11 926 925 927 928
79 8 925 927 928 932
80 8 925 927 928 933
81 8 925 927 928 934
82 12 360 361 363 364
83 10 362 361 363 364
84 11 362 361 363 364
85 10 359 360 361 362
86 11 359 360 361 362
87 12 359 360 361 363
88 8 361 360 359 365
89 8 361 360 359 366
90 8 361 360 359 367
91 1 61 62 63 64
92 2 61 62 63 64
93 4 63 62 61 66
94 5 63 62 61 66
95 6 63 62 61 67
96 7 63 62 61 67
97 6 63 62 61 68
98 7 63 62 61 68
99 8 589 591 592 596
100 8 589 591 592 597
101 8 589 591 592 598
102 1 132 131 136 134
103 2 132 131 136 134
104 6 136 131 132 139
105 7 136 131 132 139
106 6 136 131 132 140
107 7 136 131 132 140
108 9 137 131 132 139
109 9 137 131 132 140
110 9 138 131 132 139
111 9 138 131 132 140
112 10 587 588 589 590
113 11 587 588 589 590
114 12 587 588 589 591
115 8 589 588 587 593
116 8 589 588 587 594
117 8 589 588 587 595
118 12 588 589 591 592
119 10 590 589 591 592
120 11 590 589 591 592
121 15 1056 1065 1063 1061
122 3 1056 1065 1063 1064
123 13 1060 1061 1063 1064
124 13 1060 1061 1063 1065
125 13 1062 1061 1063 1064
126 13 1062 1061 1063 1065
127 1 131 132 133 134
128 2 131 132 133 134
129 4 133 132 131 136
130 5 133 132 131 136
131 6 133 132 131 137
132 7 133 132 131 137
133 6 133 132 131 138
134 7 133 132 131 138
135 14 1055 1056 1057 1058
136 14 1055 1056 1060 1061
137 14 1055 1056 1065 1063
138 14 1057 1056 1060 1061
139 14 1057 1056 1065 1063
140 14 1060 1056 1065 1063
141 3 31 36 34 33
142 3 31 36 34 35
143 8 34 36 31 37
144 8 34 36 31 38
145 3 1056 1060 1061 1062
146 15 1056 1060 1061 1063
147 14 1061 1060 1056 1065
148 1 32 31 36 34
149 2 32 31 36 34
150 6 36 31 32 39
151 7 36 31 32 39
152 6 36 31 32 40
153 7 36 31 32 40
154 9 37 31 32 39
155 9 37 31 32 40
156 9 38 31 32 39
157 9 38 31 32 40
158 1 31 32 33 34
159 2 31 32 33 34
160 4 33 32 31 36
161 5 33 32 31 36
162 6 33 32 31 37
163 7 33 32 31 37
164 6 33 32 31 38
165 7 33 32 31 38
166 10 839 840 841 842
167 11 839 840 841 842
168 12 839 840 841 843
169 8 841 840 839 845
170 8 841 840 839 846
171 8 841 840 839 847
172 12 720 721 723 724
173 10 722 721 723 724
174 11 722 721 723 724
175 8 685 687 688 692
176 8 685 687 688 693
177 8 685 687 688 694
178 12 684 685 687 688
179 10 686 685 687 688
180 11 686 685 687 688
181 10 683 684 685 686
182 11 683 684 685 686
183 12 683 684 685 687
184 8 685 684 683 689
185 8 685 684 683 690
186 8 685 684 683 691
187 12 432 433 435 436
188 10 434 433 435 436
189 11 434 433 435 436
190 8 937 939 940 944
191 8 937 939 940 945
192 8 937 939 940 946
193 10 431 432 433 434
194 11 431 432 433 434
195 12 431 432 433 435
196 8 433 432 431 437
197 8 433 432 431 438
198 8 433 432 431 439
199 12 936 937 939 940
200 10 938 937 939 940
201 11 938 937 939 940
202 10 935 936 937 938
203 11 935 936 937 938
204 12 935 936 937 939
205 8 937 936 935 941
206 8 937 936 935 942
207 8 937 936 935 943
208 1 12 11 16 14
209 2 12 11 16 14
210 6 16 11 12 19
211 7 16 11 12 19
212 6 16 11 12 20
213 7 16 11 12 20
214 9 17 11 12 19
215 9 17 11 12 20
216 9 18 11 12 19
217 9 18 11 12 20
218 1 11 12 13 14
219 2 11 12 13 14
220 4 13 12 11 16
221 5 13 12 11 16
222 6 13 12 11 17
223 7 13 12 11 17
224 6 13 12 11 18
225 7 13 12 11 18
226 3 12 13 14 15
227 3 12 13 14 16
228 8 14 13 12 19
229 8 14 13 12 20
230 3 11 16 14 13
231 3 11 16 14 15
232 8 14 16 11 17
233 8 14 16 11 18
234 15 1028 1032 1031 1030
235 3 1030 1031 1032 1033
236 14 1032 1031 1030 1034
237 14 1032 1031 1030 1039
238 3 32 33 34 35
239 3 32 33 34 36
240 8 34 33 32 39
241 8 34 33 32 40
242 3 212 213 214 215
243 3 212 213 214 216
244 8 214 213 212 219
245 8 214 213 212 220
246 1 211 212 213 214
247 2 211 212 213 214
248 4 213 212 211 216
249 5 213 212 211 216
250 6 213 212 211 217
251 7 213 212 211 217
252 6 213 212 211 218
253 7 213 212 211 218
254 3 1056 1057 1058 1059
255 14 1058 1057 1056 1060
256 14 1058 1057 1056 1065
257 8 961 963 964 968
258 8 961 963 964 969
259 8 961 963 964 970
260 3 152 153 154 155
261 3 152 153 154 156
262 8 154 153 152 159
263 8 154 153 152 160
264 12 948 949 951 952
265 10 950 949 951 952
266 11 950 949 951 952
267 10 983 984 985 986
268 11 983 984 985 986
269 12 983 984 985 987
270 8 985 984 983 989
271 8 985 984 983 990
272 8 985 984 983 991
273 12 984 985 987 988
274 10 986 985 987 988
275 11 986 985 987 988
276 8 985 987 988 992
277 8 985 987 988 993
278 8 985 987 988 994
279 1 71 72 73 74
280 2 71 72 73 74
281 4 73 72 71 76
282 5 73 72 71 76
283 6 73 72 71 77
284 7 73 72 71 77
285 6 73 72 71 78
286 7 73 72 71 78
287 1 302 301 306 304
288 2 302 301 306 304
289 6 306 301 302 309
290 7 306 301 302 309
291 6 306 301 302 310
292 7 306 301 302 310
293 9 307 301 302 309
294 9 307 301 302 310
295 9 308 301 302 309
296 9 308 301 302 310
297 3 301 306 304 303
298 3 301 306 304 305
299 8 304 306 301 307
300 8 304 306 301 308
301 1 301 302 303 304
302 2 301 302 303 304
303 4 303 302 301 306
304 5 303 302 301 306
305 6 303 302 301 307
306 7 303 302 301 307
307 6 303 302 301 308
308 7 303 302 301 308
309 8 949 951 952 956
310 8 949 951 952 957
311 8 949 951 952 958
312 1 251 252 253 254
313 2 251 252 253 254
314 4 253 252 251 256
315 5 253 252 251 256
316 6 253 252 251 257
317 7 253 252 251 257
318 6 253 252 251 258
319 7 253 252 251 258
320 1 252 251 256 254
321 2 252 251 256 254
322 6 256 251 252 259
323 7 256 251 252 259
324 6 256 251 252 260
325 7 256 251 252 260
326 9 257 251 252 259
327 9 257 251 252 260
328 9 258 251 252 259
329 9 258 251 252 260
330 3 251 256 254 253
331 3 251 256 254 255
332 8 254 256 251 257
333 8 254 256 251 258
334 3 252 253 254 255
335 3 252 253 254 256
336 8 254 253 252 259
337 8 254 253 252 260
338 1 151 152 153 154
339 2 151 152 153 154
340 4 153 152 151 156
341 5 153 152 151 156
342 6 153 152 151 157
343 7 153 152 151 157
344 6 153 152 151 158
345 7 153 152 151 158
346 3 302 303 304 305
347 3 302 303 304 306
348 8 304 303 302 309
349 8 304 303 302 310
350 12 840 841 843 844
351 10 842 841 843 844
352 11 842 841 843 844
353 12 372 373 375 376
354 10 374 373 375 376
355 11 374 373 375 376
356 8 841 843 844 848
357 8 841 843 844 849
358 8 841 843 844 850
359 3 41 46 44 43
360 3 41 46 44 45
361 8 44 46 41 47
362 8 44 46 41 48
363 1 42 41 46 44
364 2 42 41 46 44
365 6 46 41 42 49
366 7 46 41 42 49
367 6 46 41 42 50
368 7 46 41 42 50
369 9 47 41 42 49
370 9 47 41 42 50
371 9 48 41 42 49
372 9 48 41 42 50
373 3 42 43 44 45
374 3 42 43 44 46
375 8 44 43 42 49
376 8 44 43 42 50
377 1 222 221 226 224
378 2 222 221 226 224
379 6 226 221 222 229
380 7 226 221 222 229
381 6 226 221 222 230
382 7 226 221 222 230
383 9 227 221 222 229
384 9 227 221 222 230
385 9 228 221 222 229
386 9 228 221 222 230
387 1 191 192 193 194
388 2 191 192 193 194
389 4 193 192 191 196
390 5 193 192 191 196
391 6 193 192 191 197
392 7 193 192 191 197
393 6 193 192 191 198
394 7 193 192 191 198
395 3 192 193 194 195
396 3 192 193 194 196
397 8 194 193 192 199
398 8 194 193 192 200
399 13 1034 1035 1037 1038
400 13 1034 1035 1037 1039
401 13 1036 1035 1037 1038
402 13 1036 1035 1037 1039
403 3 151 156 154 153
404 3 151 156 154 155
405 8 154 156 151 157
406 8 154 156 151 158
407 1 152 151 156 154
408 2 152 151 156 154
409 6 156 151 152 159
410 7 156 151 152 159
411 6 156 151 152 160
412 7 156 151 152 160
413 9 157 151 152 159
414 9 157 151 152 160
415 9 158 151 152 159
416 9 158 151 152 160
417 14 1029 1030 1031 1032
418 14 1029 1030 1034 1035
419 14 1029 1030 1039 1037
420 14 1031 1030 1034 1035
421 14 1031 1030 1039 1037
422 14 1034 1030 1039 1037
423 14 1028 1029 1030 1031
424 14 1028 1029 1030 1034
425 14 1028 1029 1030 1039
426 15 1030 1029 1028 1032
427 15 1030 1039 1037 1035
428 3 1030 1039 1037 1038
429 3 1030 1034 1035 1036
430 15 1030 1034 1035 1037
431 14 1035 1034 1030 1039
432 1 41 42 43 44
433 2 41 42 43 44
434 4 43 42 41 46
435 5 43 42 41 46
436 6 43 42 41 47
437 7 43 42 41 47
438 6 43 42 41 48
439 7 43 42 41 48
440 12 384 385 387 388
441 10 386 385 387 388
442 11 386 385 387 388
443 10 383 384 385 386
444 11 383 384 385 386
445 12 383 384 385 387
446 8 385 384 383 389
447 8 385 384 383 390
448 8 385 384 383 391
449 3 131 136 134 133
450 3 131 136 134 135
451 8 134 136 131 137
452 8 134 136 131 138
453 3 72 73 74 75
454 3 72 73 74 76
455 8 74 73 72 79
456 8 74 73 72 80
457 3 71 76 74 73
458 3 71 76 74 75
459 8 74 76 71 77
460 8 74 76 71 78
461 1 72 71 76 74
462 2 72 71 76 74
463 6 76 71 72 79
464 7 76 71 72 79
465 6 76 71 72 80
466 7 76 71 72 80
467 9 77 71 72 79
468 9 77 71 72 80
469 9 78 71 72 79
470 9 78 71 72 80
471 1 102 101 106 104
472 2 102 101 106 104
473 6 106 101 102 109
474 7 106 101 102 109
475 6 106 101 102 110
476 7 106 101 102 110
477 9 107 101 102 109
478 9 107 101 102 110
479 9 108 101 102 109
480 9 108 101 102 110
481 1 101 102 103 104
482 2 101 102 103 104
483 4 103 102 101 106
484 5 103 102 101 106
485 6 103 102 101 107
486 7 103 102 101 107
487 6 103 102 101 108
488 7 103 102 101 108
489 8 373 375 376 380
490 8 373 375 376 381
491 8 373 375 376 382
492 1 162 161 166 164
493 2 162 161 166 164
494 6 166 161 162 169
495 7 166 161 162 169
496 6 166 161 162 170
497 7 166 161 162 170
498 9 167 161 162 169
499 9 167 161 162 170
500 9 168 161 162 169
501 9 168 161 162 170
502 1 161 162 163 164
503 2 161 162 163 164
504 4 163 162 161 166
505 5 163 162 161 166
506 6 163 162 161 167
507 7 163 162 161 167
508 6 163 162 161 168
509 7 163 162 161 168
510 8 541 543 544 548
511 8 541 543 544 549
512 8 541 543 544 550
513 3 161 166 164 163
514 3 161 166 164 165
515 8 164 166 161 167
516 8 164 166 161 168
517 3 162 163 164 165
518 3 162 163 164 166
519 8 164 163 162 169
520 8 164 163 162 170
521 12 540 541 543 544
522 10 542 541 543 544
523 11 542 541 543 544
524 1 181 182 183 184
525 2 181 182 183 184
526 4 183 182 181 186
527 5 183 182 181 186
528 6 183 182 181 187
529 7 183 182 181 187
530 6 183 182 181 188
531 7 183 182 181 188
532 10 371 372 373 374
533 11 371 372 373 374
534 12 371 372 373 375
535 8 373 372 371 377
536 8 373 372 371 378
537 8 373 372 371 379
538 3 112 113 114 115
539 3 112 113 114 116
540 8 114 113 112 119
541 8 114 113 112 120
542 8 757 759 760 764
543 8 757 759 760 765
544 8 757 759 760 766
545 1 182 181 186 184
546 2 182 181 186 184
547 6 186 181 182 189
548 7 186 181 182 189
549 6 186 181 182 190
550 7 186 181 182 190
551 9 187 181 182 189
552 9 187 181 182 190
553 9 188 181 182 189
554 9 188 181 182 190
555 3 101 106 104 103
556 3 101 106 104 105
557 8 104 106 101 107
558 8 104 106 101 108
559 3 102 103 104 105
560 3 102 103 104 106
561 8 104 103 102 109
562 8 104 103 102 110
563 1 192 191 196 194
564 2 192 191 196 194
565 6 196 191 192 199
566 7 196 191 192 199
567 6 196 191 192 200
568 7 196 191 192 200
569 9 197 191 192 199
570 9 197 191 192 200
571 9 198 191 192 199
572 9 198 191 192 200
573 13 1073 1074 1076 1077
574 13 1073 1074 1076 1078
575 13 1075 1074 1076 1077
576 13 1075 1074 1076 1078
577 3 1069 1073 1074 1075
578 15 1069 1073 1074 1076
579 14 1074 1073 1069 1078
580 3 191 196 194 193
581 3 191 196 194 195
582 8 194 196 191 197
583 8 194 196 191 198
584 3 1017 1018 1019 1020
585 14 1019 1018 1017 1021
586 14 1019 1018 1017 1026
587 15 1015 1019 1018 1017
588 10 971 972 973 974
589 11 971 972 973 974
590 12 971 972 973 975
591 8 973 972 971 977
592 8 973 972 971 978
593 8 973 972 971 979
594 12 972 973 975 976
595 10 974 973 975 976
596 11 974 973 975 976
597 8 973 975 976 980
598 8 973 975 976 981
599 8 973 975 976 982
600 3 1014 1015 1016 1017
601 13 1014 1015 1019 1018
602 13 1014 1015 1019 1020
603 13 1016 1015 1019 1018
604 13 1016 1015 1019 1020
605 14 1015 1016 1017 1018
606 14 1015 1016 1017 1021
607 14 1015 1016 1017 1026
608 15 1017 1016 1015 1019
609 10 755 756 757 758
610 11 755 756 757 758
611 12 755 756 757 759
612 8 757 756 755 761
613 8 757 756 755 762
614 8 757 756 755 763
615 12 756 757 759 760
616 10 758 757 759 760
617 11 758 757 759 760
618 1 51 52 53 54
619 2 51 52 53 54
620 4 53 52 51 56
621 5 53 52 51 56
622 6 53 52 51 57
623 7 53 52 51 57
624 6 53 52 51 58
625 7 53 52 51 58
626 3 52 53 54 55
627 3 52 53 54 56
628 8 54 53 52 59
629 8 54 53 52 60
630 1 52 51 56 54
631 2 52 51 56 54
632 6 56 51 52 59
633 7 56 51 52 59
634 6 56 51 52 60
635 7 56 51 52 60
636 9 57 51 52 59
637 9 57 51 52 60
638 9 58 51 52 59
639 9 58 51 52 60
640 12 888 889 891 892
641 10 890 889 891 892
642 11 890 889 891 892
643 10 887 888 889 890
644 11 887 888 889 890
645 12 887 888 889 891
646 8 889 888 887 893
647 8 889 888 887 894
648 8 889 888 887 895
649 1 232 231 236 234
650 2 232 231 236 234
651 6 236 231 232 239
652 7 236 231 232 239
653 6 236 231 232 240
654 7 236 231 232 240
655 9 237 231 232 239
656 9 237 231 232 240
657 9 238 231 232 239
658 9 238 231 232 240
659 1 231 232 233 234
660 2 231 232 233 234
661 4 233 232 231 236
662 5 233 232 231 236
663 6 233 232 231 237
664 7 233 232 231 237
665 6 233 232 231 238
666 7 233 232 231 238
667 12 468 469 471 472
668 10 470 469 471 472
669 11 470 469 471 472
670 3 232 233 234 235
671 3 232 233 234 236
672 8 234 233 232 239
673 8 234 233 232 240
674 3 51 56 54 53
675 3 51 56 54 55
676 8 54 56 51 57
677 8 54 56 51 58
678 8 469 471 472 476
679 8 469 471 472 477
680 8 469 471 472 478
681 10 467 468 469 470
682 11 467 468 469 470
683 12 467 468 469 471
684 8 469 468 467 473
685 8 469 468 467 474
686 8 469 468 467 475
687 1 241 242 243 244
688 2 241 242 243 244
689 4 243 242 241 246
690 5 243 242 241 246
691 6 243 242 241 247
692 7 243 242 241 247
693 6 243 242 241 248
694 7 243 242 241 248
695 3 1 6 4 3
696 3 1 6 4 5
697 8 4 6 1 7
698 8 4 6 1 8
699 3 242 243 244 245
700 3 242 243 244 246
701 8 244 243 242 249
702 8 244 243 242 250
703 3 61 66 64 63
704 3 61 66 64 65
705 8 64 66 61 67
706 8 64 66 61 68
707 3 62 63 64 65
708 3 62 63 64 66
709 8 64 63 62 69
710 8 64 63 62 70
711 3 2 3 4 5
712 3 2 3 4 6
713 8 4 3 2 9
714 8 4 3 2 10
715 10 539 540 541 542
716 11 539 540 541 542
717 12 539 540 541 543
718 8 541 540 539 545
719 8 541 540 539 546
720 8 541 540 539 547
721 1 2 1 6 4
722 2 2 1 6 4
723 6 6 1 2 9
724 7 6 1 2 9
725 6 6 1 2 10
726 7 6 1 2 10
727 9 7 1 2 9
728 9 7 1 2 10
729 9 8 1 2 9
730 9 8 1 2 10
731 1 1 2 3 4
732 2 1 2 3 4
733 4 3 2 1 6
734 5 3 2 1 6
735 6 3 2 1 7
736 7 3 2 1 7
737 6 3 2 1 8
738 7 3 2 1 8
739 3 182 183 184 185
740 3 182 183 184 186
741 8 184 183 182 189
742 8 184 183 182 190
743 10 599 600 601 602
744 11 599 600 601 602
745 12 599 600 601 603
746 8 601 600 599 605
747 8 601 600 599 606
748 8 601 600 599 607
749 12 600 601 603 604
750 10 602 601 603 604
751 11 602 601 603 604
752 10 731 732 733 734
753 11 731 732 733 734
754 12 731 732 733 735
755 8 733 732 731 737
756 8 733 732 731 738
757 8 733 732 731 739
758 3 132 133 134 135
759 3 132 133 134 136
760 8 134 133 132 139
761 8 134 133 132 140
762 3 181 186 184 183
763 3 181 186 184 185
764 8 184 186 181 187
765 8 184 186 181 188
766 3 1053 1054 1055 1056
767 13 1053 1054 1058 1057
768 13 1053 1054 1058 1059
769 13 1055 1054 1058 1057
770 13 1055 1054 1058 1059
771 8 385 387 388 392
772 8 385 387 388 393
773 8 385 387 388 394
774 14 1054 1055 1056 1057
775 14 1054 1055 1056 1060
776 14 1054 1055 1056 1065
777 15 1056 1055 1054 1058
778 10 899 900 901 902
779 11 899 900 901 902
780 12 899 900 901 903
781 8 901 900 899 905
782 8 901 900 899 906
783 8 901 900 899 907
784 8 901 903 904 908
785 8 901 903 904 909
786 8 901 903 904 910
787 12 900 901 903 904
788 10 902 901 903 904
789 11 902 901 903 904
790 8 601 603 604 608
791 8 601 603 604 609
792 8 601 603 604 610
793 10 851 852 853 854
794 11 851 852 853 854
795 12 851 852 853 855
796 8 853 852 851 857
797 8 853 852 851 858
798 8 853 852 851 859
799 12 792 793 795 796
800 10 794 793 795 796
801 11 794 793 795 796
802 10 443 444 445 446
803 11 443 444 445 446
804 12 443 444 445 447
805 8 445 444 443 449
806 8 445 444 443 450
807 8 445 444 443 451
808 3 1069 1070 1071 1072
809 14 1071 1070 1069 1073
810 14 1071 1070 1069 1078
811 14 1068 1069 1070 1071
812 14 1068 1069 1073 1074
813 14 1068 1069 1078 1076
814 14 1070 1069 1073 1074
815 14 1070 1069 1078 1076
816 14 1073 1069 1078 1076
817 10 407 408 409 410
818 11 407 408 409 410
819 12 407 408 409 411
820 8 409 408 407 413
821 8 409 408 407 414
822 8 409 408 407 415
823 14 1067 1068 1069 1070
824 14 1067 1068 1069 1073
825 14 1067 1068 1069 1078
826 15 1069 1068 1067 1071
827 15 1069 1078 1076 1074
828 3 1069 1078 1076 1077
829 12 408 409 411 412
830 10 410 409 411 412
831 11 410 409 411 412
832 1 291 292 293 294
833 2 291 292 293 294
834 4 293 292 291 296
835 5 293 292 291 296
836 6 293 292 291 297
837 7 293 292 291 297
838 6 293 292 291 298
839 7 293 292 291 298
840 3 291 296 294 293
841 3 291 296 294 295
842 8 294 296 291 297
843 8 294 296 291 298
844 1 292 291 296 294
845 2 292 291 296 294
846 6 296 291 292 299
847 7 296 291 292 299
848 6 296 291 292 300
849 7 296 291 292 300
850 9 297 291 292 299
851 9 297 291 292 300
852 9 298 291 292 299
853 9 298 291 292 300
854 8 733 735 736 740
855 8 733 735 736 741
856 8 733 735 736 742
857 12 732 733 735 736
858 10 734 733 735 736
859 11 734 733 735 736
860 12 564 565 567 568
861 10 566 565 567 568
862 11 566 565 567 568
863 8 565 567 568 572
864 8 565 567 568 573
865 8 565 567 568 574
866 10 563 564 565 566
867 11 563 564 565 566
868 12 563 564 565 567
869 8 565 564 563 569
870 8 565 564 563 570
871 8 565 564 563 571
872 15 1054 1058 1057 1056
873 12 444 445 447 448
874 10 446 445 447 448
875 11 446 445 447 448
876 8 445 447 448 452
877 8 445 447 448 453
878 8 445 447 448 454
879 12 852 853 855 856
880 10 854 853 855 856
881 11 854 853 855 856
882 8 853 855 856 860
883 8 853 855 856 861
884 8 853 855 856 862
885 1 242 241 246 244
886 2 242 241 246 244
887 6 246 241 242 249
888 7 246 241 242 249
889 6 246 241 242 250
890 7 246 241 242 250
891 9 247 241 242 249
892 9 247 241 242 250
893 9 248 241 242 249
894 9 248 241 242 250
895 3 241 246 244 243
896 3 241 246 244 245
897 8 244 246 241 247
898 8 244 246 241 248
899 3 1040 1041 1042 1043
900 13 1040 1041 1045 1044
901 13 1040 1041 1045 1046
902 13 1042 1041 1045 1044
903 13 1042 1041 1045 1046
904 10 455 456 457 458
905 11 455 456 457 458
906 12 455 456 457 459
907 8 457 456 455 461
908 8 457 456 455 462
909 8 457 456 455 463
910 12 456 457 459 460
911 10 458 457 459 460
912 11 458 457 459 460
913 3 282 283 284 285
914 3 282 283 284 286
915 8 284 283 282 289
916 8 284 283 282 290
917 8 433 435 436 440
918 8 433 435 436 441
919 8 433 435 436 442
920 15 1004 1013 1011 1009
921 3 1004 1013 1011 1012
922 10 515 516 517 518
923 11 515 516 517 518
924 12 515 516 517 519
925 8 517 516 515 521
926 8 517 516 515 522
927 8 517 516 515 523
928 10 803 804 805 806
929 11 803 804 805 806
930 12 803 804 805 807
931 8 805 804 803 809
932 8 805 804 803 810
933 8 805 804 803 811
934 12 804 805 807 808
935 10 806 805 807 808
936 11 806 805 807 808
937 10 479 480 481 482
938 11 479 480 481 482
939 12 479 480 481 483
940 8 481 480 479 485
941 8 481 480 479 486
942 8 481 480 479 487
943 3 1027 1028 1029 1030
944 13 1027 1028 1032 1031
945 13 1027 1028 1032 1033
946 13 1029 1028 1032 1031
947 13 1029 1028 1032 1033
948 3 211 216 214 213
949 3 211 216 214 215
950 8 214 216 211 217
951 8 214 216 211 218
952 1 212 211 216 214
953 2 212 211 216 214
954 6 216 211 212 219
955 7 216 211 212 219
956 6 216 211 212 220
957 7 216 211 212 220
958 9 217 211 212 219
959 9 217 211 212 220
960 9 218 211 212 219
961 9 218 211 212 220
962 1 201 202 203 204
963 2 201 202 203 204
964 4 203 202 201 206
965 5 203 202 201 206
966 6 203 202 201 207
967 7 203 202 201 207
968 6 203 202 201 208
969 7 203 202 201 208
970 3 202 203 204 205
971 3 202 203 204 206
972 8 204 203 202 209
973 8 204 203 202 210
974 10 311 312 313 314
975 11 311 312 313 314
976 12 311 312 313 315
977 8 313 312 311 317
978 8 313 312 311 318
979 8 313 312 311 319
980 12 348 349 351 352
981 10 350 349 351 352
982 11 350 349 351 352
983 10 791 792 793 794
984 11 791 792 793 794
985 12 791 792 793 795
986 8 793 792 791 797
987 8 793 792 791 798
988 8 793 792 791 799
989 3 281 286 284 283
990 3 281 286 284 285
991 8 284 286 281 287
992 8 284 286 281 288
993 1 281 282 283 284
994 2 281 282 283 284
995 4 283 282 281 286
996 5 283 282 281 286
997 6 283 282 281 287
998 7 283 282 281 287
999 6 283 282 281 288
1000 7 283 282 281 288
1001 1 282 281 286 284
1002 2 282 281 286 284
1003 6 286 281 282 289
1004 7 286 281 282 289
1005 6 286 281 282 290
1006 7 286 281 282 290
1007 9 287 281 282 289
1008 9 287 281 282 290
1009 9 288 281 282 289
1010 9 288 281 282 290
1011 14 1002 1003 1004 1005
1012 14 1002 1003 1004 1008
1013 14 1002 1003 1004 1013
1014 15 1004 1003 1002 1006
1015 15 1002 1006 1005 1004
1016 3 1004 1005 1006 1007
1017 14 1006 1005 1004 1008
1018 14 1006 1005 1004 1013
1019 14 1003 1004 1005 1006
1020 14 1003 1004 1008 1009
1021 14 1003 1004 1013 1011
1022 14 1005 1004 1008 1009
1023 14 1005 1004 1013 1011
1024 14 1008 1004 1013 1011
1025 3 1004 1008 1009 1010
1026 15 1004 1008 1009 1011
1027 14 1009 1008 1004 1013
1028 10 419 420 421 422
1029 11 419 420 421 422
1030 12 419 420 421 423
1031 8 421 420 419 425
1032 8 421 420 419 426
1033 8 421 420 419 427
1034 12 420 421 423 424
1035 10 422 421 423 424
1036 11 422 421 423 424
1037 8 421 423 424 428
1038 8 421 423 424 429
1039 8 421 423 424 430
1040 8 865 867 868 872
1041 8 865 867 868 873
1042 8 865 867 868 874
1043 3 1001 1002 1003 1004
1044 13 1001 1002 1006 1005
1045 13 1001 1002 1006 1007
1046 13 1003 1002 1006 1005
1047 13 1003 1002 1006 1007
1048 8 529 531 532 536
1049 8 529 531 532 537
1050 8 529 531 532 538
1051 12 528 529 531 532
1052 10 530 529 531 532
1053 11 530 529 531 532
1054 12 648 649 651 652
1055 10 650 649 651 652
1056 11 650 649 651 652
1057 10 527 528 529 530
1058 11 527 528 529 530
1059 12 527 528 529 531
1060 8 529 528 527 533
1061 8 529 528 527 534
1062 8 529 528 527 535
1063 10 647 648 649 650
1064 11 647 648 649 650
1065 12 647 648 649 651
1066 8 649 648 647 653
1067 8 649 648 647 654
1068 8 649 648 647 655
1069 10 743 744 745 746
1070 11 743 744 745 746
1071 12 743 744 745 747
1072 8 745 744 743 749
1073 8 745 744 743 750
1074 8 745 744 743 751
1075 8 649 651 652 656
1076 8 649 651 652 657
1077 8 649 651 652 658
1078 12 744 745 747 748
1079 10 746 745 747 748
1080 11 746 745 747 748
1081 8 745 747 748 752
1082 8 745 747 748 753
1083 8 745 747 748 754
1084 10 575 576 577 578
1085 11 575 576 577 578
1086 12 575 576 577 579
1087 8 577 576 575 581
1088 8 577 576 575 582
1089 8 577 576 575 583
1090 12 576 577 579 580
1091 10 578 577 579 580
1092 11 578 577 579 580
1093 8 577 579 580 584
1094 8 577 579 580 585
1095 8 577 579 580 586
1096 8 349 351 352 356
1097 8 349 351 352 357
1098 8 349 351 352 358
1099 10 347 348 349 350
1100 11 347 348 349 350
1101 12 347 348 349 351
1102 8 349 348 347 353
1103 8 349 348 347 354
1104 8 349 348 347 355
1105 15 1041 1045 1044 1043
1106 12 864 865 867 868
1107 10 866 865 867 868
1108 11 866 865 867 868
1109 10 863 864 865 866
1110 11 863 864 865 866
1111 12 863 864 865 867
1112 8 865 864 863 869
1113 8 865 864 863 870
1114 8 865 864 863 871
1115 3 1043 1044 1045 1046
1116 14 1045 1044 1043 1047
1117 14 1045 1044 1043 1052
1118 14 1042 1043 1044 1045
1119 14 1042 1043 1047 1048
1120 14 1042 1043 1052 1050
1121 14 1044 1043 1047 1048
1122 14 1044 1043 1052 1050
1123 14 1047 1043 1052 1050
1124 3 1043 1047 1048 1049
1125 15 1043 1047 1048 1050
1126 14 1048 1047 1043 1052
1127 8 769 771 772 776
1128 8 769 771 772 777
1129 8 769 771 772 778
1130 12 768 769 771 772
1131 10 770 769 771 772
1132 11 770 769 771 772
1133 1 221 222 223 224
1134 2 221 222 223 224
1135 4 223 222 221 226
1136 5 223 222 221 226
1137 6 223 222 221 227
1138 7 223 222 221 227
1139 6 223 222 221 228
1140 7 223 222 221 228
1141 3 222 223 224 225
1142 3 222 223 224 226
1143 8 224 223 222 229
1144 8 224 223 222 230
1145 3 221 226 224 223
1146 3 221 226 224 225
1147 8 224 226 221 227
1148 8 224 226 221 228
1149 8 481 483 484 488
1150 8 481 483 484 489
1151 8 481 483 484 490
1152 12 480 481 483 484
1153 10 482 481 483 484
1154 11 482 481 483 484
1155 12 516 517 519 520
1156 10 518 517 519 520
1157 11 518 517 519 520
1158 1 202 201 206 204
1159 2 202 201 206 204
1160 6 206 201 202 209
1161 7 206 201 202 209
1162 6 206 201 202 210
1163 7 206 201 202 210
1164 9 207 201 202 209
1165 9 207 201 202 210
1166 9 208 201 202 209
1167 9 208 201 202 210
1168 3 201 206 204 203
1169 3 201 206 204 205
1170 8 204 206 201 207
1171 8 204 206 201 208
1172 13 1008 1009 1011 1012
1173 13 1008 1009 1011 1013
1174 13 1010 1009 1011 1012
1175 13 1010 1009 1011 1013
1176 8 517 519 520 524
1177 8 517 519 520 525
1178 8 517 519 520 526
1179 12 816 817 819 820
1180 10 818 817 819 820
1181 11 818 817 819 820
1182 10 815 816 817 818
1183 11 815 816 817 818
1184 12 815 816 817 819
1185 8 817 816 815 821
1186 8 817 816 815 822
1187 8 817 816 815 823
1188 10 635 636 637 638
1189 11 635 636 637 638
1190 12 635 636 637 639
1191 8 637 636 635 641
1192 8 637 636 635 642
1193 8 637 636 635 643
1194 12 636 637 639 640
1195 10 638 637 639 640
1196 11 638 637 639 640
1197 8 637 639 640 644
1198 8 637 639 640 645
1199 8 637 639 640 646
1200 12 960 961 963 964
1201 10 962 961 963 964
1202 11 962 961 963 964
1203 10 959 960 961 962
1204 11 959 960 961 962
1205 12 959 960 961 963
1206 8 961 960 959 965
1207 8 961 960 959 966
1208 8 961 960 959 967
1209 8 397 399 400 404
1210 8 397 399 400 405
1211 8 397 399 400 406
1212 3 271 276 274 273
1213 3 271 276 274 275
1214 8 274 276 271 277
1215 8 274 276 271 278
1216 10 395 396 397 398
1217 11 395 396 397 398
1218 12 395 396 397 399
1219 8 397 396 395 401
1220 8 397 396 395 402
1221 8 397 396 395 403
1222 12 396 397 399 400
1223 10 398 397 399 400
1224 11 398 397 399 400
1225 8 673 675 676 680
1226 8 673 675 676 681
1227 8 673 675 676 682
1228 1 272 271 276 274
1229 2 272 271 276 274
1230 6 276 271 272 279
1231 7 276 271 272 279
1232 6 276 271 272 280
1233 7 276 271 272 280
1234 9 277 271 272 279
1235 9 277 271 272 280
1236 9 278 271 272 279
1237 9 278 271 272 280
1238 1 271 272 273 274
1239 2 271 272 273 274
1240 4 273 272 271 276
1241 5 273 272 271 276
1242 6 273 272 271 277
1243 7 273 272 271 277
1244 6 273 272 271 278
1245 7 273 272 271 278
1246 3 272 273 274 275
1247 3 272 273 274 276
1248 8 274 273 272 279
1249 8 274 273 272 280
1250 14 1041 1042 1043 1044
1251 14 1041 1042 1043 1047
1252 14 1041 1042 1043 1052
1253 15 1043 1042 1041 1045
1254 13 1047 1048 1050 1051
1255 13 1047 1048 1050 1052
1256 13 1049 1048 1050 1051
1257 13 1049 1048 1050 1052
1258 15 1043 1052 1050 1048
1259 3 1043 1052 1050 1051
1260 8 829 831 832 836
1261 8 829 831 832 837
1262 8 829 831 832 838
1263 12 828 829 831 832
1264 10 830 829 831 832
1265 11 830 829 831 832
1266 8 457 459 460 464
1267 8 457 459 460 465
1268 8 457 459 460 466
1269 1 121 122 123 124
1270 2 121 122 123 124
1271 4 123 122 121 126
1272 5 123 122 121 126
1273 6 123 122 121 127
1274 7 123 122 121 127
1275 6 123 122 121 128
1276 7 123 122 121 128
1277 1 122 121 126 124
1278 2 122 121 126 124
1279 6 126 121 122 129
1280 7 126 121 122 129
1281 6 126 121 122 130
1282 7 126 121 122 130
1283 9 127 121 122 129
1284 9 127 121 122 130
1285 9 128 121 122 129
1286 9 128 121 122 130
1287 3 111 116 114 113
1288 3 111 116 114 115
1289 8 114 116 111 117
1290 8 114 116 111 118
1291 12 876 877 879 880
1292 10 878 877 879 880
1293 11 878 877 879 880
1294 12 780 781 783 784
1295 10 782 781 783 784
1296 11 782 781 783 784
1297 8 781 783 784 788
1298 8 781 783 784 789
1299 8 781 783 784 790
1300 15 1017 1026 1024 1022
1301 3 1017 1026 1024 1025
1302 13 1021 1022 1024 1025
1303 13 1021 1022 1024 1026
1304 13 1023 1022 1024 1025
1305 13 1023 1022 1024 1026
1306 14 1016 1017 1018 1019
1307 14 1016 1017 1021 1022
1308 14 1016 1017 1026 1024
1309 14 1018 1017 1021 1022
1310 14 1018 1017 1026 1024
1311 14 1021 1017 1026 1024
1312 3 1017 1021 1022 1023
1313 15 1017 1021 1022 1024
1314 14 1022 1021 1017 1026
1315 10 779 780 781 782
1316 11 779 780 781 782
1317 12 779 780 781 783
1318 8 781 780 779 785
1319 8 781 780 779 786
1320 8 781 780 779 787
1321 10 335 336 337 338
1322 11 335 336 337 338
1323 12 335 336 337 339
1324 8 337 336 335 341
1325 8 337 336 335 342
1326 8 337 336 335 343
1327 12 336 337 339 340
1328 10 338 337 339 340
1329 11 338 337 339 340
1330 12 492 493 495 496
1331 10 494 493 495 496
1332 11 494 493 495 496
1333 12 912 913 915 916
1334 10 914 913 915 916
1335 11 914 913 915 916
1336 8 913 915 916 920
1337 8 913 915 916 921
1338 8 913 915 916 922
1339 10 911 912 913 914
1340 11 911 912 913 914
1341 12 911 912 913 915
1342 8 913 912 911 917
1343 8 913 912 911 918
1344 8 913 912 911 919
1345 8 493 495 496 500
1346 8 493 495 496 501
1347 8 493 495 496 502
1348 10 491 492 493 494
1349 11 491 492 493 494
1350 12 491 492 493 495
1351 8 493 492 491 497
1352 8 493 492 491 498
1353 8 493 492 491 499
1354 10 611 612 613 614
1355 11 611 612 613 614
1356 12 611 612 613 615
1357 8 613 612 611 617
1358 8 613 612 611 618
1359 8 613 612 611 619
1360 12 672 673 675 676
1361 10 674 673 675 676
1362 11 674 673 675 676
1363 12 612 613 615 616
1364 10 614 613 615 616
1365 11 614 613 615 616
1366 10 671 672 673 674
1367 11 671 672 673 674
1368 12 671 672 673 675
1369 8 673 672 671 677
1370 8 673 672 671 678
1371 8 673 672 671 679
1372 8 613 615 616 620
1373 8 613 615 616 621
1374 8 613 615 616 622
1375 1 112 111 116 114
1376 2 112 111 116 114
1377 6 116 111 112 119
1378 7 116 111 112 119
1379 6 116 111 112 120
1380 7 116 111 112 120
1381 9 117 111 112 119
1382 9 117 111 112 120
1383 9 118 111 112 119
1384 9 118 111 112 120
1385 8 877 879 880 884
1386 8 877 879 880 885
1387 8 877 879 880 886
1388 8 337 339 340 344
1389 8 337 339 340 345
1390 8 337 339 340 346
1391 10 827 828 829 830
1392 11 827 828 829 830
1393 12 827 828 829 831
1394 8 829 828 827 833
1395 8 829 828 827 834
1396 8 829 828 827 835
1397 3 231 236 234 233
1398 3 231 236 234 235
1399 8 234 236 231 237
1400 8 234 236 231 238
1401 8 889 891 892 896
1402 8 889 891 892 897
1403 8 889 891 892 898
1404 1 111 112 113 114
1405 2 111 112 113 114
1406 4 113 112 111 116
1407 5 113 112 111 116
1408 6 113 112 111 117
1409 7 113 112 111 117
1410 6 113 112 111 118
1411 7 113 112 111 118
1412 10 875 876 877 878
1413 11 875 876 877 878
1414 12 875 876 877 879
1415 8 877 876 875 881
1416 8 877 876 875 882
1417 8 877 876 875 883
1418 8 793 795 796 800
1419 8 793 795 796 801
1420 8 793 795 796 802
1421 15 1067 1071 1070 1069
1422 8 409 411 412 416
1423 8 409 411 412 417
1424 8 409 411 412 418
1425 3 1066 1067 1068 1069
1426 13 1066 1067 1071 1070
1427 13 1066 1067 1071 1072
1428 13 1068 1067 1071 1070
1429 13 1068 1067 1071 1072
1430 3 292 293 294 295
1431 3 292 293 294 296
1432 8 294 293 292 299
1433 8 294 293 292 300
1434 1 261 262 263 264
1435 2 261 262 263 264
1436 4 263 262 261 266
1437 5 263 262 261 266
1438 6 263 262 261 267
1439 7 263 262 261 267
1440 6 263 262 261 268
1441 7 263 262 261 268
1442 1 22 21 26 24
1443 2 22 21 26 24
1444 6 26 21 22 29
1445 7 26 21 22 29
1446 6 26 21 22 30
1447 7 26 21 22 30
1448 9 27 21 22 29
1449 9 27 21 22 30
1450 9 28 21 22 29
1451 9 28 21 22 30
1452 1 21 22 23 24
1453 2 21 22 23 24
1454 4 23 22 21 26
1455 5 23 22 21 26
1456 6 23 22 21 27
1457 7 23 22 21 27
1458 6 23 22 21 28
1459 7 23 22 21 28
1460 3 21 26 24 23
1461 3 21 26 24 25
1462 8 24 26 21 27
1463 8 24 26 21 28
1464 12 324 325 327 328
1465 10 326 325 327 328
1466 11 326 325 327 328
1467 8 805 807 808 812
1468 8 805 807 808 813
1469 8 805 807 808 814
1470 8 325 327 328 332
1471 8 325 327 328 333
1472 8 325 327 328 334
1473 3 22 23 24 25
1474 3 22 23 24 26
1475 8 24 23 22 29
1476 8 24 23 22 30
1477 10 551 552 553 554
1478 11 551 552 553 554
1479 12 551 552 553 555
1480 8 553 552 551 557
1481 8 553 552 551 558
1482 8 553 552 551 559
1483 10 323 324 325 326
1484 11 323 324 325 326
1485 12 323 324 325 327
1486 8 325 324 323 329
1487 8 325 324 323 330
1488 8 325 324 323 331
1489 10 707 708 709 710
1490 11 707 708 709 710
1491 12 707 708 709 711
1492 8 709 708 707 713
1493 8 709 708 707 714
1494 8 709 708 707 715
1495 8 709 711 712 716
1496 8 709 711 712 717
1497 8 709 711 712 718
1498 12 708 709 711 712
1499 10 710 709 711 712
1500 11 710 709 711 712
1501 12 312 313 315 316
1502 10 314 313 315 316
1503 11 314 313 315 316
1504 8 313 315 316 320
1505 8 313 315 316 321
1506 8 313 315 316 322
1507 1 262 261 266 264
1508 2 262 261 266 264
1509 6 266 261 262 269
1510 7 266 261 262 269
1511 6 266 261 262 270
1512 7 266 261 262 270
1513 9 267 261 262 269
1514 9 267 261 262 270
1515 9 268 261 262 269
1516 9 268 261 262 270
1517 3 262 263 264 265
1518 3 262 263 264 266
1519 8 264 263 262 269
1520 8 264 263 262 270
1521 3 261 266 264 263
1522 3 261 266 264 265
1523 8 264 266 261 267
1524 8 264 266 261 268
1525 10 623 624 625 626
1526 11 623 624 625 626
1527 12 623 624 625 627
1528 8 625 624 623 629
1529 8 625 624 623 630
1530 8 625 624 623 631
1531 12 624 625 627 628
1532 10 626 625 627 628
1533 11 626 625 627 628
1534 1 142 141 146 144
1535 2 142 141 146 144
1536 6 146 141 142 149
1537 7 146 141 142 149
1538 6 146 141 142 150
1539 7 146 141 142 150
1540 9 147 141 142 149
1541 9 147 141 142 150
1542 9 148 141 142 149
1543 9 148 141 142 150
1544 1 141 142 143 144
1545 2 141 142 143 144
1546 4 143 142 141 146
1547 5 143 142 141 146
1548 6 143 142 141 147
1549 7 143 142 141 147
1550 6 143 142 141 148
1551 7 143 142 141 148
1552 3 142 143 144 145
1553 3 142 143 144 146
1554 8 144 143 142 149
1555 8 144 143 142 150
1556 3 141 146 144 143
1557 3 141 146 144 145
1558 8 144 146 141 147
1559 8 144 146 141 148
1560 8 625 627 628 632
1561 8 625 627 628 633
1562 8 625 627 628 634
1563 3 92 93 94 95
1564 3 92 93 94 96
1565 8 94 93 92 99
1566 8 94 93 92 100
1567 1 92 91 96 94
1568 2 92 91 96 94
1569 6 96 91 92 99
1570 7 96 91 92 99
1571 6 96 91 92 100
1572 7 96 91 92 100
1573 9 97 91 92 99
1574 9 97 91 92 100
1575 9 98 91 92 99
1576 9 98 91 92 100
1577 3 91 96 94 93
1578 3 91 96 94 95
1579 8 94 96 91 97
1580 8 94 96 91 98
1581 1 91 92 93 94
1582 2 91 92 93 94
1583 4 93 92 91 96
1584 5 93 92 91 96
1585 6 93 92 91 97
1586 7 93 92 91 97
1587 6 93 92 91 98
1588 7 93 92 91 98
1589 12 552 553 555 556
1590 10 554 553 555 556
1591 11 554 553 555 556
1592 8 553 555 556 560
1593 8 553 555 556 561
1594 8 553 555 556 562
1595 3 172 173 174 175
1596 3 172 173 174 176
1597 8 174 173 172 179
1598 8 174 173 172 180
1599 1 171 172 173 174
1600 2 171 172 173 174
1601 4 173 172 171 176
1602 5 173 172 171 176
1603 6 173 172 171 177
1604 7 173 172 171 177
1605 6 173 172 171 178
1606 7 173 172 171 178
1607 3 171 176 174 173
1608 3 171 176 174 175
1609 8 174 176 171 177
1610 8 174 176 171 178
1611 3 121 126 124 123
1612 3 121 126 124 125
1613 8 124 126 121 127
1614 8 124 126 121 128
1615 3 122 123 124 125
1616 3 122 123 124 126
1617 8 124 123 122 129
1618 8 124 123 122 130
1619 8 661 663 664 668
1620 8 661 663 664 669
1621 8 661 663 664 670
1622 1 172 171 176 174
1623 2 172 171 176 174
1624 6 176 171 172 179
1625 7 176 171 172 179
1626 6 176 171 172 180
1627 7 176 171 172 180
1628 9 177 171 172 179
1629 9 177 171 172 180
1630 9 178 171 172 179
1631 9 178 171 172 180
1632 10 659 660 661 662
1633 11 659 660 661 662
1634 12 659 660 661 663
1635 8 661 660 659 665
1636 8 661 660 659 666
1637 8 661 660 659 667
1638 10 767 768 769 770
1639 11 767 768 769 770
1640 12 767 768 769 771
1641 8 769 768 767 773
1642 8 769 768 767 774
1643 8 769 768 767 775
1644 8 505 507 508 512
1645 8 505 507 508 513
1646 8 505 507 508 514
1647 12 660 661 663 664
1648 10 662 661 663 664
1649 11 662 661 663 664
1650 10 503 504 505 506
1651 11 503 504 505 506
1652 12 503 504 505 507
1653 8 505 504 503 509
1654 8 505 504 503 510
1655 8 505 504 503 511
1656 12 504 505 507 508
1657 10 506 505 507 508
1658 11 506 505 507 508

Impropers

1 1 84 86 83 85
2 1 84 85 86 83
3 1 721 723 720 722
4 1 697 698 699 696
5 1 697 696 698 699
6 1 84 83 85 86
7 1 721 720 722 723
8 1 949 948 950 951
9 1 697 699 696 698
10 1 889 890 891 888
11 1 817 819 816 818
12 1 361 363 360 362
13 1 925 924 926 927
14 1 925 927 924 926
15 1 925 926 927 924
16 1 361 362 363 360
17 1 361 360 362 363
18 1 937 938 939 936
19 1 589 591 588 590
20 1 385 386 387 384
21 1 589 588 590 591
22 1 1061 1063 1060 1062
23 1 1063 1064 1065 1061
24 1 1063 1065 1061 1064
25 1 589 590 591 588
26 1 1041 1040 1042 1045
27 1 1061 1062 1063 1060
28 1 1063 1061 1064 1065
29 1 34 36 33 35
30 1 1061 1060 1062 1063
31 1 841 840 842 843
32 1 841 842 843 840
33 1 685 687 684 686
34 1 685 684 686 687
35 1 721 722 723 720
36 1 685 686 687 684
37 1 433 434 435 432
38 1 154 155 156 153
39 1 937 939 936 938
40 1 433 432 434 435
41 1 937 936 938 939
42 1 1032 1033 1028 1031
43 1 14 13 15 16
44 1 14 16 13 15
45 1 1028 1032 1027 1029
46 1 1032 1031 1033 1028
47 1 34 33 35 36
48 1 214 215 216 213
49 1 214 213 215 216
50 1 1058 1057 1059 1054
51 1 34 35 36 33
52 1 961 963 960 962
53 1 154 153 155 156
54 1 985 984 986 987
55 1 985 986 987 984
56 1 985 987 984 986
57 1 304 306 303 305
58 1 949 950 951 948
59 1 949 951 948 950
60 1 304 305 306 303
61 1 254 256 253 255
62 1 254 253 255 256
63 1 254 255 256 253
64 1 1035 1036 1037 1034
65 1 1037 1038 1039 1035
66 1 373 374 375 372
67 1 304 303 305 306
68 1 44 45 46 43
69 1 841 843 840 842
70 1 44 46 43 45
71 1 44 43 45 46
72 1 194 193 195 196
73 1 1037 1035 1038 1039
74 1 1035 1037 1034 1036
75 1 154 156 153 155
76 1 1028 1029 1032 1027
77 1 1037 1039 1035 1038
78 1 1035 1034 1036 1037
79 1 961 962 963 960
80 1 385 384 386 387
81 1 134 136 133 135
82 1 74 73 75 76
83 1 74 76 73 75
84 1 74 75 76 73
85 1 1074 1075 1076 1073
86 1 373 375 372 374
87 1 541 543 540 542
88 1 164 166 163 165
89 1 164 163 165 166
90 1 541 542 543 540
91 1 373 372 374 375
92 1 114 113 115 116
93 1 114 115 116 113
94 1 757 759 756 758
95 1 901 902 903 900
96 1 104 106 103 105
97 1 104 103 105 106
98 1 104 105 106 103
99 1 1076 1074 1077 1078
100 1 1074 1073 1075 1076
101 1 194 196 193 195
102 1 1019 1018 1020 1015
103 1 1019 1020 1015 1018
104 1 1015 1019 1014 1016
105 1 973 972 974 975
106 1 973 974 975 972
107 1 973 975 972 974
108 1 1019 1015 1018 1020
109 1 1015 1016 1019 1014
110 1 1015 1014 1016 1019
111 1 757 756 758 759
112 1 757 758 759 756
113 1 54 53 55 56
114 1 889 888 890 891
115 1 4 5 6 3
116 1 469 470 471 468
117 1 134 135 136 133
118 1 234 233 235 236
119 1 54 55 56 53
120 1 54 56 53 55
121 1 469 471 468 470
122 1 469 468 470 471
123 1 4 6 3 5
124 1 244 243 245 246
125 1 1076 1077 1078 1074
126 1 64 66 63 65
127 1 64 63 65 66
128 1 4 3 5 6
129 1 541 540 542 543
130 1 164 165 166 163
131 1 244 245 246 243
132 1 64 65 66 63
133 1 184 183 185 186
134 1 601 602 603 600
135 1 601 600 602 603
136 1 733 732 734 735
137 1 565 566 567 564
138 1 134 133 135 136
139 1 184 185 186 183
140 1 184 186 183 185
141 1 1054 1053 1055 1058
142 1 1058 1054 1057 1059
143 1 385 387 384 386
144 1 1054 1055 1058 1053
145 1 901 900 902 903
146 1 901 903 900 902
147 1 601 603 600 602
148 1 853 852 854 855
149 1 793 794 795 792
150 1 445 444 446 447
151 1 1071 1070 1072 1067
152 1 1074 1076 1073 1075
153 1 409 408 410 411
154 1 1067 1068 1071 1066
155 1 1076 1078 1074 1077
156 1 294 296 293 295
157 1 733 735 732 734
158 1 1058 1059 1054 1057
159 1 733 734 735 732
160 1 565 567 564 566
161 1 565 564 566 567
162 1 1054 1058 1053 1055
163 1 445 446 447 444
164 1 445 447 444 446
165 1 853 854 855 852
166 1 853 855 852 854
167 1 244 246 243 245
168 1 1045 1046 1041 1044
169 1 745 746 747 744
170 1 1045 1041 1044 1046
171 1 457 456 458 459
172 1 457 458 459 456
173 1 284 283 285 286
174 1 433 435 432 434
175 1 284 285 286 283
176 1 1011 1013 1009 1012
177 1 517 516 518 519
178 1 805 804 806 807
179 1 805 806 807 804
180 1 14 15 16 13
181 1 481 480 482 483
182 1 1028 1027 1029 1032
183 1 1032 1028 1031 1033
184 1 214 216 213 215
185 1 204 203 205 206
186 1 313 312 314 315
187 1 793 792 794 795
188 1 284 286 283 285
189 1 1002 1003 1006 1001
190 1 1002 1006 1001 1003
191 1 1006 1007 1002 1005
192 1 1006 1005 1007 1002
193 1 1009 1008 1010 1011
194 1 421 420 422 423
195 1 421 423 420 422
196 1 421 422 423 420
197 1 865 867 864 866
198 1 1006 1002 1005 1007
199 1 1002 1001 1003 1006
200 1 529 531 528 530
201 1 529 530 531 528
202 1 529 528 530 531
203 1 649 648 650 651
204 1 649 650 651 648
205 1 745 744 746 747
206 1 649 651 648 650
207 1 745 747 744 746
208 1 577 578 579 576
209 1 577 576 578 579
210 1 577 579 576 578
211 1 349 351 348 350
212 1 349 348 350 351
213 1 1041 1045 1040 1042
214 1 865 866 867 864
215 1 865 864 866 867
216 1 1045 1044 1046 1041
217 1 1048 1047 1049 1050
218 1 769 771 768 770
219 1 1011 1012 1013 1009
220 1 1009 1011 1008 1010
221 1 224 223 225 226
222 1 224 226 223 225
223 1 481 482 483 480
224 1 481 483 480 482
225 1 349 350 351 348
226 1 204 206 203 205
227 1 204 205 206 203
228 1 517 518 519 516
229 1 194 195 196 193
230 1 337 338 339 336
231 1 817 818 819 816
232 1 1011 1009 1012 1013
233 1 1009 1010 1011 1008
234 1 517 519 516 518
235 1 224 225 226 223
236 1 817 816 818 819
237 1 637 636 638 639
238 1 637 638 639 636
239 1 637 639 636 638
240 1 961 960 962 963
241 1 397 399 396 398
242 1 274 276 273 275
243 1 397 396 398 399
244 1 673 675 672 674
245 1 274 273 275 276
246 1 397 398 399 396
247 1 1041 1042 1045 1040
248 1 1050 1048 1051 1052
249 1 1048 1049 1050 1047
250 1 1050 1052 1048 1051
251 1 829 831 828 830
252 1 1050 1051 1052 1048
253 1 1048 1050 1047 1049
254 1 829 830 831 828
255 1 457 459 456 458
256 1 769 770 771 768
257 1 877 878 879 876
258 1 114 116 113 115
259 1 781 783 780 782
260 1 1024 1026 1022 1025
261 1 1022 1024 1021 1023
262 1 1024 1025 1026 1022
263 1 1024 1022 1025 1026
264 1 1022 1021 1023 1024
265 1 781 780 782 783
266 1 781 782 783 780
267 1 337 336 338 339
268 1 913 915 912 914
269 1 913 912 914 915
270 1 913 914 915 912
271 1 493 495 492 494
272 1 493 492 494 495
273 1 493 494 495 492
274 1 613 612 614 615
275 1 1022 1023 1024 1021
276 1 274 275 276 273
277 1 613 614 615 612
278 1 673 672 674 675
279 1 673 674 675 672
280 1 613 615 612 614
281 1 553 554 555 552
282 1 877 879 876 878
283 1 337 339 336 338
284 1 829 828 830 831
285 1 234 236 233 235
286 1 889 891 888 890
287 1 877 876 878 879
288 1 793 795 792 794
289 1 1071 1072 1067 1070
290 1 1067 1071 1066 1068
291 1 409 410 411 408
292 1 409 411 408 410
293 1 1071 1067 1070 1072
294 1 294 293 295 296
295 1 294 295 296 293
296 1 1067 1066 1068 1071
297 1 24 26 23 25
298 1 325 326 327 324
299 1 805 807 804 806
300 1 325 327 324 326
301 1 24 23 25 26
302 1 553 552 554 555
303 1 24 25 26 23
304 1 325 324 326 327
305 1 709 710 711 708
306 1 709 708 710 711
307 1 709 711 708 710
308 1 313 314 315 312
309 1 313 315 312 314
310 1 234 235 236 233
311 1 264 263 265 266
312 1 264 266 263 265
313 1 264 265 266 263
314 1 625 624 626 627
315 1 625 626 627 624
316 1 144 143 145 146
317 1 144 145 146 143
318 1 144 146 143 145
319 1 625 627 624 626
320 1 94 93 95 96
321 1 94 95 96 93
322 1 94 96 93 95
323 1 553 555 552 554
324 1 174 175 176 173
325 1 174 173 175 176
326 1 174 176 173 175
327 1 124 126 123 125
328 1 124 125 126 123
329 1 124 123 125 126
330 1 661 662 663 660
331 1 661 663 660 662
332 1 661 660 662 663
333 1 769 768 770 771
334 1 505 507 504 506
335 1 505 504 506 507
336 1 505 506 507 504
