LAMMPS data file via write_data, version 22 Jul 2025, timestep = 520447, units = real

1078 atoms
7 atom types
1021 bonds
7 bond types
1628 angles
9 angle types
1658 dihedrals
15 dihedral types
336 impropers
1 improper types

-0.19445457750219575 23.416666797411906 xlo xhi
-0.1974545798673173 23.413666797427283 ylo yhi
-0.24845458747570603 23.362666797475583 zlo zhi

Masses

1 12.01078
2 15.99943
3 12.01078
4 15.99943
5 1.007947
6 6.9412
7 10.8117

Pair Coeffs # lj/cut/coul/long

1 0.108841 3.37953
2 0.168465 3.02511
3 0.0868793 3.48065
4 0.210206 3.03981
5 0.0164092 2.58323
6 0.0279896 1.82634
7 0.095 3.42105

Bond Coeffs # harmonic

1 215.301 1.53363
2 227.037 1.43632
3 357.819 1.09421
4 291.342 1.35606
5 762.039 1.225
6 267.429 1.46787
7 215 1.48

Angle Coeffs # harmonic

1 91.5186 108.173
2 66.7563 109.938
3 63.31 123.606
4 36.7766 108.354
5 119.896 112.874
6 84.5477 120.105
7 50.9018 124.802
8 55 120
9 50 109.5

Dihedral Coeffs # opls

1 1 0.111303 3 0
2 1 0.438911 1 180
3 1 1.76361 2 180
4 1 -0.0153377 3 0
5 1 0.41915 2 0
6 1 0.131135 3 0
7 1 0.436547 1 0
8 1 0.263111 3 0
9 1 0.227995 3 0
10 1 0.302195 2 180
11 1 1.35005 1 180
12 1 3.48187 2 180
13 1 1.04276 2 180
14 1 0.2 3 0
15 1 1 2 180

Improper Coeffs # cvff

1 4.30523 -1 2

Atoms # full

242 25 1 0.0955 2.9190969210403086 3.620958492575292 2.7146890353510518 0 0 0
241 25 1 0.0955 2.4337526812033974 4.441145810356981 3.8354005275476117 0 0 0
248 25 5 0.0798 3.2031114102087415 4.636938455163418 4.551071765716129 0 0 0
247 25 5 0.0798 2.2119352921323903 5.476113353541108 3.436562198642774 0 0 0
249 25 5 0.0798 3.2250491465067945 4.184752006441439 1.7812934385665935 0 0 0
465 44 5 0.0582835 0.636093778276352 6.686413446180319 5.85846995972501 0 0 0
726 66 5 0.0582835 4.391063325329868 2.139689628871002 5.925003471600822 0 0 0
243 25 2 -0.4048 1.9231497883915685 2.661618688020915 2.554878946886255 0 0 0
244 25 3 0.8478 0.9329692399241056 2.8085421341521224 3.428722036718267 0 0 0
250 25 5 0.0798 3.765242332059192 3.003840345357367 2.955187387087814 0 0 0
246 25 2 -0.4048 1.1482867034978517 3.8791080792758557 4.257638221301243 0 0 0
460 44 1 0.1266165 1.3313591433541792 7.466083740167092 5.642378356960513 0 0 0
6 1 2 -0.4048 5.584808517552252 6.987434632096063 1.956070824663489 0 0 1
237 24 5 0.0798 1.5294309613387045 1.3055084095085903 5.659558285992197 0 0 0
7 1 5 0.0798 6.83510545642796 7.4366778263992925 0.4952305304006053 0 0 1
466 44 5 0.0582835 2.2504133982486074 7.299870033760712 6.197749715546229 0 0 0
5 1 4 -0.5484 5.664450934138447 5.863738351957456 3.9456990707178847 0 0 1
4 1 3 0.8478 6.153117302926063 6.6691653893175555 3.1769758125931618 0 0 1
245 25 4 -0.5484 -0.08068302073367445 2.1204594311845586 3.5303626664607077 0 0 0
307 31 5 0.0798 0.3138248381558891 2.167463528479083 0.13274501727545873 0 0 0
309 31 5 0.0798 23.22730790676231 4.241672722728077 0.549733709166074 -1 0 0
657 60 5 0.0582835 6.158743907607691 0.0908824646697806 0.9766177549039035 1 1 0
941 84 5 0.0582835 6.413049117960325 5.225255355475829 23.0870214389409 0 0 -1
936 84 2 -0.3889835 7.981537560573406 3.8475252771760116 -0.15798293471928465 0 0 0
937 84 3 0.7551165 7.741693800840053 3.4648664190777128 1.1602321838359224 0 0 0
3 1 2 -0.4048 7.291339388582908 7.40352348767233 3.445487120562863 0 0 1
813 73 5 0.0582835 7.902691752446788 5.299812026173261 6.8310513247806135 0 1 1
935 84 1 0.1266165 6.876960122053709 4.350065157972853 22.64101215990963 0 0 -1
1 1 1 0.0955 6.3871731563709 7.937574240646413 1.3686386714989272 0 0 1
399 39 2 -0.3889835 6.4236513144897796 22.830799223200955 6.165926338283059 0 -1 0
719 66 1 0.1266165 4.778546240602046 2.980185356112382 6.503962736081674 0 0 0
727 66 5 0.0582835 5.431671029744869 3.5365963837679053 5.820800727363312 0 0 0
720 66 2 -0.3889835 3.672525625263921 3.798084755989188 7.048389517387877 0 0 0
231 24 1 0.0955 1.466008195281164 0.573454994701916 6.438852827457736 0 0 0
236 24 2 -0.4048 2.6915256192415686 0.7246545160996135 7.341344132029978 0 0 0
725 66 5 0.0582835 5.436304093982446 2.4837905413683723 7.220673183635488 0 0 0
721 66 3 0.7551165 3.972687910035649 4.768256950957079 7.950778976519624 0 0 0
938 84 4 -0.5800835 6.606178062934413 3.5488371801080283 1.6201982914347886 0 0 0
946 84 5 0.0582835 8.14713788267338 3.4898797919340288 3.8835763888433754 0 0 0
939 84 2 -0.3889835 8.858304131393563 3.038167749772037 1.822909555793058 0 0 0
944 84 5 0.0582835 7.8252728698637535 1.7702885255521517 3.2283340174014827 0 0 0
940 84 1 0.1266165 8.537807060345312 2.653566710539979 3.223345696879146 0 0 0
945 84 5 0.0582835 9.35493433392186 2.3043970482737377 3.8361482150705033 0 0 0
64 7 3 0.8478 13.175985740593209 5.34372504761419 1.3751028118141333 0 0 0
806 73 4 -0.5800835 11.419520696482198 5.313043182362528 5.428976798395718 0 1 1
809 73 5 0.0582835 13.773367313395434 6.548808891797804 6.264437509123202 0 1 1
61 7 1 0.0955 11.530103449745111 6.668912167796428 2.2483258512419706 0 0 0
66 7 2 -0.4048 11.883636292207658 5.549004919184048 1.3659164348543777 0 0 0
63 7 2 -0.4048 13.844913762385847 6.227736798953144 2.1758844831168673 0 0 0
323 33 1 0.1266165 13.212376152514125 1.8824292876351219 3.146428211686861 0 1 1
331 33 5 0.0582835 13.768677518189266 1.7560167255693886 2.217476405025776 0 1 1
330 33 5 0.0582835 13.33951082684704 2.87609677121478 3.5873450934229187 0 1 1
329 33 5 0.0582835 12.111039791296482 1.947108529486363 2.844166073223894 0 1 1
65 7 4 -0.5484 13.723481323951074 4.462454195557152 0.699806971182962 0 0 0
62 7 1 0.0955 12.887884246111811 7.113394708816374 2.7877446628705256 0 0 0
70 7 5 0.0798 12.891945651465383 6.933200406722761 3.893003661028937 0 0 0
68 7 5 0.0798 10.884888144175521 6.432745519813212 3.0892993021490773 0 0 0
956 85 5 0.0582835 11.727598483053079 2.183981687341974 5.930916740082955 0 1 0
814 73 5 0.0582835 8.907943412526425 6.078188603642058 5.431751660107305 0 1 1
812 73 5 0.0582835 8.95670774149737 4.344768779850729 5.879997226821563 0 1 1
808 73 1 0.1266165 8.875409440472756 5.357449424694355 6.282579730560948 0 1 1
324 33 2 -0.3889835 13.319425798582415 0.8161691884686956 4.174969532728328 0 1 1
67 7 5 0.0798 11.03787984584771 7.441597419740313 1.6342010918305705 0 0 0
9 1 5 0.0798 8.496222966521039 8.17532197430644 1.8561727798484666 0 0 1
805 73 3 0.7551165 11.181503113345322 5.584352619285801 6.605056478100446 0 1 1
777 70 5 0.0582835 11.138264257114479 3.0279719286625526 23.268070108689592 0 1 -1
69 7 5 0.0798 13.014014506240057 8.166343700508497 2.658873722502696 0 0 0
772 70 1 0.1266165 11.281858085558925 2.0773693520129592 22.801846555320754 0 1 -1
778 70 5 0.0582835 10.419681325132036 1.4154143804554806 23.00207549005274 0 1 -1
593 55 5 0.0582835 14.649618961104606 0.3773862572986541 0.5096512575809967 0 0 0
1065 99 2 -0.58 15.985826043126186 8.39805111377741 4.149338014117435 0 0 1
952 85 1 0.1266165 11.808047927522678 1.3155229418864658 6.6535150498848745 0 1 0
958 85 5 0.0582835 11.40601020079255 0.3506113913636318 6.253149427887153 0 1 0
957 85 5 0.0582835 12.850866753867097 1.1569273044267523 7.031105551248549 0 1 0
803 73 1 0.1266165 13.529003703121264 5.82673031787825 7.046637067153072 0 1 1
950 85 4 -0.5800835 9.213846804409325 1.9284625563168516 6.54320457391845 0 1 0
776 70 5 0.0582835 12.162267977024465 1.5885786424200707 23.158719806490176 0 1 -1
238 24 5 0.0798 1.3556616939031998 23.236115747290103 5.968215832355575 0 -1 0
301 31 1 0.0955 23.08067641783486 2.292701835886906 23.154563047901263 -1 0 -1
195 20 4 -0.5484 21.91356961181912 7.434159029591396 7.337167336283719 -1 0 0
302 31 1 0.0955 22.580332993598038 3.647836389218803 -0.08448038714824116 -1 0 0
393 38 5 0.0582835 16.321161834040762 5.096064580878022 1.6150691654842337 0 0 0
387 38 2 -0.3889835 16.080181032232762 3.7682255882059783 3.2375526102210594 0 0 0
392 38 5 0.0582835 16.028131751081368 3.405432394147689 1.1385319123785604 0 0 0
388 38 1 0.1266165 16.524392456976898 4.042186148487173 1.882660583085245 0 0 0
384 38 2 -0.3889835 15.95974098586496 2.3419073899451694 4.98620442243586 0 0 0
385 38 3 0.7551165 16.393894226544056 2.5038722971623777 3.6931045323957252 0 0 0
394 38 5 0.0582835 17.58215422856738 3.6944146993527247 1.8141090049120028 0 0 0
849 76 5 0.0582835 20.078772804844206 4.665270774780653 5.902168680358359 0 0 0
386 38 4 -0.5800835 16.956649659308287 1.6504131376563278 3.0771598034196033 0 0 0
850 76 5 0.0582835 20.104501119360354 3.910374426229662 4.265126259831 0 0 0
844 76 1 0.1266165 19.847366451957292 3.8208043507359806 5.286890756146783 0 0 0
848 76 5 0.0582835 18.775478822729664 3.7483363907463763 5.373537002883114 0 0 0
843 76 2 -0.3889835 20.491118515978656 2.637890470345657 5.825095176433753 0 0 0
1062 99 4 -0.58 18.450395305018326 5.974003524657792 3.393578664086484 0 0 1
996 90 6 1 18.493021267337244 0.9350330124250017 2.0041400189144505 0 0 0
413 40 5 0.0582835 20.971834542093077 6.740276293159434 3.770897648840725 -1 0 1
306 31 2 -0.4048 22.07348031923068 1.3357412898923857 -0.07439117886764395 -1 0 0
304 31 3 0.8478 21.064391224661655 2.0992502721219832 0.5180072376204676 -1 0 0
305 31 4 -0.5484 20.01016021105238 1.6548906700799817 0.9887832146779453 -1 0 0
219 22 5 0.0798 19.511260087442388 5.929042661161812 0.7136670208273537 -1 0 0
590 55 4 -0.5800835 17.22083983952654 0.3057917897594421 0.19456127500701778 0 0 0
117 12 5 0.0798 17.06308841023338 4.269404717776752 6.789794165139297 0 0 0
1064 99 4 -0.58 16.22825486795232 6.66282570059337 5.5746302617273225 0 0 1
414 40 5 0.0582835 21.948020092215387 5.348290426876034 4.250755141110174 -1 0 1
407 40 1 0.1266165 21.98178430781308 6.326760075961029 3.7536804163169344 -1 0 1
415 40 5 0.0582835 22.594766121748183 6.916373971582778 4.412846617267542 -1 0 1
408 40 2 -0.3889835 22.457179821657043 6.253665472555158 2.4396933363454383 -1 0 1
303 31 2 -0.4048 21.29658388973696 3.451011872201974 0.5547548820450806 -1 0 0
1061 99 3 0.66 17.64396854748248 6.881921931275296 3.5256533663638 0 0 1
1063 99 3 0.66 16.55868880947662 7.246576962444176 4.552327811441678 0 0 1
119 12 5 0.0798 18.233032586724725 6.250970847599885 7.521897405044432 0 0 0
842 76 4 -0.5800835 19.737578578252275 1.3684347584459058 3.996313378790431 0 0 0
841 76 3 0.7551165 20.350484350132014 1.5092870468220452 5.069119988816065 0 0 0
383 38 1 0.1266165 16.1827877693108 1.0660295719409503 5.607823287014325 0 0 0
389 38 5 0.0582835 17.199655031344893 0.7662075290669106 5.583979600514007 0 0 0
390 38 5 0.0582835 15.967752035394772 1.127098843631628 6.658996445140145 0 0 0
1060 99 2 -0.58 17.618415478158763 7.837339316890539 2.604149686441465 0 0 1
840 76 2 -0.3889835 21.04451051997861 0.40542288114745756 5.654407089104723 0 0 0
220 22 5 0.0798 18.185910290807783 6.3918097728513406 -0.1650618138591149 -1 0 0
212 22 1 0.0955 19.122837794602656 5.90944904532353 23.317631060645226 -1 0 -1
589 55 3 0.7551165 16.861847691075905 23.223881647224545 22.87022194999654 0 -1 -1
217 22 5 0.0798 20.84388661166517 6.841774065368681 22.46321560635121 -1 0 -1
459 44 2 -0.3889835 1.511611210171306 7.564001401339778 4.200394279665113 0 0 0
438 42 5 0.0582835 5.853700067402431 7.524763368874023 7.082411776858756 0 0 0
464 44 5 0.0582835 0.8206643578486418 8.322594331466085 6.04717804936953 0 0 0
2 1 1 0.0955 7.534340644992997 8.247642174556262 2.3649050413142287 0 0 1
437 42 5 0.0582835 4.533346822246751 8.165321466737456 6.029327452039507 0 0 0
456 44 2 -0.3889835 2.285583837001893 8.656515277380384 2.349540222885807 0 0 0
457 44 3 0.7551165 2.155421074168999 8.636204320583909 3.743293209301037 0 0 0
8 1 5 0.0798 5.954277021460696 8.815390993828633 0.8594870650776605 0 0 1
462 44 5 0.0582835 3.1093550222273567 9.638828630338063 0.7608552632122297 0 0 0
431 42 1 0.1266165 5.365874915867511 8.46608610582916 6.717469519694786 0 0 0
455 44 1 0.1266165 2.9898261253448397 9.772771438648578 1.8263292914567135 0 0 0
461 44 5 0.0582835 3.9861080787575887 9.85238468933684 2.2823374215654906 0 0 0
458 44 4 -0.5800835 2.5724255049761067 9.509263982643098 4.4899749108149365 0 0 0
463 44 5 0.0582835 2.421345587029588 10.64724898101854 2.0362307356559493 0 0 0
433 42 3 0.7551165 6.060381044710793 10.353554780071162 5.445976385326528 0 0 0
995 89 6 1 2.996582793990893 11.52426970560401 5.640778075501328 0 0 0
434 42 4 -0.5800835 4.965233539936884 10.841645920997188 5.51227280487174 0 0 0
440 42 5 0.0582835 6.331424711345657 12.814353746136284 4.974681778663814 0 0 0
285 29 4 -0.5484 0.9414352450219124 11.856142190695966 5.38382543116683 0 0 0
442 42 5 0.0582835 5.997073576710934 11.971644188673906 3.2767901684615115 0 0 0
436 42 1 0.1266165 6.668160185255892 12.196547215824499 4.154175372240222 0 0 0
1012 95 4 -0.58 3.52988030388688 13.34927526219884 5.22712764317649 0 0 0
1011 95 3 0.66 3.35722864190416 14.519060995992202 4.830736909548994 0 0 0
1013 95 2 -0.58 2.149240164672631 15.151315535144198 4.882175835338051 0 0 0
439 42 5 0.0582835 4.974144588166669 9.099858574199995 7.583315015721701 0 0 0
686 63 4 -0.5800835 2.4238116491979222 10.93754033963645 7.606327841691214 0 0 0
435 42 2 -0.3889835 7.053183179564656 10.95135897575972 4.771044860950962 0 0 0
432 42 2 -0.3889835 6.393344007728777 9.126989430385938 6.022992663798312 0 0 0
1010 95 4 -0.58 5.514273194132851 15.421325503658078 4.024954613266358 0 0 0
1009 95 3 0.66 4.334885770835793 15.508324214864265 4.2574252652764315 0 0 0
508 48 1 0.1266165 3.844497456103197 14.644461558793983 0.6596558407909645 1 0 1
513 48 5 0.0582835 4.868780286479894 14.948342109303077 0.5335763485494192 1 0 1
512 48 5 0.0582835 3.9069386151960988 13.813524826490974 1.3255087320890706 1 0 1
694 63 5 0.0582835 0.5753109751470301 9.050870683732086 8.142464758216834 0 0 0
693 63 5 0.0582835 -0.11777446381872672 10.527503320729329 7.500705567444126 0 0 0
283 29 2 -0.4048 0.8192223611713549 12.830565968805931 3.351089869424947 0 0 0
418 40 5 0.0582835 0.35570564795378873 8.989735035763417 -0.1269304295820277 0 0 1
411 40 2 -0.3889835 23.114372242398687 7.13808470297162 0.35098139912583726 -1 0 1
412 40 1 0.1266165 23.304700254177934 8.267020163104435 23.068642047688247 -1 0 0
10 1 5 0.0798 7.3728250233871755 9.292064844283669 2.637733669039372 0 0 1
284 29 3 0.8478 0.28471819352258226 12.454041294755351 4.5452197830979895 0 0 0
416 40 5 0.0582835 0.10462928853637256 7.969538089492478 22.113600777146463 0 0 0
506 48 4 -0.5800835 1.3152764718359298 13.938096699992027 0.11849223302266912 1 0 1
931 83 5 0.0582835 14.15971154929784 8.519978871911919 7.723416398516792 0 0 0
441 42 5 0.0582835 7.576986993216979 12.684412767135962 3.7787908164523993 0 0 0
926 83 4 -0.5800835 12.013249303439538 8.883302046668996 6.446840225045807 0 0 0
488 46 5 0.0582835 9.177470492967846 12.982661002007543 5.244449579358726 0 0 0
484 46 1 0.1266165 9.863884141243265 13.703249130188965 5.635326763267958 0 0 0
483 46 2 -0.3889835 11.1421025308175 13.203026999737823 6.20633579491529 0 0 0
490 46 5 0.0582835 10.028853034752217 14.475228399433353 4.8654872335295485 0 0 0
741 67 5 0.0582835 10.426044254374114 10.49235167564709 3.248985373238319 0 0 0
481 46 3 0.7551165 12.094683750077431 12.688138653318106 5.341128188021376 0 0 0
482 46 4 -0.5800835 11.828406826384235 12.709132381076865 4.17761373125083 0 0 0
480 46 2 -0.3889835 13.30732125682176 12.201928449723889 5.805266178018181 0 0 0
1054 99 3 0.66 15.30355274877002 10.076842350174756 1.5205816993339067 0 0 1
736 67 1 0.1266165 10.633298435867875 10.804342502144625 2.15797708060803 0 0 0
740 67 5 0.0582835 10.294829767806126 11.861547845243052 2.0475290893227514 0 0 0
742 67 5 0.0582835 11.683356697459372 10.7529005031224 1.8888031207614997 0 0 0
479 46 1 0.1266165 14.22412556580065 11.689609483781163 4.759684965080946 0 0 0
485 46 5 0.0582835 14.263231102690202 12.530933972087654 4.060307446572908 0 0 0
487 46 5 0.0582835 13.767623779662973 10.828084819532847 4.251918740757058 0 0 0
489 46 5 0.0582835 9.186197121420143 14.070283283026582 6.460775188882173 0 0 0
1053 99 4 -0.58 14.449614163488985 10.480852603583042 0.7045354766111648 0 0 1
934 83 5 0.0582835 9.565209417010369 9.833358878130067 6.079708331679894 0 0 0
1055 99 2 -0.58 15.526345453888446 8.854069874847854 1.9072289011739185 0 0 1
735 67 2 -0.3889835 9.807220903458582 9.964733908577257 1.198851377981702 0 0 0
929 83 5 0.0582835 14.389691709923618 10.00893918220551 6.953027077797224 0 0 0
573 53 5 0.0582835 13.8830575767461 14.777879722071836 1.2989279924110182 0 0 1
574 53 5 0.0582835 13.19783202841339 13.048988399103955 1.2871687398111806 0 0 1
928 83 1 0.1266165 9.39574184308582 9.46135238742167 7.135556037679804 0 0 0
932 83 5 0.0582835 9.432954613326947 8.338475614869946 7.106666257744351 0 0 0
925 83 3 0.7551165 11.78069127700795 9.552283695730123 7.447457695800529 0 0 0
923 83 1 0.1266165 14.110417671409857 9.65728013508754 7.888787100256099 0 0 0
930 83 5 0.0582835 14.830818205806926 9.953059739948586 8.67962301214 0 0 0
572 53 5 0.0582835 14.924113187704192 13.492951417898809 0.72412393309811 0 0 1
568 53 1 0.1266165 13.855074742424707 13.845415767645278 0.7522989445336643 0 0 1
733 67 3 0.7551165 9.910329051512072 10.303797791267788 -0.12540297053903504 0 0 0
97 10 5 0.0798 10.773779411174123 15.15037672994726 -0.06973407500481796 0 0 0
409 40 3 0.7551165 22.613551784536664 7.365939450740678 1.699281130613019 -1 0 1
290 29 5 0.0798 -0.032392677893868446 14.377663978250865 2.106880549334242 0 0 0
486 46 5 0.0582835 15.177405186262806 11.494621955198063 5.156883236259479 0 0 0
1059 99 4 -0.58 16.544196008565063 12.183502980232321 2.167308919599761 0 0 1
1058 99 3 0.66 16.353343943828136 10.973100847851859 2.2454350763961477 0 0 1
410 40 4 -0.5800835 22.373441928010173 8.544255127584412 1.9930816569802905 -1 0 1
1057 99 2 -0.58 17.10339699094171 10.154847463219161 3.0055464078813543 0 0 1
282 29 1 0.0955 23.31077149735153 13.501701843243346 2.6725889868489987 -1 0 0
289 29 5 0.0798 23.059763307353023 12.847289761971258 1.814242864397687 -1 0 0
1056 99 7 1 16.633613246807634 8.807619792129383 2.8822286765734493 0 0 1
286 29 2 -0.4048 22.61856980755536 12.816104313823011 4.709365978835162 -1 0 0
281 29 1 0.0955 22.1541785861356 13.506728454371375 3.5362377738096327 -1 0 0
288 29 5 0.0798 22.095967180648262 14.509316140222282 3.850835906754788 -1 0 0
287 29 5 0.0798 21.202682056277883 13.29843669669089 3.038050231707 -1 0 0
12 2 1 0.0955 20.276737713111647 9.908501450841054 4.7772820908454765 0 0 0
19 2 5 0.0798 19.909405735913627 10.103883225511881 3.7714728333195113 0 0 0
11 2 1 0.0955 20.181637620867576 11.252925654177552 5.595071335492343 0 0 0
800 72 5 0.0582835 20.005890430223523 9.649406674213308 1.5665489436516526 0 0 0
20 2 5 0.0798 21.325788448268575 9.54227309816054 4.690740712949447 0 0 0
14 2 3 0.8478 18.595670719186327 9.836622702640108 6.427540817240695 0 0 0
17 2 5 0.0798 20.063505043344108 12.186031474823809 4.945154294462931 0 0 0
16 2 2 -0.4048 19.06831447631761 11.053194736526395 6.5837198922356786 0 0 0
18 2 5 0.0798 21.081116684463364 11.414551437954275 6.321598235654487 0 0 0
863 78 1 0.1266165 17.159915146683563 15.420846009697394 1.9760193391141736 0 0 0
870 78 5 0.0582835 16.539031855710398 15.259556893217699 1.0813882660467093 0 0 0
866 78 4 -0.5800835 18.20340751088112 15.502579389775818 4.410495468843579 0 0 0
869 78 5 0.0582835 18.17305780974284 14.955782274616448 1.9453749929980344 0 0 0
874 78 5 0.0582835 18.088937971399368 14.169056211822369 6.571208335925145 0 0 0
13 2 2 -0.4048 19.200525801535903 9.09467415832225 5.457814172935511 0 0 0
865 78 3 0.7551165 17.099321834125835 14.95024447821067 4.324903963630415 0 0 0
864 78 2 -0.3889835 16.475086806525923 14.878972019465545 3.1332845168098444 0 0 0
871 78 5 0.0582835 17.189368175199416 16.448815819900247 2.1672290704387205 0 0 0
268 27 5 0.0798 23.31623719547775 16.355875788751867 0.2800510386889774 -1 0 1
15 2 4 -0.5484 17.704508350578546 9.361203163148717 7.075736436071891 0 0 0
796 72 1 0.1266165 19.53599026400235 9.68175382741752 0.5924960134288848 0 0 0
801 72 5 0.0582835 18.798257124465778 8.877561686733388 0.607279896327923 0 0 0
795 72 2 -0.3889835 18.944015100503652 10.92588211724177 0.2811154520892912 0 0 0
658 60 5 0.0582835 5.664475982977154 0.4147290272643338 2.8114806404492 1 1 0
652 60 1 0.1266165 5.4824796286787745 -0.1353192022872243 1.7960290493100717 1 1 0
651 60 2 -0.3889835 4.093744117558784 0.023808518929464645 1.422552658687325 1 1 0
648 60 2 -0.3889835 1.832207419291602 23.198842505868658 1.9884441511282345 1 0 0
649 60 3 0.7551165 3.189485410110625 23.078746602500697 2.2650433943776376 1 0 0
653 60 5 0.0582835 1.209877418041017 22.804813759869443 3.952865948443812 1 0 0
789 71 5 0.0582835 1.5194806075745273 16.297358750275137 7.769504460799995 0 0 0
514 48 5 0.0582835 3.2174672067866092 15.43782894199206 1.1063585674979446 1 0 1
650 60 4 -0.5800835 3.5697861092193697 22.48173613482411 3.280099708115051 1 0 0
656 60 5 0.0582835 5.738881795993092 22.470479135447977 1.878274909327983 1 0 0
647 60 1 0.1266165 0.939064735043044 22.574357548089655 2.947149472888859 1 0 0
1008 95 2 -0.58 3.578371091442044 16.640386844445416 4.010443063271124 0 0 0
1004 95 7 1 2.1991521387985538 16.500917969447237 4.369257263109139 0 0 0
1005 95 2 -0.58 2.045687612798391 17.665137242480736 5.35402062621113 0 0 0
1003 95 2 -0.58 1.4509542042523318 16.920013624560436 3.207495002025932 0 0 0
838 75 5 0.0582835 3.340359136364442 19.67583189453615 1.16769891599306 0 0 0
831 75 2 -0.3889835 5.416242114521823 19.688845896209408 1.3937201860029478 0 0 0
837 75 5 0.0582835 3.843116298650062 19.601014096315822 2.9841387800698564 0 0 0
832 75 1 0.1266165 4.077880052279027 19.315640288510416 1.9024369758442528 0 0 0
836 75 5 0.0582835 3.9967361059940587 18.205300452546144 1.8681523821509105 0 0 0
829 75 3 0.7551165 5.664446893755206 19.217630457354563 0.10310312535615562 0 0 0
1002 95 3 0.66 0.8763671524675146 18.141425024962242 3.3834802102747243 0 0 0
1006 95 3 0.66 1.2631228793886455 18.620573572071226 4.78540621191012 0 0 0
1001 95 4 -0.58 0.1856233306219427 18.728287319875385 2.56297156802607 0 0 0
655 60 5 0.0582835 1.0176199878046723 21.49110872501093 2.7489155187828955 1 0 0
27 3 5 0.0798 7.34706666712355 16.594822043564786 1.7143241856535556 0 0 1
642 59 5 0.0582835 5.0740456081312395 20.65207425499666 5.837796107830755 0 -1 0
635 59 1 0.1266165 5.341820206000547 19.614091639360154 5.994355931712297 0 -1 0
641 59 5 0.0582835 4.874727205983439 18.98624611665021 5.211007744805788 0 -1 0
29 3 5 0.0798 6.533294801288824 17.781405120687474 3.349477889671008 0 0 1
1007 95 4 -0.58 0.9599451614287 19.70573723483759 5.3476557383937235 0 0 0
636 59 2 -0.3889835 5.067416535989744 19.157221706181186 7.340320967792085 0 -1 0
643 59 5 0.0582835 6.375363740194262 19.65474551426738 5.783509677947228 0 -1 0
400 39 1 0.1266165 6.135129539167885 22.621731312687345 7.585141199363237 0 -1 0
30 3 5 0.0798 7.523125719447343 16.924005433867343 4.514660959049958 0 0 1
397 39 3 0.7551165 7.744338297788501 22.632441597765876 5.811416651231513 0 -1 0
22 3 1 0.0955 7.5324394054334025 17.535846077155885 3.5955637940735405 0 0 1
396 39 2 -0.3889835 8.068929837637594 22.816910793560297 4.517209028180802 0 -1 0
638 59 4 -0.5800835 6.157931237995195 17.18026477488835 6.78205437668884 0 -1 0
637 59 3 0.7551165 5.554952972499537 17.863020514463017 7.621417855577003 0 -1 0
965 86 5 0.0582835 1.619302303951074 20.906317268906232 7.920044677467056 0 -1 0
270 27 5 0.0798 1.6467052541071845 16.74579828171831 23.00299106399975 0 0 0
326 33 4 -0.5800835 12.55199328657609 22.778619475772008 2.7389874298575534 0 0 1
325 33 3 0.7551165 12.96464280016563 23.155624603805673 3.819052929006903 0 0 1
401 39 5 0.0582835 9.65385877287249 21.506715622412518 4.4589408741611996 0 -1 0
403 39 5 0.0582835 10.207478703607345 23.28125199632638 4.7675114050568155 0 -1 0
25 3 4 -0.5484 10.18365177559792 19.696914334942814 2.6792146285054215 0 0 1
26 3 2 -0.4048 9.210228959676824 17.776648008513565 1.9430262233993765 0 0 1
666 61 5 0.0582835 13.891883194365363 15.933138124829146 3.6296125874473053 -1 0 1
21 3 1 0.0955 8.115732823667614 16.922979190947206 2.393612459875477 0 0 1
28 3 5 0.0798 8.70007501976974 16.062171970670974 2.8282462578319563 0 0 1
659 61 1 0.1266165 13.653784545475574 16.099361853484563 4.712331749241926 -1 0 1
667 61 5 0.0582835 14.418637101120858 16.65194941517871 5.265635973067241 -1 0 1
24 3 3 0.8478 9.323630237853513 18.86549566226966 2.849666337530256 0 0 1
660 61 2 -0.3889835 12.305900951269553 16.59904520051435 4.79195945423201 -1 0 1
594 55 5 0.0582835 13.643398244793342 22.733675267361512 -0.10022601022927177 0 -1 0
665 61 5 0.0582835 13.743951032325544 15.160797998513408 5.288921638547945 -1 0 1
663 61 2 -0.3889835 10.411197987893642 17.118805872821344 6.036912950894936 -1 0 1
23 3 2 -0.4048 8.364341874145095 18.738940876073933 3.8079380889871848 0 0 1
661 61 3 0.7551165 11.680937925200825 16.617437575117687 6.0287672312115435 -1 0 1
583 54 5 0.0582835 14.363613005499381 18.070998246142718 1.820125827158895 0 -1 0
398 39 4 -0.5800835 8.575482440094449 22.320248054688093 6.666490536730011 0 -1 0
327 33 2 -0.3889835 13.142670340350941 22.280027558870763 4.895702635359469 0 0 1
582 54 5 0.0582835 13.168768062208 19.264194980846877 1.6037791773409693 0 -1 0
575 54 1 0.1266165 14.045369361202305 18.799071083654336 1.134286660280918 0 -1 0
334 33 5 0.0582835 13.365363320365113 20.47867305388013 3.879335127396453 0 0 1
328 33 1 0.1266165 12.810208311248882 20.898407805130518 4.689841703664637 0 0 1
332 33 5 0.0582835 12.888277966667758 20.338161286198645 5.643314393033773 0 0 1
333 33 5 0.0582835 11.736066719085722 20.88691327462342 4.384512451530512 0 0 1
395 39 1 0.1266165 9.499734570682783 22.6074715547226 4.194112358241449 0 -1 0
402 39 5 0.0582835 9.635553260810545 22.78627897002324 3.090729090631728 0 -1 0
662 61 4 -0.5800835 12.274261446338471 16.238883525173918 7.014130040384301 -1 0 1
670 61 5 0.0582835 10.260912218245693 17.942621096143633 7.879931355114842 -1 0 1
664 61 1 0.1266165 9.760532248498397 17.166965490960564 7.318990260127007 -1 0 1
882 79 5 0.0582835 16.04556723647208 18.42860949886852 7.169159104663257 0 -1 0
993 88 5 0.0582835 9.80997603231472 22.111589281005354 1.269580025468565 0 -1 0
581 54 5 0.0582835 14.797088209123817 19.58803298342967 0.9697560084256441 0 -1 0
988 88 1 0.1266165 9.664962615819604 21.930814775925842 0.16506021837945412 0 -1 0
587 55 1 0.1266165 14.641716604991139 22.968427071928524 0.23361035755876494 0 -1 0
668 61 5 0.0582835 8.757955996314735 17.511717829844482 7.27737862238884 -1 0 1
654 60 5 0.0582835 -0.11247244570835696 22.88804253329252 2.776701977440436 1 0 0
525 49 5 0.0582835 20.22007226865319 15.907016926763426 6.677487217599052 0 0 0
868 78 1 0.1266165 17.122302211832743 14.546160893784046 6.739193042103065 0 0 0
872 78 5 0.0582835 17.32319460549109 15.567874036494777 6.987606007474815 0 0 0
1051 98 4 -0.58 21.496752314136796 16.147240970764027 2.0458984588461706 -1 0 0
883 79 5 0.0582835 16.654408852392258 19.975269436754324 7.411699171180416 0 -1 0
875 79 1 0.1266165 16.894059744951083 19.02407539939378 6.841361985594388 0 -1 0
595 55 5 0.0582835 14.985697081983474 22.350989549639333 1.06370696294922 0 -1 0
391 38 5 0.0582835 15.577152913214084 0.2967441501421631 5.110499268998863 0 0 0
881 79 5 0.0582835 16.87885156097382 19.278406430200352 5.753976525611082 0 -1 0
867 78 2 -0.3889835 16.464743583464003 14.453209790122541 5.427990201620324 0 0 0
1046 98 4 -0.58 16.716464826712635 20.741899441296685 3.0422508495872145 -1 0 0
839 76 1 0.1266165 20.97992955514107 22.76288917784098 4.957736484038732 0 -1 0
847 76 5 0.0582835 19.95078172086568 22.43969519651575 4.865146306575753 0 -1 0
846 76 5 0.0582835 21.515260573272204 22.14090681971605 5.620874721016987 0 -1 0
845 76 5 0.0582835 21.362492155492088 22.89283275854277 3.839842219925694 0 -1 0
877 79 3 0.7551165 19.17306825590337 19.413013474820495 7.0957165936686515 0 -1 0
1049 98 4 -0.58 21.921721671763176 16.941998446306936 4.88853970415411 -1 0 0
878 79 4 -0.5800835 18.947033241040867 20.507333445079368 6.563590397824971 0 -1 0
1040 98 4 -0.58 19.054762710915217 22.448831564380747 2.2144777617783964 -1 0 0
1045 98 3 0.66 17.905841624345797 20.417567115099125 2.9724643367055874 -1 0 0
1044 98 2 -0.58 18.404587515991402 19.21350914247345 3.257578510066009 -1 0 0
1041 98 3 0.66 19.057227038631588 21.247475867801942 2.563068740117034 -1 0 0
1042 98 2 -0.58 20.1961442309984 20.500247173804475 2.646912410154656 -1 0 0
1043 98 7 1 19.873785739927236 19.1179530442429 3.0937263789581193 -1 0 0
1052 98 2 -0.58 20.132099062179343 18.180540012735225 2.0779022564048826 -1 0 0
1050 98 3 0.66 21.012016828153932 17.163628469124408 2.605241646271258 -1 0 0
1047 98 2 -0.58 20.56484336834095 18.655225374478835 4.237708978211784 -1 0 0
1048 98 3 0.66 21.239318107842944 17.55139222542113 4.015020471784969 -1 0 0
886 79 5 0.0582835 21.731876210959115 19.988319105224765 6.270432481904372 0 -1 0
876 79 2 -0.3889835 18.16087303093545 18.515805288247552 7.306420016930019 0 -1 0
753 68 5 0.0582835 22.6214309414238 21.092797172759262 1.4005208159329303 0 0 0
714 65 5 0.0582835 19.300720719479127 18.637980321901836 23.174732038950822 0 0 0
267 27 5 0.0798 22.805051101644143 18.12350670980285 0.19930563159873743 -1 0 1
588 55 2 -0.3889835 15.604001982942753 22.67837703163133 22.726683947127466 0 -1 -1
752 68 5 0.0582835 21.45641652818898 22.081941637094555 0.539985771298951 0 0 0
239 24 5 0.0798 23.074259947016497 1.6758458830660152 6.844432013790593 -1 0 0
404 39 5 0.0582835 4.998203043466355 22.726554101025556 7.710975110727402 0 -1 0
232 24 1 0.0955 0.3197958870306268 1.1025844395270916 7.26600945507657 0 0 0
234 24 3 0.8478 2.3118936034606836 1.2993148026346177 8.526855998453444 0 0 0
235 24 4 -0.5484 2.937761032055394 1.5996571732426057 9.517545266711691 0 0 0
722 66 4 -0.5800835 5.092729502201409 5.052826320062388 8.359952352722216 0 0 0
723 66 2 -0.3889835 2.803415756067139 5.394621498369025 8.320836848703205 0 0 0
729 66 5 0.0582835 3.2862555269075 6.063138356643225 10.211770671019838 0 0 0
854 77 4 -0.5800835 7.065749247992473 3.584753779201005 12.200853409730541 0 0 0
233 24 2 -0.4048 0.9707876830163258 1.5308742627490757 8.525434566480875 0 0 0
853 77 3 0.7551165 6.30107563301966 3.4140393335842396 13.14300418734557 0 0 0
859 77 5 0.0582835 4.852329346623729 4.609656346272731 11.100288919729696 0 0 0
857 77 5 0.0582835 4.812568478556484 2.865108523413261 10.89643237079073 0 0 0
851 77 1 0.1266165 4.47295739623554 3.627294801743842 11.56777320030468 0 0 0
858 77 5 0.0582835 3.3635598730806193 3.5502606311714 11.57953974074908 0 0 0
852 77 2 -0.3889835 5.012050025926639 3.414703832622269 12.995384478793982 0 0 0
953 85 5 0.0582835 7.221308587660522 1.792642527837162 8.353638422636719 0 1 0
468 45 2 -0.3889835 1.6439714046545093 4.422169103290594 13.845543884256745 0 0 0
469 45 3 0.7551165 2.5366262965763813 5.223987428507561 14.480161978924293 0 0 0
467 45 1 0.1266165 1.8000250634895028 3.004770074581842 14.080211839096012 0 0 0
724 66 1 0.1266165 2.982893099636131 6.479347457443618 9.269491063391262 0 0 0
471 45 2 -0.3889835 2.4366160753648174 6.589779571613941 14.263263883922138 0 0 0
954 85 5 0.0582835 7.264902897735019 2.759744363078812 9.768069409755485 0 1 0
531 50 2 -0.3889835 7.884671963407045 -0.02807128122744877 11.02681021775289 0 1 0
728 66 5 0.0582835 2.0514381453267525 7.0007573473064895 9.445635793660978 0 0 0
357 35 5 0.0582835 4.521938968269107 0.601122944083821 13.662253988775964 1 0 0
475 45 5 0.0582835 2.876481975614072 2.684004081523422 13.972898471676839 0 0 0
955 85 5 0.0582835 7.771421974770573 3.4935289643835867 8.184454885495203 0 1 0
947 85 1 0.1266165 7.787535819325636 2.5888754230231545 8.77097834602253 0 1 0
474 45 5 0.0582835 1.1205870875956117 2.601527293613802 13.496152489829502 0 0 0
473 45 5 0.0582835 1.5376907279095355 2.7491934270860234 15.118895807380644 0 0 0
730 66 5 0.0582835 3.6592791856459486 7.187029607268295 8.820824451903022 0 0 0
48 5 5 0.0798 7.2579699155978945 6.026748602415481 12.725078733962878 1 0 0
352 35 1 0.1266165 4.051375390143824 23.225867611625194 13.60341772203907 1 -1 0
351 35 2 -0.3889835 2.6547411126076703 23.346708800350886 13.939800222266248 1 -1 0
356 35 5 0.0582835 4.221824337013168 22.76621792075954 12.684106147928029 1 -1 0
855 77 2 -0.3889835 6.738223889271989 3.215996975307485 14.448249690969115 0 0 0
406 39 5 0.0582835 6.7608248943444105 23.323353619294064 8.246968768839396 0 -1 0
537 50 5 0.0582835 9.537737588736938 1.2591041674871664 11.904537138151353 0 1 0
532 50 1 0.1266165 9.150899659161567 0.23001830815417085 11.880093199709869 0 1 0
536 50 5 0.0582835 9.965430924634788 23.167773034306755 11.527273584043595 0 0 0
811 73 5 0.0582835 13.943880762717448 4.923305956384139 6.724773508901759 0 1 1
951 85 2 -0.3889835 11.071428461190502 1.6415211583366622 7.836646285390959 0 1 0
50 5 5 0.0798 8.654586993623358 7.239231954664282 11.325127404214767 1 0 0
810 73 5 0.0582835 14.24929025739281 6.073671162941938 7.833712958487823 0 1 1
804 73 2 -0.3889835 12.182764773149495 5.857403956149044 7.513231557069141 0 1 1
807 73 2 -0.3889835 9.932763576047108 5.64268157912333 7.151571472408915 0 1 1
948 85 2 -0.3889835 9.118718654092998 2.2601565593241517 8.855139049495524 0 1 0
949 85 3 0.7551165 9.749822240697057 1.9296307813423916 7.620329182639532 0 1 0
361 36 3 0.7551165 13.577055044083657 2.0033426783299375 12.507472046279668 0 1 0
103 11 2 -0.4048 10.547749419541958 4.693848908652987 12.864022440210665 0 0 0
102 11 1 0.0955 10.741173184787495 4.253730778176822 11.539522440826596 0 0 0
107 11 5 0.0798 10.81860662326267 5.7325317911761 10.024955897467814 0 0 0
101 11 1 0.0955 11.418385627783476 5.448763334544938 10.8765142403588 0 0 0
110 11 5 0.0798 11.253786921906302 3.3003989924559565 11.384846501647857 0 0 0
108 11 5 0.0798 12.451645853221944 5.038425383995326 10.566492429677869 0 0 0
106 11 2 -0.4048 11.543421001391463 6.40133597615164 11.839422801759868 0 0 0
104 11 3 0.8478 11.00582721164934 5.9482779524480325 13.013909006453675 0 0 0
109 11 5 0.0798 9.74065819898991 4.150724549584956 11.15434095886495 0 0 0
105 11 4 -0.5484 10.9867820963807 6.580413820286453 14.073640096761633 0 0 0
362 36 4 -0.5800835 12.851094389933586 1.3382497253204508 11.80128952947412 0 1 0
359 36 1 0.1266165 12.016892245890093 1.758488230725611 14.259926957755548 0 1 0
360 36 2 -0.3889835 13.268232538701236 2.3017954717489055 13.807851746532396 0 1 0
1027 97 4 -0.58 15.19238996975408 5.782813338202582 14.322711501600761 0 0 0
367 36 5 0.0582835 11.213208775530537 2.13886793811624 13.541810838190534 0 1 0
1033 97 4 -0.58 15.435790631013198 6.33025518131474 11.330217205440038 0 0 0
363 36 2 -0.3889835 14.75676345636951 2.50946505113732 11.996813087893015 0 1 0
538 50 5 0.0582835 8.946583414457045 0.033394853488670134 12.967538785289756 0 1 0
365 36 5 0.0582835 12.03166919167098 0.6419715615355582 14.274407488447101 0 1 0
370 36 5 0.0582835 14.210186599749585 2.453746929822687 9.89629040428525 0 1 0
369 36 5 0.0582835 15.084394444633478 0.9841391477034998 10.565879019675107 0 1 0
364 36 1 0.1266165 15.009364926227988 2.1590421473907466 10.603185414256544 0 1 0
1028 97 3 0.66 16.03247779296748 5.329990370927692 13.532944857086745 0 0 0
368 36 5 0.0582835 15.99042938885007 2.603810909330929 10.354250892623845 0 1 0
856 77 1 0.1266165 8.161988608678797 3.217053227582895 14.701240210541513 0 0 0
860 77 5 0.0582835 8.543340069861792 4.159963751189771 14.674114462330605 0 0 0
862 77 5 0.0582835 8.718928098310355 2.524891352777595 14.072015801168126 0 0 0
240 24 5 0.0798 23.40191162290548 0.21732669510038022 7.682081066385567 -1 0 0
111 12 1 0.0955 16.944066244913643 4.448628367975249 7.880869095134998 0 0 0
118 12 5 0.0798 15.847735979682344 4.6690442621419175 8.030794488874045 0 0 0
112 12 1 0.0955 17.948122123559823 5.557423234158207 8.26738463133595 0 0 0
120 12 5 0.0798 17.476214540679777 6.13590148377532 9.094127896120415 0 0 0
199 20 5 0.0798 0.21374812187465572 3.974270723926968 8.797905179703992 0 0 0
90 9 5 0.0798 15.795826718367604 2.1737274938376614 14.457524604119284 -1 0 -1
82 9 1 0.0955 16.14992532423246 1.367774384034006 15.041909766738392 -1 0 -1
89 9 5 0.0798 17.009059677766455 1.7281998014815096 15.582917902742878 -1 0 -1
116 12 2 -0.4048 17.513712681279692 3.23840763803212 8.506274004307512 0 0 0
969 86 5 0.0582835 23.37914287115284 0.5627707940454784 12.375824268994597 -1 0 0
964 86 1 0.1266165 23.177373998899537 -0.06568580746500759 11.596992266356006 -1 0 0
194 20 3 0.8478 22.13112861569909 6.470622575635954 8.042049861438727 -1 0 0
192 20 1 0.0955 22.77073753599817 4.350039726630471 8.675613075575564 -1 0 0
193 20 2 -0.4048 22.605097500782538 5.277860872276384 7.570173427643866 -1 0 0
197 20 5 0.0798 23.25624298649634 5.183491728533786 10.502505485834565 -1 0 0
81 9 1 0.0955 16.568119899375947 0.1722398412458592 14.302673404317938 -1 0 -1
970 86 5 0.0582835 22.943984907982294 0.5679054382066577 10.772680737344924 -1 0 0
1032 97 3 0.66 16.16038682042299 5.605304232017168 12.059744598058913 0 0 0
113 12 2 -0.4048 18.98094450230564 4.853984611942596 9.024609929254503 0 0 0
114 12 3 0.8478 18.65429237639672 3.5446971916232357 9.132855679189769 0 0 0
115 12 4 -0.5484 19.394348371663128 2.739616380281808 9.721227470321518 0 0 0
501 47 5 0.0582835 21.259210108980557 0.8593548859984881 14.520607622073385 -1 0 0
200 20 5 0.0798 22.146033668509553 3.5469799801375905 8.524984485947758 -1 0 0
198 20 5 0.0798 21.640714883704458 4.689845326877722 10.443406942770814 -1 0 0
191 20 1 0.0955 22.388582191252357 5.141179907672786 9.885756176713196 -1 0 0
1031 97 2 -0.58 17.22387443448871 4.851605943661706 11.696462753083363 0 0 0
1029 97 2 -0.58 17.00731179408639 4.512120881045314 13.8629691141596 0 0 0
1034 97 2 -0.58 17.80641021626235 2.611513883822355 12.572271705479626 0 0 0
1035 97 3 0.66 19.07260460824492 2.12477535784972 12.70707378559607 0 0 0
1037 97 3 0.66 19.98730782174663 3.3265532841154286 12.952122267966914 0 0 0
1038 97 4 -0.58 21.203647448391695 3.407830252997894 13.115524532677316 0 0 0
1039 97 2 -0.58 19.281276091669472 4.3635024603307775 12.977651654076928 0 0 0
1030 97 7 1 17.874485908008438 4.070375723347606 12.745360902165103 0 0 0
1036 97 4 -0.58 19.371553428460732 0.9363478412000796 12.623883876250302 0 0 0
128 13 5 0.0798 19.91329795250857 0.6630036941184597 8.043998600690776 0 1 -1
196 20 2 -0.4048 21.98645576601257 6.476891435010863 9.397028382035764 -1 0 0
317 32 5 0.0582835 22.52072137024412 6.105800033198178 12.984269567577696 0 0 -1
763 69 5 0.0582835 18.881233403539714 7.674847742567423 10.07790070421545 0 0 0
762 69 5 0.0582835 20.13648280971569 8.730498170992348 9.494389980099562 0 0 0
87 9 5 0.0798 17.65294374156735 -0.14757735162811914 14.494289586717406 -1 0 -1
126 13 2 -0.4048 17.857273432370693 23.346583006422225 7.856158255533329 0 0 -1
689 63 5 0.0582835 3.964255716609784 13.034628822663112 8.37218427562304 0 0 0
688 63 1 0.1266165 0.017104780164007703 9.953744977305655 8.394772719297316 0 0 0
691 63 5 0.0582835 4.668649983360581 11.445654487301217 8.88188560655131 0 0 0
685 63 3 0.7551165 2.0796894407986355 11.133367366334205 8.763512871694973 0 0 0
683 63 1 0.1266165 4.05346974035947 12.30499415485326 9.208410998436745 0 0 0
476 45 5 0.0582835 3.1015772059842974 8.471013316251597 14.651068895349782 0 0 0
45 5 4 -0.5484 5.3016679825713515 8.673259825262287 10.132507177061331 1 0 0
44 5 3 0.8478 6.103753109793615 8.221751822313728 10.886512426462218 1 0 0
46 5 2 -0.4048 5.874287171071119 7.334499601023083 11.791875417149646 1 0 0
690 63 5 0.0582835 4.637507484385487 12.806751033335312 10.017509975382497 0 0 0
684 63 2 -0.3889835 2.8426800489162187 11.847751107856334 9.659703710290447 0 0 0
320 32 5 0.0582835 1.4536452890299905 10.49866959378416 11.704119408822287 1 0 -1
322 32 5 0.0582835 2.6365478616232743 9.292820361051978 11.893807572148516 1 0 -1
687 63 2 -0.3889835 0.8860238739917528 10.699784262854164 9.299418734791137 0 0 0
1077 100 4 -0.58 5.156199858594625 11.477314048122697 14.192572113242381 0 0 0
790 71 5 0.0582835 0.33739076839098875 15.228895931055773 8.378886086356408 0 0 0
783 71 2 -0.3889835 2.159547363042459 15.465932665376464 9.600981154293612 0 0 0
781 71 3 0.7551165 1.8073457659997518 15.01796084664829 10.819221656268768 0 0 0
321 32 5 0.0582835 2.6453465652039143 10.805844320861246 12.965826941518909 1 0 -1
316 32 1 0.1266165 2.0429059384958945 9.992808525960987 12.440884066819653 1 0 -1
315 32 2 -0.3889835 1.242581315490697 9.345273954912399 13.45473318711641 1 0 -1
1076 100 3 0.66 5.513429404693937 11.86578881546547 15.294316055166453 0 0 0
1078 100 2 -0.58 6.658222004005696 12.471600405746566 15.517289141989107 0 0 0
782 71 4 -0.5800835 0.6434192435291949 14.992861220771452 11.125613881330883 0 0 0
785 71 5 0.0582835 1.5426795331049312 13.311989048319461 12.81363285781431 0 0 0
918 82 5 0.0582835 6.046928426394842 14.274694912283818 12.956350999134843 0 0 0
780 71 2 -0.3889835 2.7809126622522253 14.588847983692732 11.691894887653248 0 0 0
779 71 1 0.1266165 2.3206159598676033 14.127124370879194 13.032501442520587 0 0 0
786 71 5 0.0582835 3.1573181548278892 13.715096211390131 13.600997078990646 0 0 0
228 23 5 0.0798 7.2087405366821375 12.367823057385845 11.87205609596787 0 0 0
47 5 5 0.0798 6.911382698665478 7.438287789860864 13.52537701780792 1 0 0
41 5 1 0.0955 7.025904576939243 7.088292470167346 12.520657403814901 1 0 0
692 63 5 0.0582835 22.76635915156948 9.60609395072638 8.963433148811971 -1 0 0
787 71 5 0.0582835 1.8126625678131778 14.908730395349119 13.598656831590713 0 0 0
226 23 2 -0.4048 7.321743300177239 13.054200207143966 9.989653186789045 0 0 0
42 5 1 0.0955 8.064467468536968 7.976363888898941 11.847063789185432 1 0 0
43 5 2 -0.4048 7.3980248320608855 8.664158442493708 10.84902903674733 1 0 0
313 32 3 0.7551165 0.33526491045319295 8.458544078924385 13.061326806264272 1 0 -1
312 32 2 -0.3889835 23.18561757651525 7.876386433067778 14.005895199674761 0 0 -1
173 18 2 -0.4048 -0.08996806592788424 12.443346992067367 14.83382986166748 1 0 0
917 82 5 0.0582835 5.632512253774149 15.011262501820566 14.559654799491346 0 0 0
911 82 1 0.1266165 6.203860259681206 15.09200382567737 13.644542123258109 0 0 0
919 82 5 0.0582835 7.266283202701108 15.08239878830643 13.913939452501497 0 0 0
280 28 5 0.0798 13.516955427699926 13.477064715513801 8.123580117328105 0 0 0
924 83 2 -0.3889835 12.793761571458072 10.010454407381863 8.305379552565125 0 0 0
927 83 2 -0.3889835 10.482504148929607 9.909961430197313 7.899889363779651 0 0 0
230 23 5 0.0798 9.121699000736337 11.098311940587564 11.6465807401488 0 0 0
933 83 5 0.0582835 8.456701752007634 9.831690863301395 7.461891277189531 0 0 0
221 23 1 0.0955 7.967129890925801 12.882072236305476 11.26326389827627 0 0 0
222 23 1 0.0955 8.984445645169956 11.892123979023902 10.954168011125928 0 0 0
223 23 2 -0.4048 8.871671778270317 11.535575637847435 9.588824967902337 0 0 0
229 23 5 0.0798 9.964415636772626 12.360268164517198 11.06344841936891 0 0 0
49 5 5 0.0798 8.701656134887246 8.622514850741396 12.506655673674294 1 0 0
224 23 3 0.8478 7.87799251836267 12.27907046322402 9.04802772832319 0 0 0
227 23 5 0.0798 8.314924093981015 13.805007813799008 11.7668571598666 0 0 0
278 28 5 0.0798 11.59348891343827 13.213553955655685 9.30711898344204 0 0 0
160 16 5 0.0798 12.892997331324997 8.955226557841147 11.249566694366184 0 0 0
279 28 5 0.0798 14.423613123098098 12.903999109306872 9.390330586937829 0 0 0
272 28 1 0.0955 13.720556520681221 13.632653284893944 9.181796443513097 0 0 0
158 16 5 0.0798 13.140978714560845 8.266807251116871 13.520688890641381 0 0 0
271 28 1 0.0955 12.456835160116057 13.48378955144111 9.94041764356129 0 0 0
277 28 5 0.0798 12.556434049124181 12.655428472770305 10.61954884936449 0 0 0
276 28 2 -0.4048 12.267477002052603 14.71146726317744 10.576921728568944 0 0 0
152 16 1 0.0955 13.788427870835067 9.279959484756933 11.755760760442534 0 0 0
151 16 1 0.0955 13.990560145583533 8.775136772150205 13.185734097322676 0 0 0
156 16 2 -0.4048 14.184639462934152 9.984970658919766 14.02591619197667 0 0 0
154 16 3 0.8478 14.087487186818953 11.08458293141485 13.151976292639429 0 0 0
1018 96 2 -0.58 9.800144094037503 12.775861937344926 13.998873425708128 0 0 0
1019 96 3 0.66 10.0518415014157 11.506231326348123 14.58220234155704 0 0 0
1017 96 7 1 10.622830014622398 13.760306689016616 14.750270750681944 0 0 0
1021 96 2 -0.58 11.47785025567257 14.483453232673282 13.830689756907152 0 0 0
1020 96 4 -0.58 9.508818610287383 10.480503947195947 14.176090411690309 0 0 0
273 28 2 -0.4048 14.164281096991648 14.997460480277212 9.43893484862076 0 0 0
1026 96 2 -0.58 9.720949250729792 14.889115351107126 15.383452399404293 0 0 0
153 16 2 -0.4048 13.85894332683316 10.671320615314858 11.839879155870973 0 0 0
155 16 4 -0.5484 14.208241379567692 12.289188064869158 13.43690501671687 0 0 0
225 23 4 -0.5484 7.578998198289146 12.208129181090523 7.86414321684482 0 0 0
274 28 3 0.8478 13.306330201632123 15.594493842613529 10.239010469380952 0 0 0
159 16 5 0.0798 14.575212513804622 8.828880755263686 11.07767066020073 0 0 0
157 16 5 0.0798 14.74108824163559 8.006964002227818 13.151960496925167 0 0 0
680 62 5 0.0582835 13.991504845001153 15.565028805987987 13.687939722484519 0 0 0
676 62 1 0.1266165 15.001218394025749 15.629171749039763 14.004609448435964 0 0 0
681 62 5 0.0582835 15.282633462479899 14.705691584793017 14.576756974559522 0 0 0
519 49 2 -0.3889835 20.603025919410047 14.087640235161802 7.841282941690198 0 0 0
520 49 1 0.1266165 20.773984980641256 15.52375278940583 7.515488168344748 0 0 0
311 32 1 0.1266165 22.122240541508994 6.856861316041499 13.569580430922658 0 0 -1
761 69 5 0.0582835 18.481063556994823 9.387898334176075 9.772921568041014 0 0 0
755 69 1 0.1266165 19.24054465415224 8.68124742686474 10.138878585530483 0 0 0
319 32 5 0.0582835 21.353568731663792 7.409762167934979 12.934039486945391 0 0 -1
314 32 4 -0.5800835 0.11173945426096725 8.135407897779544 11.911043248707255 1 0 -1
758 69 4 -0.5800835 17.533656107754293 8.919662123228784 12.143823871068822 0 0 0
756 69 2 -0.3889835 19.70016009920863 9.110329412242132 11.418771552930355 0 0 0
207 21 5 0.0798 16.679727532670416 14.169422464472072 10.018459576015596 0 0 0
209 21 5 0.0798 16.77780979093818 13.040744317649072 12.016912283540659 0 0 0
176 18 2 -0.4048 21.28330557044824 12.139341508746831 14.366098349315125 0 0 0
174 18 3 0.8478 22.439516691704405 12.760207280273102 14.012139105764726 0 0 0
175 18 4 -0.5484 22.542586112509817 13.540567517299504 13.038134532858562 0 0 0
523 49 5 0.0582835 22.915043990502394 11.936087295653659 10.43090468853872 0 0 0
518 49 4 -0.5800835 21.979037196058304 14.331330686435637 9.680290950533845 0 0 0
517 49 3 0.7551165 21.27400080288359 13.617231596146535 8.952926550100765 0 0 0
516 49 2 -0.3889835 21.115284876857544 12.263699738203174 9.261418286411022 0 0 0
522 49 5 0.0582835 21.636509263274842 10.671859185507188 10.660286559813445 0 0 0
515 49 1 0.1266165 21.810231346643295 11.732686062581887 10.472350183523835 0 0 0
521 49 5 0.0582835 21.343374850058346 12.245002694981185 11.360245158039563 0 0 0
757 69 3 0.7551165 18.68970707032886 9.194043145615074 12.410107376340946 0 0 0
206 21 2 -0.4048 18.730001208388874 14.769560995412968 10.440363793810851 0 0 0
201 21 1 0.0955 17.69576239353508 13.790294764925575 10.305735107060261 0 0 0
204 21 3 0.8478 19.329047385525364 14.587150691767784 11.659839028266525 0 0 0
202 21 1 0.0955 17.760371648660545 13.00195986488327 11.565857782927742 0 0 0
208 21 5 0.0798 18.094690973464925 13.222171927328542 9.50355258979307 0 0 0
759 69 2 -0.3889835 19.097522230384897 9.629846821153855 13.63511042631174 0 0 0
203 21 2 -0.4048 18.77220321022204 13.529329107684005 12.34124665007193 0 0 0
210 21 5 0.0798 17.94642429751826 11.968039787912613 11.338527206817727 0 0 0
205 21 4 -0.5484 20.28818784253912 15.326399538174973 11.961947404783572 0 0 0
997 91 6 1 22.4054544404585 15.341307730672995 11.562645730227363 0 0 0
765 69 5 0.0582835 17.233558700516273 10.349195677688716 14.237792327806648 0 0 0
760 69 1 0.1266165 18.025272465334172 9.722708467840269 14.656409195757002 0 0 0
766 69 5 0.0582835 17.60593728699384 8.680875365347958 14.880597686565284 0 0 0
788 71 5 0.0582835 0.5932082996953124 16.776831203526772 9.119822997060345 0 0 0
405 39 5 0.0582835 6.41157473606409 21.621834201400418 7.795478771710678 0 -1 0
963 86 2 -0.3889835 0.8587910407151472 22.878700030259324 11.259419969328391 0 -1 0
784 71 1 0.1266165 1.128365174894178 15.899731815682369 8.66696759388064 0 0 0
966 86 5 0.0582835 2.923112064010076 20.06918274784496 8.764863441375498 0 -1 0
528 50 2 -0.3889835 6.289820385288948 21.955265796467604 10.49210722565286 0 0 0
961 86 3 0.7551165 0.8127961736555415 21.977955490396678 10.23465539807635 0 -1 0
529 50 3 0.7551165 7.378212360013879 22.265613704114084 11.213433370432242 0 0 0
959 86 1 0.1266165 1.8887809774292101 20.421661518262944 8.909263495953107 0 -1 0
639 59 2 -0.3889835 5.326993422957322 17.39420357512123 8.892311138267724 0 -1 0
645 59 5 0.0582835 5.7196861511273145 15.75188297848798 10.178100243886787 0 -1 0
358 35 5 0.0582835 4.621218143270557 22.63160201593562 14.40216227933031 1 -1 0
646 59 5 0.0582835 5.310372822312518 15.369171273996802 8.464698067830088 0 -1 0
640 59 1 0.1266165 5.873965201213891 16.042536913041012 9.131580267947207 0 -1 0
644 59 5 0.0582835 6.942636622748833 16.00541553726215 8.814042816412083 0 -1 0
344 34 5 0.0582835 1.9805844652924431 19.234257669447192 11.755042487505575 1 0 0
912 82 2 -0.3889835 5.8842648102646775 16.389133633371507 13.105651996349593 0 0 0
534 50 5 0.0582835 4.829527930980505 20.67860265385184 9.883164495393991 0 0 0
350 35 4 -0.5800835 2.4439211125517124 21.11593962213932 13.952408468021318 1 -1 0
349 35 3 0.7551165 1.973060357899249 22.19827047857787 14.075737034912045 1 -1 0
533 50 5 0.0582835 5.379315719305442 20.26749677506189 11.542784020042909 0 0 0
960 86 2 -0.3889835 1.9929133938933141 21.388828963933353 9.978638601860995 0 -1 0
346 34 5 0.0582835 1.5192453502527266 17.966637561633117 10.735501239656823 1 0 0
340 34 1 0.1266165 1.2145369535073753 18.508703948351236 11.659444930834052 1 0 0
345 34 5 0.0582835 1.1180613762305667 17.90761514540364 12.561944413002626 1 0 0
913 82 3 0.7551165 6.24184248856267 17.4428012468759 14.042600541111687 0 0 0
915 82 2 -0.3889835 5.982572260062118 18.702056207003096 13.630632988127386 0 0 0
914 82 4 -0.5800835 6.751868443740624 17.170323368975474 15.110815030382497 0 0 0
896 80 5 0.0582835 2.754733279552549 17.482356195179026 14.509977256340635 0 -1 0
527 50 1 0.1266165 5.690681886825887 20.601793685541594 10.56345442673196 0 0 0
916 82 1 0.1266165 6.397665613262855 19.768487359695495 14.615498176623355 0 0 0
921 82 5 0.0582835 6.248957650520495 20.715407619919297 14.130693088022001 0 0 0
967 86 5 0.0582835 1.3016129711725888 19.555733532979104 9.105606850218773 0 -1 0
922 82 5 0.0582835 5.905157167910185 19.67644623050693 15.564581120798964 0 0 0
535 50 5 0.0582835 6.376388298172951 19.865536323217697 10.228223902354472 0 0 0
892 80 1 0.1266165 3.087433697145582 17.78924681110042 15.463703872562265 0 -1 0
897 80 5 0.0582835 3.0324975502238107 18.84290444571059 15.605196935633852 0 -1 0
920 82 5 0.0582835 7.51316673581561 19.742966693484856 14.757952299971395 0 0 0
530 50 4 -0.5800835 7.886889150824798 21.381898889525413 11.941835647937069 0 0 0
348 35 2 -0.3889835 0.6269030818026428 22.33314045787968 14.41509212368405 1 -1 0
353 35 5 0.0582835 0.45609448605514763 20.378201010320815 15.300168334110555 1 -1 0
669 61 5 0.0582835 9.622075388519756 16.179527323005097 7.793312616368 -1 0 1
621 57 5 0.0582835 11.182395144183197 21.645363612623775 8.129925791317193 0 0 0
618 57 5 0.0582835 7.94778750027479 17.005416021263567 11.080592685804106 0 0 0
1022 96 3 0.66 11.170097398254889 15.80647909541934 13.866607468176241 0 0 0
1024 96 3 0.66 10.106053428301486 16.083377669936006 14.810370482013989 0 0 0
275 28 4 -0.5484 13.27517999616972 16.74484966458878 10.70881706503389 0 0 0
615 57 2 -0.3889835 10.18043775894593 20.11334006639322 9.064500923515467 0 0 0
620 57 5 0.0582835 12.227204792210108 20.224902029606906 8.596062985457339 0 0 0
616 57 1 0.1266165 11.424318803012968 20.88194633072302 8.897794389262364 0 0 0
1023 96 4 -0.58 11.680553057962115 16.71155699951257 13.192383587480213 0 0 0
611 57 1 0.1266165 8.945618934088266 17.468101226229944 11.132139059705612 0 0 0
617 57 5 0.0582835 9.116243259157246 17.7797558433045 12.167532538486661 0 0 0
619 57 5 0.0582835 9.599280697176983 16.62255781822101 10.771253032388728 0 0 0
622 57 5 0.0582835 11.625054073404629 21.44352569993456 9.764869018743479 0 0 0
1000 94 6 1 12.615611318817047 18.12042183400001 12.073423187234505 0 0 0
551 52 1 0.1266165 10.68076196436409 20.662347155441164 14.392415309150886 0 0 0
559 52 5 0.0582835 10.229075607694881 20.049114361358868 13.677364265094964 0 0 0
612 57 2 -0.3889835 8.987943232210586 18.44718071526733 10.153957208387453 0 0 0
554 52 4 -0.5800835 12.801401850055035 20.047374052235487 12.910895274101817 0 0 0
613 57 3 0.7551165 10.160681935595546 19.148883205440683 10.046407738169878 0 0 0
614 57 4 -0.5800835 11.130952628439331 18.896238070401424 10.82057863467187 0 0 0
553 52 3 0.7551165 12.568368090862839 21.240578405579267 13.005048749344292 0 0 0
552 52 2 -0.3889835 11.531248277006943 21.72622159281631 13.735252355369518 0 0 0
557 52 5 0.0582835 11.304741177277311 19.981361493488883 14.922526378260379 0 0 0
558 52 5 0.0582835 9.812149865659316 21.11845530400811 14.828382943358308 0 0 0
1025 96 4 -0.58 9.525346366309261 17.148846355724245 15.175401096774646 0 0 0
555 52 2 -0.3889835 13.268707512579036 22.202734978033142 12.434606581206065 0 0 0
560 52 5 0.0582835 14.12715505595356 21.14829974031305 10.696484535801405 0 0 0
556 52 1 0.1266165 14.412064777650357 21.75533352158382 11.606779677390517 0 0 0
674 62 4 -0.5800835 15.119960246012724 17.878195417360068 12.849418552625357 0 0 0
682 62 5 0.0582835 15.254700987267034 16.310708388308182 14.837426007353775 0 0 0
562 52 5 0.0582835 15.048449740989339 21.09659771667901 12.190271906253761 0 0 0
548 51 5 0.0582835 8.164762598588673 22.524703194620802 15.99618004160458 0 -1 0
978 87 5 0.0582835 15.140118752092306 19.782349235011537 14.939793834714445 0 0 0
873 78 5 0.0582835 16.54169698700183 14.041970414346316 7.6090113640067125 0 0 0
880 79 1 0.1266165 21.457895260975985 19.85915363235461 7.345310689440915 0 -1 0
88 9 5 0.0798 16.50055916011927 0.2357563058495845 13.17673819420054 -1 0 -1
968 86 5 0.0582835 22.32003361607115 22.862469002341687 11.914134393777667 -1 -1 0
524 49 5 0.0582835 21.837182201712235 15.78710947890024 7.48266956513361 0 0 0
526 49 5 0.0582835 20.38890353598428 16.101625329971686 8.388126891856858 0 0 0
339 34 2 -0.3889835 -0.022256469243015123 19.196173244470245 11.46935756251643 1 0 0
884 79 5 0.0582835 21.228227721004423 20.844060209179116 7.774608493288893 0 -1 0
679 62 5 0.0582835 15.56565400080316 18.85224301639174 10.376788701475565 0 0 0
673 62 3 0.7551165 15.847179703165299 17.024735131295756 12.329939421655617 0 0 0
130 13 5 0.0798 19.502550829574428 0.010968469778956401 10.251453462257796 0 1 -1
561 52 5 0.0582835 15.001644060714183 22.622127193463797 11.378669624316881 0 0 0
879 79 2 -0.3889835 20.301678659842036 18.923719002780395 7.523208781840549 0 -1 0
127 13 5 0.0798 19.727520865348662 22.59077459804731 7.5845549483658115 0 0 -1
355 35 5 0.0582835 -0.14885734143827278 20.520761705529655 13.70542110406843 1 -1 0
675 62 2 -0.3889835 15.893015491400567 15.785898443812224 12.831847805585623 0 0 0
885 79 5 0.0582835 22.319472403976725 19.416459627664555 7.799858696507532 0 -1 0
347 35 1 0.1266165 -0.045386697528883246 21.08872647157221 14.581726588304702 1 -1 0
962 86 4 -0.5800835 23.389579737998478 21.742757749254462 9.638497517843614 -1 -1 0
121 13 1 0.0955 19.272634401386526 23.377492726545345 8.229367922111788 0 0 -1
678 62 5 0.0582835 17.2433467093888 18.618322008908855 9.757177789017746 0 0 0
672 62 2 -0.3889835 16.605750815624255 17.26193273400778 11.276669334494068 0 0 0
677 62 5 0.0582835 17.02598223320878 19.513879973046247 11.219151078260797 0 0 0
671 62 1 0.1266165 16.600357268968693 18.66407310052333 10.645637874844468 0 0 0
125 13 4 -0.5484 15.96097175350498 22.59426269390958 8.869444184519896 0 0 -1
381 37 5 0.0582835 18.005676238849635 21.85853897175744 12.50796874179372 0 -1 0
124 13 3 0.8478 17.15864998333851 22.794867682575482 8.85169322255781 0 0 -1
129 13 5 0.0798 20.11370638265081 22.128454429112207 9.733013083440321 0 0 -1
376 37 1 0.1266165 18.771859917331646 21.254641347347025 12.976691682261931 0 -1 0
122 13 1 0.0955 19.277371959050594 22.78904156204328 9.562603782793122 0 0 -1
338 34 4 -0.5800835 22.459729623539182 17.288387222915777 11.058181722298947 0 0 0
337 34 3 0.7551165 22.437998954758367 18.511289715591463 11.156757538822978 0 0 0
336 34 2 -0.3889835 21.295048606308356 19.271574691469574 10.990992559721047 0 0 0
343 34 5 0.0582835 20.277212926750217 17.866647838457645 9.732344788139752 0 0 0
123 13 2 -0.4048 17.94698874018655 22.41118570588081 9.925489489524594 0 0 -1
335 34 1 0.1266165 20.12329726954646 18.522648266954832 10.680447516698912 0 0 0
342 34 5 0.0582835 19.258691531749378 19.1580968343424 10.571070267825476 0 0 0
341 34 5 0.0582835 19.824233289491048 17.815197212345886 11.47406932866128 0 0 0
375 37 2 -0.3889835 18.281833571065647 19.997769822721242 13.410299048229065 0 -1 0
380 37 5 0.0582835 19.623987643284718 21.10774942452637 12.276596584703361 0 -1 0
373 37 3 0.7551165 19.14238440970966 19.178886785881907 14.058959408815786 0 -1 0
372 37 2 -0.3889835 18.544219792808452 17.965923743169977 14.42308708178717 0 -1 0
354 35 5 0.0582835 22.561142192682393 21.3077033591033 15.002564045559616 0 -1 0
75 8 4 -0.5484 22.57528417861998 16.161601402432595 13.623447370370783 -1 -1 0
74 8 3 0.8478 22.505917882143507 16.397733248138522 14.830675457806816 -1 -1 0
378 37 5 0.0582835 18.55323276980716 16.252694638949762 15.59492679357492 0 -1 0
76 8 2 -0.4048 22.909046684486835 17.510931504409065 15.48010376998347 -1 -1 0
379 37 5 0.0582835 20.05053990615894 16.427199803886722 14.432813997116144 0 -1 0
382 37 5 0.0582835 19.081683721422976 21.899461307506275 13.844540745901906 0 -1 0
374 37 4 -0.5800835 20.285540762930925 19.40208959612657 14.306418977364494 0 -1 0
631 58 5 0.0582835 2.2483633406382504 7.02978577346314 22.20580628353905 0 1 -1
943 84 5 0.0582835 6.170110366341537 3.506396520547705 22.42975237929577 0 0 -1
478 45 5 0.0582835 4.37241105499556 7.236448045507854 14.674814723966627 0 0 0
545 51 5 0.0582835 3.5677353759681387 0.7226690110082522 17.79828002940769 0 0 0
546 51 5 0.0582835 3.364201359362278 2.4116896310213725 17.070978592762035 0 0 0
539 51 1 0.1266165 3.840720006250653 1.401052416839796 17.00528681002692 0 0 0
629 58 5 0.0582835 3.3269001106963025 6.8887174758786855 -0.04683820082581127 0 1 0
630 58 5 0.0582835 3.8113575994259907 7.699899278014819 22.0939781466161 0 1 -1
547 51 5 0.0582835 3.4689760547363737 1.0775133757320223 16.009324118962553 0 0 0
470 45 4 -0.5800835 3.409311868891374 4.741518518909936 15.211816584423358 0 0 0
634 58 5 0.0582835 3.275804930544041 1.8191308152857548 -0.24556262886429536 0 1 0
624 58 2 -0.3889835 3.789668962308 5.660409247875503 22.0180788423813 0 1 -1
623 58 1 0.1266165 3.243105542487331 6.852795361150422 22.475336408486264 0 1 -1
626 58 4 -0.5800835 2.193898700044794 4.422928318866883 23.16036698411264 0 1 -1
625 58 3 0.7551165 3.1596706892396647 4.527706059021436 22.44647965623717 0 1 -1
253 26 2 -0.4048 7.1492076729289 5.12276867656631 17.19394045687618 0 0 0
254 26 3 0.8478 7.62393596929792 5.050145272001838 18.415068508975004 0 0 0
627 58 2 -0.3889835 3.7364430339033916 3.3519778310313066 21.935377637383343 0 1 -1
632 58 5 0.0582835 2.100203333088805 2.003035814184343 22.051470901256902 0 1 -1
628 58 1 0.1266165 3.110029079096679 2.098566615983077 22.32596553312595 0 1 -1
252 26 1 0.0955 5.778989843791214 4.787077048280019 17.184240388655454 0 0 0
259 26 5 0.0798 5.394268447342567 4.0777426537348 16.46935218151166 0 0 0
633 58 5 0.0582835 3.7023562147482645 1.3433381925960874 21.79816796741344 0 1 -1
260 26 5 0.0798 5.338656788792276 5.723935030571032 16.93756802350293 0 0 0
256 26 2 -0.4048 6.682197467579725 4.67327922269587 19.3152386327118 0 0 0
251 26 1 0.0955 5.43655209058115 4.459670651614815 18.672968495872706 0 0 0
257 26 5 0.0798 5.162287641146039 3.3628675287700625 18.816417691864356 0 0 0
990 88 5 0.0582835 5.731652402595288 0.06733943319934277 20.01843220124992 0 0 -1
540 51 2 -0.3889835 5.336262796628276 1.5968099574716883 16.904912611613295 0 0 0
541 51 3 0.7551165 6.056366961558512 0.4277710704697202 16.927035088037805 0 0 0
991 88 5 0.0582835 7.362696747067164 -0.0995960205233902 19.584490830793392 0 0 -1
706 64 5 0.0582835 -0.05022281079434655 1.3877605535336608 19.870571963866773 0 0 0
700 64 1 0.1266165 22.4931406994496 1.6109982305697605 19.56886709368125 -1 0 0
705 64 5 0.0582835 22.069750009641204 0.6579421165739346 19.266501590210485 -1 0 0
258 26 5 0.0798 4.682002736689283 5.070226860574486 19.16101492666208 0 0 0
543 51 2 -0.3889835 7.435334575312434 0.6021499735619071 16.863558924652715 0 0 0
942 84 5 0.0582835 7.220616649746053 4.613799853479651 21.64524674085307 0 0 -1
701 64 5 0.0582835 0.6964083513671618 6.344166864172163 18.926554618027307 0 0 0
695 64 1 0.1266165 23.248325751386915 6.342655633702884 18.629569728469537 -1 0 0
698 64 4 -0.5800835 23.222867444359302 4.052021132745473 20.041395089914783 -1 0 0
697 64 3 0.7551165 22.817157935126648 3.9223935038302544 18.900565983779394 -1 0 0
187 19 5 0.0798 10.10775312695849 5.152731537492903 22.300001294985666 0 0 0
366 36 5 0.0582835 11.816393582709804 2.131212829977451 15.267488233354072 0 1 0
60 6 5 0.0798 7.597243407385567 7.549587968622707 15.764787987242185 0 0 0
255 26 4 -0.5484 8.798214990152623 5.316242645163615 18.63879652731596 0 0 0
83 9 2 -0.4048 15.0925733846946 0.8554581509002059 15.978229192564813 -1 0 -1
861 77 5 0.0582835 8.206981746421457 3.001979865126865 15.716299514208812 0 0 0
167 17 5 0.0798 11.45641099666462 6.41148889453067 18.306899078958253 0 0 0
189 19 5 0.0798 12.240680715080115 4.8235610263987745 22.150331442921697 0 0 0
190 19 5 0.0798 12.073632481395865 5.135006366656413 20.503015572548584 0 0 0
188 19 5 0.0798 10.096085572039744 6.238126524170793 20.884947703038574 0 0 0
181 19 1 0.0955 10.58273458952904 5.926174073877233 21.811258664645564 0 0 0
182 19 1 0.0955 11.925246898408973 5.608765805419037 21.44598846286878 0 0 0
184 19 3 0.8478 11.980273240913974 7.52810919852084 22.554010171942245 0 0 0
183 19 2 -0.4048 12.766077043926419 6.626747384516366 21.91333485900449 0 0 0
767 70 1 0.1266165 12.275420139875823 0.827851054583237 18.207280374313704 0 1 -1
775 70 5 0.0582835 13.13944664933078 0.17230631188207604 18.42926211656858 0 1 -1
770 70 4 -0.5800835 11.891998895520388 0.24589292037039337 20.77415414223225 0 1 -1
769 70 3 0.7551165 11.808248777491048 1.4450887502024594 20.442923442885622 0 1 -1
771 70 2 -0.3889835 11.489666110222066 2.4142874486594077 21.38864820116661 0 1 -1
768 70 2 -0.3889835 11.989912490386553 1.8786200599676173 19.154003966771864 0 1 -1
774 70 5 0.0582835 12.40726770963203 1.129135434744059 17.191805402074827 0 1 -1
773 70 5 0.0582835 11.42772350611218 0.14154510295620787 18.25135435571075 0 1 -1
816 74 2 -0.3889835 14.398289894587435 4.251952154595768 18.570875890712117 -1 1 -1
822 74 5 0.0582835 13.993324955589511 4.788765518720292 16.611814638012756 -1 1 -1
815 74 1 0.1266165 14.55577374037396 4.045706363026825 17.14289766721894 -1 1 -1
186 19 2 -0.4048 10.588993735350245 7.13426611731916 22.514830435679904 0 0 0
817 74 3 0.7551165 14.820077591273293 3.199983619323715 19.392102956389007 -1 1 -1
819 74 2 -0.3889835 14.65636329358496 3.445033447171134 20.740283273634077 -1 1 -1
821 74 5 0.0582835 14.014364049328401 3.1283460563276067 16.928107188718876 -1 1 -1
820 74 1 0.1266165 15.06937963621619 2.3742119539685476 21.61980396180013 -1 1 -1
823 74 5 0.0582835 15.589559093473222 3.939857623991289 16.9108240838054 -1 1 -1
608 56 5 0.0582835 15.532851033868202 6.811153249242953 20.371686921953234 0 0 0
825 74 5 0.0582835 14.765493447693553 2.615013822839657 22.603149861253563 -1 1 -1
818 74 4 -0.5800835 15.278872500424619 2.1554903995588646 18.94521873643885 -1 1 -1
826 74 5 0.0582835 14.603587825584864 1.441774929941617 21.35517060388219 -1 1 -1
169 17 5 0.0798 13.70520831642656 6.842681460858802 17.684208280896296 0 0 0
161 17 1 0.0955 11.66768436101085 7.467421231783291 18.0636348954566 0 0 0
162 17 1 0.0955 13.089835376804372 7.725381679965102 17.5949397033978 0 0 0
696 64 2 -0.3889835 22.77174284828891 5.038986967437637 18.011122739955642 -1 0 0
308 31 5 0.0798 -0.12462666346384665 2.2594416600949168 22.056167076532727 0 0 -1
310 31 5 0.0798 22.418454197596844 4.168648350575187 22.596294977037964 -1 0 -1
699 64 2 -0.3889835 22.396417904047187 2.665979168306264 18.490128786878067 -1 0 0
610 56 5 0.0582835 15.750238264341775 6.8755924433869975 22.188489795876613 0 0 0
496 47 1 0.1266165 21.87516516650333 0.9633334800230905 15.463318076890786 -1 0 0
502 47 5 0.0582835 22.011438388481256 2.0355248803382247 15.737930982265791 -1 0 0
39 4 5 0.0798 18.174110056223956 4.104702804315654 16.498915122160998 -1 0 0
500 47 5 0.0582835 22.91974947382556 0.5478540841608925 15.28336762731778 -1 0 0
702 64 5 0.0582835 23.08475412406108 7.183929630316967 17.894930546176404 -1 0 0
598 55 5 0.0582835 19.617479129475843 23.15331933088579 22.903373817110626 0 -1 -1
824 74 5 0.0582835 16.188402537023656 2.3668107910180556 21.48059955311861 -1 1 -1
40 4 5 0.0798 19.12863623555163 4.008838373399657 17.969733078057153 -1 0 0
213 22 2 -0.4048 18.79540023033374 4.61355634272495 22.815079385918736 -1 0 -1
609 56 5 0.0582835 16.72715222644559 5.902731651114152 21.261610911010283 0 0 0
703 64 5 0.0582835 22.532165438610015 6.537615386148212 19.457498034612314 -1 0 0
494 47 4 -0.5800835 19.523741626822417 1.5656643929518055 16.511636158733374 -1 0 0
495 47 2 -0.3889835 21.264010194902145 0.16595761503336418 16.62486364666365 -1 0 0
215 22 4 -0.5484 19.18866710891041 3.56635692339297 20.693975297007192 -1 0 -1
214 22 3 0.8478 19.289898185392083 4.515732668071347 21.46204652631279 -1 0 -1
704 64 5 0.0582835 21.90123312462917 1.8604771861811655 20.477896427290805 -1 0 0
493 47 3 0.7551165 20.060419689281623 0.6017361790300283 17.051607658629102 -1 0 0
216 22 2 -0.4048 19.906096990157785 5.697207807006299 21.118847370006176 -1 0 -1
37 4 5 0.0798 19.817051533392856 5.506246448844974 15.589468761425627 -1 0 0
32 4 1 0.0955 18.647055679654954 4.76238742432506 17.300079351327657 -1 0 0
38 4 5 0.0798 20.618476866167597 5.651183299735755 17.090463132142126 -1 0 0
211 22 1 0.0955 19.832040453339143 6.56052056097324 22.22715988679679 -1 0 -1
31 4 1 0.0955 19.705844721524898 5.681619708908052 16.641838985238817 -1 0 0
499 47 5 0.0582835 18.11661177408019 1.3844620872978228 19.050683037204145 -1 0 0
36 4 2 -0.4048 19.330182198242746 7.009131488131357 17.008829959361456 -1 0 0
597 55 5 0.0582835 18.89282871093215 0.9481089938113135 21.912180048831633 0 0 -1
497 47 5 0.0582835 17.425372992022012 0.2388305899119452 17.85616545941353 -1 0 0
492 47 2 -0.3889835 19.486621617035606 -0.1196030501048315 18.11641605403265 -1 0 0
491 47 1 0.1266165 18.162497186167997 0.3529134775934297 18.631954774644825 -1 0 0
498 47 5 0.0582835 17.803927925876753 -0.16400876155143998 19.482354842236223 -1 0 0
604 56 1 0.1266165 16.27727706364573 6.9080587036417045 21.217525874858424 0 0 0
592 55 1 0.1266165 19.060401317768825 -0.12234957628032658 21.97529946293057 0 0 -1
596 55 5 0.0582835 19.631068291133374 23.173072500886327 21.090577629818892 0 -1 -1
33 4 2 -0.4048 17.750660070070534 5.6347976746071184 17.97507908113097 -1 0 0
34 4 3 0.8478 18.215335278841554 6.962699062123331 17.751898603627325 -1 0 0
507 48 2 -0.3889835 3.437013775595042 14.110141227733576 22.940712930842892 1 0 0
504 48 2 -0.3889835 1.7303764976065932 13.302770681433206 21.548281989986553 1 0 0
505 48 3 0.7551165 2.0907857909850946 13.793289087048635 22.787280275982862 1 0 0
135 14 4 -0.5484 5.582878247318517 11.13245088880301 0.5225560147364616 1 0 1
472 45 1 0.1266165 3.3648108249856694 7.434117952156354 14.936947494162496 0 0 0
477 45 5 0.0582835 3.171898140867888 7.3240817260227375 16.005598824718213 0 0 0
503 48 1 0.1266165 0.3548510468687306 12.93430427654227 21.328498463483488 1 0 0
55 6 4 -0.5484 4.809426129693144 8.657325104612303 18.652562673514467 0 0 0
54 6 3 0.8478 5.877379229368613 8.590868072610808 18.05732430690055 0 0 0
133 14 2 -0.4048 6.355832271743872 12.00211345113122 22.248994744384188 1 0 0
1074 100 3 0.66 4.805131415532953 11.794921405083707 16.61308937657126 0 0 0
895 80 5 0.0582835 2.2163523881781315 13.35563784422807 16.746871987073224 0 -1 0
509 48 5 0.0582835 23.27644550901494 13.759642410101678 21.63496507464765 0 0 0
1075 100 4 -0.58 3.6854539969412388 11.302341991955034 16.81183412777664 0 0 0
1069 100 7 1 6.815908874547133 12.838357093643555 16.964199090989545 0 0 0
1073 100 2 -0.58 5.560422279425394 12.357892945864739 17.541945295351834 0 0 0
138 14 5 0.0798 3.81181311014179 12.091520378073882 20.66441674549502 1 0 0
131 14 1 0.0955 4.561683683307401 11.42647650319412 20.937558369837458 1 0 0
134 14 3 0.8478 5.391827387523014 11.330345934682995 22.968959541075964 1 0 0
136 14 2 -0.4048 4.291404000531245 10.941462832594906 22.24951131475268 1 0 0
428 41 5 0.0582835 1.7003254152741787 10.833147726925363 19.68411628398355 0 0 -1
894 80 5 0.0582835 1.4268063072671968 13.218182393658797 18.330841265224485 0 -1 0
429 41 5 0.0582835 2.361350008979228 9.288111562925216 19.43688099179332 0 0 -1
424 41 1 0.1266165 1.5256782157877253 9.877108298494194 19.27093409418882 0 0 -1
430 41 5 0.0582835 1.3599188390539467 9.809233899011506 18.16750328843489 0 0 -1
893 80 5 0.0582835 3.1559944559069524 13.690308471651349 18.22403677255845 0 -1 0
887 80 1 0.1266165 2.185698729823897 13.778362329795106 17.752555150265163 0 -1 0
132 14 1 0.0955 5.923151896733746 12.115277264273786 20.923378414260057 1 0 0
423 41 2 -0.3889835 0.32474647756079816 9.261850108037839 19.99288213141679 0 0 -1
137 14 5 0.0798 4.494247410182548 10.613487981443429 20.188660494075283 1 0 0
140 14 5 0.0798 5.752468738253799 13.15427150359978 20.613132539714847 1 0 0
1070 100 2 -0.58 6.961224642487125 14.289613598822076 17.0398558846216 0 0 0
139 14 5 0.0798 6.7177686455822885 11.649788886924414 20.299445164770063 1 0 0
180 18 5 0.0798 -0.006322679133925535 10.534557842015763 15.72809895244278 1 0 0
888 80 2 -0.3889835 1.84114207916768 15.165039969889255 17.567648257216167 0 -1 0
53 6 2 -0.4048 5.9394431336730475 8.411292768940683 16.701924983601018 0 0 0
511 48 5 0.0582835 0.15689033323107773 12.106487961634372 22.004144251752624 1 0 0
510 48 5 0.0582835 0.19229164196328227 12.758075806520395 20.296493383936546 1 0 0
150 15 5 0.0798 3.2787989044226835 15.485419035562373 19.924261176540682 0 0 0
1015 96 3 0.66 11.007756812139585 11.659977919927908 15.730696127067787 0 0 0
1016 96 2 -0.58 11.343109025085884 13.029202610953211 15.809050131873352 0 0 0
1014 96 4 -0.58 11.424259896109504 10.796152202182695 16.486153626387686 0 0 0
168 17 5 0.0798 11.045854558277025 7.82848549196753 17.247250485001832 0 0 0
94 10 3 0.8478 7.8556444125160025 15.316199122573492 22.70264944993398 0 0 -1
734 67 4 -0.5800835 10.63704825353717 11.213246598358447 23.162462111264155 0 0 -1
1068 100 2 -0.58 8.024594311673141 12.358207965958353 17.71653072604742 0 0 0
58 6 5 0.0798 8.606523246039947 7.608541015686138 17.862643079736063 0 0 0
59 6 5 0.0798 7.27551196613384 9.328612616977324 15.775312683846714 0 0 0
52 6 1 0.0955 7.293926732196427 8.41104147438315 16.345750957257028 0 0 0
185 19 4 -0.5484 12.501535061750305 8.517393504907314 23.076015492605187 0 0 0
166 17 2 -0.4048 11.49994905072781 8.236398666692502 19.27419478403092 0 0 0
56 6 2 -0.4048 7.076127398373192 8.700547853405983 18.673694223040105 0 0 0
170 17 5 0.0798 13.03295077435094 8.158412895207029 16.524659022075426 0 0 0
51 6 1 0.0955 8.046655470270702 8.577164446225723 17.621724682827185 0 0 0
57 6 5 0.0798 8.867814437085851 9.340037437945352 17.64462576251863 0 0 0
1071 100 3 0.66 8.089261144703725 14.632338375813879 17.685858319392455 0 0 0
1067 100 3 0.66 8.780588071589492 13.385362568750866 18.127366918337415 0 0 0
1066 100 4 -0.58 9.84248535226137 13.224204684905578 18.761853862452945 0 0 0
164 17 3 0.8478 12.716508821222822 8.925277936971144 19.557286220167555 0 0 0
163 17 2 -0.4048 13.604871573536197 8.626473652631343 18.590131403657804 0 0 0
165 17 4 -0.5484 12.883680715081523 9.657534883776846 20.51088815590198 0 0 0
738 67 5 0.0582835 8.817884551103607 9.10320877156982 20.674407255375304 0 0 -1
999 93 6 1 13.620854124720644 10.211937760609635 22.34501559299603 0 0 0
732 67 2 -0.3889835 9.207785138416465 9.561671920651955 22.61724840793184 0 0 -1
569 53 5 0.0582835 11.84713573155285 11.877285432623754 19.93440366663836 0 0 0
737 67 5 0.0582835 10.351957650828593 9.75298377409248 20.982871299888238 0 0 -1
731 67 1 0.1266165 9.323466286920539 9.847483456778397 21.23071676871694 0 0 -1
739 67 5 0.0582835 8.907777245578925 10.808720386706934 20.964737493737886 0 0 -1
566 53 4 -0.5800835 13.55319837237221 12.118298120396616 22.2837836381463 0 0 0
565 53 3 0.7551165 13.26764055733789 13.253096297652377 22.029014997278956 0 0 0
564 53 2 -0.3889835 12.841609408493241 13.648312238499855 20.856768366407373 0 0 0
567 53 2 -0.3889835 13.37274729670609 14.238882930322053 23.033920846751855 0 0 0
563 53 1 0.1266165 12.707868544222903 12.612917879540024 19.772021111124467 0 0 0
570 53 5 0.0582835 12.55944028427789 13.166340114457642 18.884825846313568 0 0 0
571 53 5 0.0582835 13.669312122284966 12.035228964541172 19.652797076261177 0 0 0
982 87 5 0.0582835 12.949508637867972 15.507037293384846 18.394862247734356 0 0 0
981 87 5 0.0582835 11.20465341835237 15.694835954909522 18.336750645360322 0 0 0
96 10 2 -0.4048 8.70652467802433 15.076407705469675 0.11181784430240907 0 0 0
602 56 4 -0.5800835 15.335993463228885 9.477400205337611 21.814024219164512 0 0 0
98 10 5 0.0798 10.055843126536768 13.506407417716566 0.12944783597054438 0 0 0
91 10 1 0.0955 9.908092543860125 14.499292996312734 23.246926883018762 0 0 -1
449 43 5 0.0582835 14.036927145675325 12.353112592666157 16.926211454576 0 0 0
92 10 1 0.0955 9.738241316091663 14.390563038717175 21.71994451717744 0 0 -1
100 10 5 0.0798 9.86165237510971 13.348172901871843 21.40396157165319 0 0 -1
584 54 5 0.0582835 15.449032769337613 15.30790854571649 21.325975411120414 0 -1 -1
318 32 5 0.0582835 21.602101401189856 6.488676316406138 14.435236887926767 0 0 -1
764 69 5 0.0582835 18.414159197440256 10.258474241685589 15.539774992290509 0 0 0
450 43 5 0.0582835 14.769066459090958 11.017498584723217 16.142888136316927 0 0 0
171 18 1 0.0955 21.51880978815025 11.33848957447098 15.481862065029324 0 0 0
218 22 5 0.0798 19.427273616605728 7.559878265395596 21.926233981133418 -1 0 -1
603 56 2 -0.3889835 17.142618252381194 8.146890889491145 21.220724183444563 0 0 0
802 72 5 0.0582835 20.22503131743419 9.416501387573433 -0.2086234685359388 0 0 0
417 40 5 0.0582835 22.35318908321318 8.733455837307021 22.826551373015867 -1 0 0
451 43 5 0.0582835 15.072401022191992 11.1118275254308 17.84104167865892 0 0 0
443 43 1 0.1266165 14.948625351188495 11.692475706548034 16.914029780750074 0 0 0
446 43 4 -0.5800835 15.911036862577928 13.575129170188715 18.53525309751696 0 0 0
794 72 4 -0.5800835 21.094519220811172 11.823616837454852 0.27905802452475137 0 0 0
35 4 4 -0.5484 17.6885269437537 7.988363134562707 18.221243643201138 -1 0 0
607 56 5 0.0582835 16.059241841505386 11.936294519366003 21.113629198292553 0 0 0
605 56 5 0.0582835 16.60874752618207 11.59466393989413 22.79785099301311 0 0 0
179 18 5 0.0798 23.26324191232204 11.863003995194891 16.77943512110904 0 0 0
799 72 5 0.0582835 20.865295892134178 14.36489090958407 0.6275627945352175 0 0 0
421 41 3 0.7551165 22.707012868997957 9.818490323300296 19.719391063787043 -1 0 -1
793 72 3 0.7551165 19.868997984476056 11.998802136214875 0.13391942010357896 0 0 0
178 18 5 0.0798 21.32266323024021 10.281517359155016 15.30468080362117 0 0 0
791 72 1 0.1266165 20.381964735688307 14.254262530216328 23.317836531572258 0 0 -1
792 72 2 -0.3889835 19.360698859471263 13.202799279118956 -0.14440555047339526 0 0 0
172 18 1 0.0955 23.044685512978493 11.506314516178616 15.825113137243651 0 0 0
422 41 4 -0.5800835 22.62743670436633 10.769140141811638 18.933643543901646 -1 0 -1
177 18 5 0.0798 20.822897238592454 11.660962563264011 16.28303415228211 0 0 0
797 72 5 0.0582835 21.050892361899816 14.002756373782558 22.54743331544435 0 0 -1
601 56 3 0.7551165 16.501234948233446 9.338784366215318 21.527247130947323 0 0 0
427 41 5 0.0582835 20.17360362704899 10.77819210565165 20.479027794987974 -1 0 -1
425 41 5 0.0582835 20.098738101218398 9.734601775450784 18.93839613051183 -1 0 -1
420 41 2 -0.3889835 21.640620600004187 9.244297630163006 20.36731782395742 -1 0 -1
419 41 1 0.1266165 20.317505019510815 9.838652059252626 20.076983953228382 -1 0 -1
426 41 5 0.0582835 19.551304338160268 9.253031903167685 20.53695413762098 -1 0 -1
606 56 5 0.0582835 17.708017754585885 12.393428467870352 21.617489611836255 0 0 0
600 56 2 -0.3889835 17.441759401395917 10.357990628939145 21.440655891207385 0 0 0
599 56 1 0.1266165 16.936679193500584 11.664052852969427 21.727774847995278 0 0 0
798 72 5 0.0582835 19.866952015221784 15.257861822487941 23.196738145856298 0 0 -1
444 43 2 -0.3889835 16.164007751264762 12.528710668695712 16.623511830491218 0 0 0
445 43 3 0.7551165 16.55015940431715 13.410100029697023 17.505180502835497 0 0 0
447 43 2 -0.3889835 17.670425870177297 14.193617027315788 17.272057207181046 0 0 0
452 43 5 0.0582835 18.215248561771936 14.720235098170887 19.34647142173499 0 0 0
830 75 4 -0.5800835 4.884127514392363 18.58202349407063 23.066913499665937 0 0 -1
828 75 2 -0.3889835 6.899717502786273 19.561279098859675 23.224743255829054 0 0 -1
908 81 5 0.0582835 1.9502312685683427 22.72587039043675 22.184554991911057 1 0 0
909 81 5 0.0582835 2.1744355326150657 21.181100061054686 23.04860213597026 1 0 0
910 81 5 0.0582835 3.569019688169698 21.975708896276114 22.121928719115985 1 0 0
904 81 1 0.1266165 2.480633847454693 21.78617636403068 22.150459420614766 1 0 0
898 80 5 0.0582835 4.149912169442244 17.57155551093698 15.554552903229313 0 -1 0
983 88 1 0.1266165 6.610369311797323 23.05427096903282 20.18820488912567 0 -1 -1
890 80 4 -0.5800835 3.485746077440716 15.209198308246958 16.011999869671993 0 -1 0
95 10 4 -0.5484 6.769142962948961 15.788905017923279 22.903563767287608 0 0 -1
542 51 4 -0.5800835 5.575860596652373 22.897335074695693 17.03155455478239 0 -1 0
262 27 1 0.0955 0.9746792121332132 17.55181093051572 22.655768821203928 0 0 0
269 27 5 0.0798 1.4056291703413983 18.56020617337494 22.90534151808522 0 0 0
149 15 5 0.0798 4.3226562629904866 16.166253867248965 21.208555489709255 0 0 0
143 15 2 -0.4048 5.23556424222839 16.31618027378056 19.36861389798799 0 0 0
835 75 5 0.0582835 7.210901210277094 18.02147563730546 21.734804646596707 0 0 -1
827 75 1 0.1266165 7.228283242726126 19.104035358210517 21.88399539494625 0 0 -1
833 75 5 0.0582835 6.585784557334814 19.603762016966765 21.13517196653544 0 0 -1
905 81 5 0.0582835 3.4040655924370875 21.23180557152184 17.150673328877033 1 0 0
899 81 1 0.1266165 2.405475481429288 21.37086446076404 17.38317314792689 1 0 0
906 81 5 0.0582835 1.9686090338885354 20.814339863575952 16.62347812110433 1 0 0
900 81 2 -0.3889835 2.1078322473794984 20.880238169332863 18.66422942774045 1 0 0
902 81 4 -0.5800835 3.0438356156111435 22.688032465808874 19.68114335448243 1 0 0
901 81 3 0.7551165 2.4656688779466505 21.614416711330517 19.772005713564916 1 0 0
263 27 2 -0.4048 0.77196652120412 17.381684224193727 21.218684795424718 0 0 0
142 15 1 0.0955 4.0309310621637024 16.264804490927208 20.13186614694306 0 0 0
903 81 2 -0.3889835 2.1156392600642144 21.05030305495734 20.942863240682566 1 0 0
889 80 3 0.7551165 2.592577808013097 15.825860858314995 16.62147953528993 0 -1 0
891 80 2 -0.3889835 2.273985825763696 17.12120501677724 16.451531836788266 0 -1 0
146 15 2 -0.4048 4.400229203840541 18.35313022000676 19.141182304116857 0 0 0
147 15 5 0.0798 3.321130430156008 18.149950473505495 20.98708112392652 0 0 0
141 15 1 0.0955 3.4537890503351676 17.60894285779363 20.010952482128634 0 0 0
148 15 5 0.0798 2.4965818637338257 17.525424663858686 19.554942250452772 0 0 0
144 15 3 0.8478 5.408291346363536 17.538450506221384 18.80413973453792 0 0 0
145 15 4 -0.5484 6.367980112488467 17.770638764791435 18.115868893169207 0 0 0
989 88 5 0.0582835 6.497569124190301 22.099823859498805 19.823427204962204 0 -1 -1
907 81 5 0.0582835 2.0253092486073436 22.365041380245664 17.28982609140596 1 0 0
984 88 2 -0.3889835 6.951652665087485 23.17039372325255 21.653265582125705 0 -1 -1
77 8 5 0.0798 -0.02030420794360724 17.526411728645623 17.459052394485273 0 -1 0
265 27 4 -0.5484 22.7516316808732 16.854921831583273 19.809260209260074 -1 0 0
264 27 3 0.8478 23.111359790548963 17.03382869971815 20.950347875901322 -1 0 0
754 68 5 0.0582835 23.186547318942726 22.387686988487484 0.3482251173955297 0 0 0
576 54 2 -0.3889835 13.667813876918922 18.171378162283567 -0.20013299028586845 0 -1 0
994 88 5 0.0582835 9.624938881111936 20.880447819719247 -0.13880246206436608 0 -1 0
577 54 3 0.7551165 14.662417650384215 17.515060631271442 22.749085336070802 0 -1 -1
578 54 4 -0.5800835 15.805020431976178 17.422555559306566 23.17128714396747 0 -1 -1
84 9 3 0.8478 14.905628283630879 23.112940127649107 15.78655513484835 -1 -1 -1
85 9 4 -0.5484 14.111943034790173 22.42596094299295 16.433619345559837 -1 -1 -1
976 87 1 0.1266165 12.10617248826447 16.231030129607074 18.32852814875023 0 0 0
980 87 5 0.0582835 12.14880572999481 16.87597380269387 19.249419355316718 0 0 0
99 10 5 0.0798 10.594940364627973 14.875354170383167 21.179946550101867 0 0 -1
93 10 2 -0.4048 8.346243890719267 14.949715063625025 21.486810180295464 0 0 -1
834 75 5 0.0582835 8.30372162219151 19.296378244426876 21.615768455439767 0 0 -1
550 51 5 0.0582835 7.986505560340244 22.433427538154277 17.747316350004994 0 -1 0
985 88 3 0.7551165 8.101364467050574 22.519899191158064 22.083701498016662 0 -1 -1
987 88 2 -0.3889835 8.436880171209223 22.6035991883528 -0.2449137873173655 0 -1 0
992 88 5 0.0582835 10.524303559452054 22.37508366485974 23.25654927988409 0 -1 -1
544 51 1 0.1266165 8.25638679618292 23.024010480847682 16.901918469950953 0 -1 0
549 51 5 0.0582835 9.316528578335214 23.21193679088961 17.030461157536656 0 -1 0
998 92 6 1 8.017292819173099 17.253943876180628 16.557170700854062 0 0 0
1072 100 4 -0.58 8.421131466263173 15.830874209569707 17.85339677161627 0 0 0
971 87 1 0.1266165 15.031682495024288 19.242609507616965 15.8924486365742 0 0 0
972 87 2 -0.3889835 13.733513540493144 18.568043893271795 15.943216877350494 0 0 0
579 54 2 -0.3889835 14.283861627207182 16.938693013471834 21.521105773931772 0 -1 -1
986 88 4 -0.5800835 8.81937441308042 21.887300880654955 21.273911734327093 0 -1 -1
300 30 5 0.0798 11.216789960410654 20.055502670559342 20.834198873056092 0 0 0
298 30 5 0.0798 10.86766303046078 21.71463627261636 19.294066255335693 0 0 0
292 30 1 0.0955 11.30350614604066 19.75859712073261 19.7439003916058 0 0 0
299 30 5 0.0798 12.266222109639376 19.206166677021134 19.62499236474474 0 0 0
293 30 2 -0.4048 10.367623663128608 18.903137419113996 19.250669334192935 0 0 0
975 87 2 -0.3889835 12.278571201889621 17.075538399591178 17.13267748991967 0 0 0
291 30 1 0.0955 11.303233546379316 20.95416063985954 18.743370131226868 0 0 0
297 30 5 0.0798 12.314964368758533 21.30441106065851 18.403544347169397 0 0 0
296 30 2 -0.4048 10.332551470983422 20.67189464023101 17.72299890309978 0 0 0
294 30 3 0.8478 9.811898870284645 19.425755869186457 18.073324431691162 0 0 0
295 30 4 -0.5484 8.912725062111251 18.907800960867633 17.36979635280613 0 0 0
973 87 3 0.7551165 13.518692331381047 17.767320807294297 17.0146126118899 0 0 0
974 87 4 -0.5800835 14.385620365422778 17.637617325578937 17.860884948814036 0 0 0
580 54 1 0.1266165 15.212590140224146 16.25508014445151 20.73352199439921 0 -1 -1
585 54 5 0.0582835 14.802340339355306 15.861438629780748 19.784490920987455 0 -1 -1
979 87 5 0.0582835 15.121562144556824 19.938506168105622 16.695872568189266 0 0 0
73 8 2 -0.4048 21.996544512639908 15.549915419765302 15.723783245239868 -1 -1 0
371 37 1 0.1266165 19.29731874451843 16.961247238030545 15.130091252243812 0 -1 0
86 9 2 -0.4048 15.788749878744195 22.72771390662033 14.796219094644199 -1 -1 -1
591 55 2 -0.3889835 17.720291940007804 22.958181706327693 21.893547325987832 0 -1 -1
79 8 5 0.0798 22.746271180769533 15.402922807269379 17.585968171222987 -1 -1 0
72 8 1 0.0955 22.041883470113476 16.101042713896526 17.081151742561232 -1 -1 0
448 43 1 0.1266165 17.97656442263258 15.174706493604642 18.387770960893192 0 0 0
977 87 5 0.0582835 15.917281456647952 18.555814365186603 15.878304558156277 0 0 0
586 54 5 0.0582835 16.14908484874714 16.805594864599527 20.66285562419922 0 -1 -1
261 27 1 0.0955 23.229030780008372 17.26236381796534 23.267324865387675 -1 0 0
266 27 2 -0.4048 22.392066703540316 16.937452990337615 22.109205687176892 -1 0 0
707 65 1 0.1266165 19.10304747157363 18.284292572626427 22.160280454895574 0 0 0
708 65 2 -0.3889835 18.872418367303336 19.393410590772792 21.322585868030842 0 0 0
748 68 1 0.1266165 22.408013253799485 21.61477010453604 0.4719175976716656 0 0 0
453 43 5 0.0582835 18.775390213652663 15.828686939278292 18.1144352735789 0 0 0
377 37 5 0.0582835 19.816610497955136 17.446609820692423 15.921945422865194 0 -1 0
454 43 5 0.0582835 17.09450370155009 15.85723557633425 18.601888810161757 0 0 0
749 68 5 0.0582835 23.088876212695467 21.68284868393254 19.108824407227136 0 0 -1
80 8 5 0.0798 21.03787555544797 16.22552765722988 17.69048255258069 -1 -1 0
71 8 1 0.0955 22.692838755744972 17.446458993970356 16.846967430949107 -1 -1 0
78 8 5 0.0798 21.98257588343866 18.26620468304512 17.03341125648481 -1 -1 0
747 68 2 -0.3889835 22.367874617569182 20.696863735940063 22.95108176500004 0 0 -1
750 68 5 0.0582835 22.18871085451628 20.288421388661828 18.670688022808275 0 0 -1
744 68 2 -0.3889835 22.28400993217744 20.3502517800279 20.67604522700905 0 0 -1
745 68 3 0.7551165 22.307792541121753 21.24869565291602 21.716823868381745 0 0 -1
717 65 5 0.0582835 17.937002003339945 21.025548823332464 17.31165530662221 0 0 0
718 65 5 0.0582835 19.216258337299106 19.86452176621044 17.394955103790537 0 0 0
716 65 5 0.0582835 17.560428512335324 19.30737990619536 17.50019812883222 0 0 0
711 65 2 -0.3889835 18.47626593467201 20.279891610955442 19.207681151636084 0 0 0
712 65 1 0.1266165 18.296241571545067 20.077830960097174 17.775375852862545 0 0 0
715 65 5 0.0582835 18.255962467649745 17.592348143411467 22.22305886105906 0 0 0
743 68 1 0.1266165 22.225142360386183 21.022951682932973 19.40997270648931 0 0 -1
713 65 5 0.0582835 19.995770339204444 17.807920640168586 21.781312485771426 0 0 0
709 65 3 0.7551165 18.700278174850176 19.165768875013224 19.962076788717752 0 0 0
710 65 4 -0.5800835 18.757692689552666 18.046978045977713 19.49705490946383 0 0 0
751 68 5 0.0582835 21.342570314658996 21.684034307739367 19.40829188703037 0 0 -1
746 68 4 -0.5800835 22.292156320275133 22.459107347207883 21.532721901484933 0 0 -1

Velocities

242 -0.0059872724663761825 -0.008018114056668128 0.00024653765651616306
241 0.005050467892790411 -0.00010108262217725411 0.007908561929738302
248 0.00498596643608875 0.011195260032946831 -0.0035237967273207757
247 0.0031210740870266074 0.018876310105161182 0.0018355619696583552
249 0.014879395216522321 -0.008285640036862935 -0.014289403986411436
465 -0.019673261429489483 -0.0033318680798924147 0.0097362603566286
726 0.0016988136259941365 -0.020359758004992384 -0.005115736434079311
243 0.009462554365441585 -0.003047900966412407 0.004188797595330019
244 0.0037635013432010273 0.005761366054903071 -0.0006326781150838954
250 -0.02322607422544352 0.005292341344353095 -0.010927225188012112
246 0.0012607714501003124 0.0005917994728452727 0.003833384185699736
460 0.0014440376961163397 -0.005343582054461629 0.00294144632465461
6 0.0033468459138767254 -0.0004611098160328651 0.002571837185760852
237 -0.005803325067783121 -0.012423745990251502 -0.020175890694386276
7 -0.02112779834400731 0.033060508052792446 0.0037971896186413086
466 0.006196396203619073 0.028991191935233675 -0.017597629106480207
5 -0.0016821992153404942 0.002828942706015542 -0.004405256409263457
4 -0.0013853694069042171 0.007909639795093099 0.004859553821995897
245 -0.000625461248481706 -0.004423873507362643 0.0032771711372362898
307 0.018532664091885927 0.02978920163338903 0.005287879714280518
309 0.006307109053343666 0.004030312426564451 0.0021130505381061265
657 0.009764944457185185 0.001496450006243025 0.006751624592773296
941 -0.005039684746699681 0.013018980612679122 0.026926098838032826
936 -0.001325962944811326 0.0013304151206964545 0.0057226259032030075
937 -0.003446933213023252 0.0036609615378813782 0.006448136824696054
3 -0.00284443733156767 -0.0019045825844658528 0.0008568446557707612
813 0.02570829665639588 -0.001417571953016986 0.0008860652592375057
935 0.005815005305177347 -0.00013373870180512378 -0.0015071392972714549
1 0.0028861843912858023 0.0026009362841493845 -0.006614463204357834
399 0.003519690040435367 -0.006257511612010582 -0.0012884390116213494
719 0.0015452515045873215 0.004907414264904757 0.004478289339654404
727 0.033776220193484356 -0.00235811936237051 0.01126140284314099
720 -0.004322789434546643 -0.006114497511059401 0.005118951123062454
231 0.005199956771869881 0.0009155195014942314 -0.009160730068845924
236 -0.004300588421845825 0.0023066734260080257 -0.002869192367615537
725 0.01323785128111496 -0.015035062524845462 -0.017423135070102114
721 0.0022938310880655437 0.007107590403158435 0.004494689669861121
938 0.0010079302769964143 0.003077045856011768 8.707224226607346e-05
946 -0.004067032918015771 -0.0037338427831799872 -0.0006883137176054866
939 0.003634360244811477 -0.004485839190714686 0.004490383236659392
944 0.006513246369219182 -0.013984793325382655 0.0020143129068854186
940 -0.006878918851513359 0.0008184643164795196 0.0006408725781938
945 0.0053142020934869505 0.0013511341337046378 -0.017032037735325883
64 0.006747595428902721 0.004170254417485099 0.0019533428423921364
806 -0.00048798975028201965 -0.00021411177740416072 -0.001096460119516638
809 0.006277046477186429 0.006741787963246377 0.001244945133570596
61 -0.005133029667920537 0.0027973403338270334 -0.007899353861314563
66 -0.0075046169153219515 -0.0037502910787457133 -0.004223684158222003
63 0.00203614991851652 0.0036129249836835786 -0.003746902644761199
323 -0.0008433880785089667 0.0012962111006311707 6.082342875445322e-06
331 -0.019548454733048476 -0.01204529384037074 0.011015195622550433
330 -0.003243187419570626 0.008843077386967968 0.005710708524670007
329 -0.018252294233696627 -0.0027970777907638054 -0.03813640083202558
65 0.00461472505535973 -0.00034495614090175803 -0.0016942795244667716
62 0.0018058538525019298 0.0018984233976656038 -0.00417669184644788
70 0.02383705239916044 -0.0018898531151945771 0.023465164827702677
68 0.035197267393999414 -0.0057262316765664244 0.00852438921707005
956 -0.008826322590941916 0.013272760581680473 0.014002061950506333
814 0.00924021275430206 0.004343944418242483 -0.010844369199307197
812 -0.003468866074682779 -0.004384006742290251 -0.004517160822468008
808 0.009942769224685958 -0.005877881844529856 0.004978374148278907
324 0.0021431061884362853 0.009908893758928087 -0.002240047227840069
67 0.007415435873002189 -0.014549855392637276 0.017226378640880224
9 -0.005951573513328074 0.001758896945211251 0.004626897052775841
805 -0.0064524025986188085 0.009384426389917478 0.0062726298149776
777 -0.007037529350004292 -0.0021162900455487274 -0.018921025572465
69 -0.00952164279641776 -0.011969105893336399 -0.006532231770310296
772 0.007973964703832069 0.0063203030845342045 -0.005529424316991415
778 0.018493814448684347 -0.006393027017205601 0.0017715075565064636
593 0.003154094213312763 0.009815826774446128 0.011910440577054794
1065 -0.0003520898102420032 0.008760802718520762 0.0014497779367478605
952 0.0018814897738064745 0.0016426996241158962 -0.004931295339338229
958 0.007095106320281317 -0.001420777696443244 0.016835097742254748
957 -0.0032985921457904526 3.337675364716827e-05 -0.004870780205995844
803 -0.003957504277227889 -0.0008652871501963892 0.0033249532585967207
950 -0.0024715776385039476 -0.004207676725002031 -0.0031163930861699803
776 -0.01044061042591696 0.0019460494201335914 0.0009501251964346073
238 0.014861512003776528 -0.020676832402695196 0.027639477592998694
301 -0.0018300309679330773 0.002678454079075785 0.0015117098463265106
195 -0.00039430689815933323 -0.001464412319888343 -0.005745247333407968
302 -0.0006951007218843012 -0.002699205024344924 -0.0032481462922295994
393 0.012878875873178855 0.010539500836376026 0.018616656756716143
387 0.007985930115478464 0.002062848919525062 0.001804635417607788
392 -0.0131415590775898 -0.0129421605868631 -0.02730624314374025
388 -0.0023891229769365434 0.0012123051880183634 0.00577934016971956
384 0.002773908302075933 0.002525667026356255 0.002080164198172184
385 -0.0012969252477516902 -0.0018748611634646815 -0.006857307660852947
394 0.0018192896774666797 -0.013043578318606907 -0.010734982840346845
849 -0.017176215917432486 -0.017114740143726975 0.027179209985174868
386 -0.0005297824380193263 0.0008964482528331114 0.0006170610008525233
850 0.008693111138321259 -0.00447681652148654 0.007351056050791594
844 -0.0029857829741524585 -0.0031999350752598935 0.0019648927771637494
848 -0.018172531255601993 0.002023658617407892 -0.011898434765828608
843 0.0028637740810156143 0.004800598979790312 0.004296229340001464
1062 0.003931103816781537 0.002077364439942509 -0.001226084897003112
996 -0.0042806997248705765 0.0020740082914714707 -0.0012990759562128175
413 0.0079351105034014 0.017009135417072357 -0.008991146192108739
306 0.0034370782446048118 -0.002468883059685044 -0.0015781641748574254
304 -0.0014896234707283628 -9.310430107515155e-05 -0.0043782151776514955
305 -0.007162230032986956 -0.0016278384456070135 -0.007009669079082134
219 0.02282726679947375 -0.004935515406930609 -0.005255253208923739
590 -0.004487799816569159 0.002077447981760192 0.002670501679854033
117 0.007659482642974118 0.005929106839165101 -0.009138013637502437
1064 -0.009872951578292613 -0.0020112130165337613 -0.001000548373280777
414 0.005710463290075172 -0.020429742572177778 0.013444739266399492
407 -0.003707181713964583 0.003680864192830907 -0.0021029884975117367
415 0.010060721144992 0.023434359992298964 0.017798722603821433
408 0.00542834996196085 -0.0032033083385778582 -0.0005683553681937472
303 -0.0031704122053132426 0.008981049869359811 -0.002240573202712737
1061 -0.009015324614799385 0.0034154121444893225 4.823927917803621e-06
1063 -0.002375327958282918 -0.0013914202382498998 0.002216131033376036
119 0.002581894747915799 -0.018342266320416634 -0.0156893417628267
842 0.0016841345319357271 -0.0016339850256754443 9.90350934044377e-05
841 -0.006112197019178264 0.003060634403949219 -0.0018029133254886776
383 0.0015568339309372616 0.002787440429443946 0.0012030699982584804
389 0.024755566142568106 0.005389484441768145 0.0014165785210438222
390 0.023197091776694576 0.012513579178661506 -0.01918392652317804
1060 -0.0028423216647957502 -0.0006209383571706334 -0.002426296806020813
840 0.0008120723059594644 -0.0002265933456231537 0.001313374853473479
220 0.013072615641530186 0.01474246088701043 -0.01536152162703049
212 -0.0011185953712565231 -0.006904492647933947 -0.002829439961342559
589 0.0009448890266805925 -0.0008931560264694135 -0.003054962130204115
217 0.009881216428498409 -0.011864554964822333 -0.01475149493830391
459 0.00106393140490768 0.005669447707919036 -0.006467624683833491
438 -0.004061731012634283 -0.00419906973139535 -0.0028099759044988674
464 -0.009596162660866605 -0.020547202285219102 0.004359037131053862
2 -0.00871163356832142 -0.00042913531455485284 0.0036675149689158687
437 0.00848434495945139 0.0004504097477792588 0.0028135952372304713
456 -0.0043935623212909 0.0007680147572042095 -0.002006945844117821
457 -0.005561540405832116 -0.00944579629767472 0.004135014652214516
8 0.013080880351803633 0.0025788552206089718 0.015349409380089041
462 0.01444642453357658 -0.0117853134455687 -0.0009018090145148159
431 -0.0015182412871756995 0.006833646163825621 0.0008551944206727879
455 0.000417167900077287 -0.008741170154857616 0.004119795960096481
461 -0.016160829331993237 -0.007915774182965898 0.015142780290009669
458 0.0007833427365358141 -0.005873866001358891 -0.002604958679189863
463 -0.016390436876488484 0.007473094342759079 0.003277734506873929
433 0.00016372499387148443 -0.009432009853639668 0.0011950115974630703
995 0.004863167877277188 0.0070051140172618966 0.0011539699285193256
434 -0.004667476079647736 0.0026800004571362634 -0.0017436372481521123
440 -0.0014226540953127926 0.007351719384841536 0.004963145920136648
285 -0.008200794680233315 -0.0010835987141332593 0.0036466947635139624
442 0.0070207005031442315 -0.016218747422364725 0.0336559478844377
436 0.002746261177966761 -0.0007223686588970153 0.00826616604789591
1012 0.00027915429875825716 -0.004033431414961405 -0.0008723058601174749
1011 0.008243607578630071 -0.001776858422006965 -0.0008179981182776623
1013 0.0003080461385664636 -0.007326300750210776 0.009958432949560364
439 0.010652860902466678 -0.029267167188944305 0.01066335433234938
686 -0.00152464309054203 0.00845891473423816 -0.0005411270181254546
435 -0.00014512335401397546 -0.004685303121837528 0.004283343686703558
432 0.0010540109014699564 -0.00261848746796436 0.0007099243410569067
1010 0.0019324676837087485 0.003322933840064484 -0.004847390608554104
1009 -0.0040940100979652595 -0.0008131960834183544 -0.006223779878587275
508 0.0015962167584747536 -0.008788952906385903 -0.0002648735154194581
513 -0.001026449046559996 -0.013810600901609505 0.021578186655703612
512 0.013293755006555743 -0.00502964186524175 0.01412282837747026
694 0.01587044950936797 -0.002665024535111975 0.008649083955892176
693 -0.029850925345382334 0.002839573347792692 -0.004880372168629304
283 -0.0031811951859210216 -0.005352831163727362 0.0013892446004629996
418 0.01062136005268615 -0.02103272880469023 0.01196808784849598
411 -0.0012496535974439436 0.0053310121139389845 -0.004335558146647091
412 -0.0027185997015672717 0.003816431679790738 -0.001489158122803167
10 0.007514530494019742 -0.008366614683311712 -0.013177992157180787
284 0.004859433918434535 0.004042497370315786 0.005202308933928304
416 0.008094175329745107 0.011228542797180724 -0.009081700479515056
506 0.009205088699332311 0.0013424521741830001 0.0007168385212990107
931 0.033064422447949854 -0.013104919886803065 0.02196690006861824
441 0.02626842128103823 0.0008367234314769244 -0.01280593406236007
926 -0.003972981186313993 0.0010940768708472342 -0.005327673019087394
488 -0.01895148441405468 -0.009372801877218263 6.600978440286353e-05
484 0.006438749691331239 -0.00439540446730963 0.00014664921057470806
483 -0.0049337623952240665 -0.009257442802233801 0.004938793407173369
490 0.020576626331123653 0.02511721722668463 0.01349482004776202
741 0.02105181338628461 -0.013958612725435887 0.032549166293765676
481 -0.005973123465167437 0.0032941882121607733 0.0004711221883339866
482 -0.003855570574675696 -0.0033692596099202873 0.0016554128094040232
480 0.001744383666706571 0.002312981888104898 0.015227422329562739
1054 -0.00011734791417848775 -0.004231778230363253 -0.0032199432285537188
736 0.0016616577755960201 0.004665022735322369 -0.007162113529768777
740 -0.002089077968168709 -0.025188008886377032 -0.013318550302747189
742 0.006518927516641562 -0.019054769342149034 0.0005121025811703156
479 -0.003592531524503099 -0.001125966664505915 -0.0024110859147971233
485 -0.00386647095353093 0.011951181546926521 0.005457426101285887
487 -0.025012812732859553 0.0438102634008786 -0.003570817518340723
489 -0.0004709810366741096 -0.021409423377245686 -0.009585996723266738
1053 -0.00015028354961223243 -0.0008210814583078784 0.004236492379860867
934 -0.002126940595378275 0.0017154344755901134 -0.025238570192697526
1055 0.0020430169127656833 0.0026992166597980313 -0.0020316131289210707
735 -0.005949359657647504 0.0005185779204882029 0.0022266362207494115
929 -0.012527474110919843 0.00577969940442752 -0.013233347596898024
573 -0.0034794894938852635 0.009705230830869185 0.00500902668909504
574 0.0047644847136676235 -0.013577392022065626 -0.02286640248876105
928 -0.006637478942090841 0.008361926386586536 -0.0020131124962773196
932 0.008604930329829825 -0.0027425930216867797 -0.0036133179977347026
925 0.000945904970999826 -0.0029538154637397613 0.0015450444287222788
923 -0.0008503870703032749 0.006371330176608616 -0.006667337077918353
930 -0.0012210724931217482 0.010619301034710784 -0.009398014561673381
572 0.01366410216402484 -0.007092143858023227 0.011235578074601356
568 0.0034259824101346517 0.005702563230480992 0.008147692231734366
733 0.0034295410435390564 -0.0024131942560324912 -0.0032649135301113497
97 -0.008309630534663494 0.0065985902350620875 -0.01618060172654554
409 -0.006482134206840155 -0.001084113390490165 0.002252916197135944
290 -0.02881730451817821 -0.015681497330217932 -0.006742054370673595
486 -0.0013285868107938206 -0.023181774011710236 -0.014267595632299866
1059 -0.006824253726751173 0.0036374315927536613 -0.0026553348553300365
1058 0.0025124483287036993 -0.000262560805783534 -0.00854884443068812
410 -0.004919747629195035 -0.0009945367792094212 0.00443686949734245
1057 0.0008990955847400958 -0.0021961066547881115 -0.0018790855668530957
282 0.0012600053481023497 0.005393053617689484 -0.004441042603872142
289 -0.0027029825797322353 -0.0003673556013605256 0.0019226667998605675
1056 -0.005527917061587079 0.004448048685368086 0.0006302591737818787
286 0.00033196053969382204 0.001040316985336316 0.00219535407310073
281 0.0001642310433948876 0.006554483776733691 -0.005820785266977225
288 -0.013793992998579937 -0.015719768834952415 -0.008238664382221634
287 0.025728761816468618 0.021102964382204405 -0.00037599916769377566
12 0.006028542387221056 -0.0006039314324759488 -0.00048280563583744866
19 0.023480641576267506 -0.002934138372514947 0.023286203063089577
11 -0.006402355966063306 0.004455682810101672 0.014716848517188274
800 0.004875176161015723 -0.003898052902536458 0.0017493036239305656
20 -0.003463563146007249 -0.01052147614375705 0.0044985495856212435
14 -2.043847156653442e-05 -0.0021568898183616176 0.007411486364229863
17 0.01995883317727771 0.02348604484920784 0.016227604162121115
16 -0.005093204223045401 0.002511039941132962 0.0011385999532040557
18 -0.0012083320842133016 0.021914864035053876 0.019610031581871523
863 0.0024159189066444765 -0.0008746457353849921 -0.00569302659384565
870 0.0030719303771869406 0.007211775260637708 0.0018512484837237288
866 -0.006245381996097669 -0.0004328900981565801 0.0017552876466720821
869 0.017479231205258718 0.026508456052011933 0.005998085224383709
874 -0.00021385943860137858 0.0019261437440235571 0.01133993792692512
13 -0.0004472399481258336 0.0002746744630614726 0.0009201909102311345
865 -0.006743046112486954 -4.454771055098332e-06 0.0004962372184222815
864 -0.0008582025981971715 -0.0030888341473710983 -0.0056223590858596045
871 -0.015703784897650123 0.009813205841927597 -0.0334371021584452
268 -0.019958369502193762 -0.010710418119373547 0.022366809694040535
15 0.0008788496277140762 -0.003564589919790022 -0.004326453710591399
796 0.004660560785786032 -0.003236727451564823 -0.009195365867843365
801 -0.008275611767445777 0.005518400494260297 -0.009779596868662395
795 0.0023143760831823095 -0.004114302065339703 -0.008051915581621131
658 0.000421249146401403 0.011626468105931527 0.012138596873657719
652 -0.0005074718498420015 0.0038676617009262802 -0.0038871541237093083
651 0.0008312973836152251 -0.0032012076027296 0.006451479006742196
648 0.007405934166620153 0.002846077899984053 -0.006764907374507688
649 -0.0028874745899135617 0.0019931462797866447 -0.00160470484004271
653 0.019572851078476766 -0.03132109856503559 0.014421258877991335
789 0.010977029485988747 0.016374761065003893 -0.008437195333619172
514 0.017322846591550912 -0.006380594139439992 0.00407361934040575
650 -0.0019969145658384545 -0.0034029457022293247 6.0556999370542505e-05
656 0.007374802503739724 -0.004588753356221671 0.017541890667494033
647 0.010316030948310562 0.0017370550066849795 0.0022049430679345018
1008 -0.0036175637466725175 -0.002122764426247188 0.0015976265843275805
1004 -0.0033672710101736404 -0.00930114480378366 -0.0047700098128115025
1005 0.0038120164393878222 -0.002734596233010065 0.001014438598247985
1003 -0.0010235009004422092 0.0005838139991183504 0.0015668885003311502
838 -0.004790061451026002 -0.00521235546771206 -0.001206746955332458
831 -0.00561391598886268 -0.004432521462860528 0.008697216472935242
837 0.008738911870553307 -0.005239736052589364 -0.007734583020834504
832 -0.005876380449739895 0.0069659196131261324 -0.004925929309427621
836 -0.008474809771319996 -0.004598795984908732 -0.013432232203449386
829 -0.0030460799305425585 -0.0020780690177513352 -0.0014396471284885564
1002 0.0015138228511074633 0.004017460518829052 -0.0027643922964599842
1006 0.001680536050148117 0.006907912225056273 -0.001009117660016122
1001 -0.0029351574838150053 0.005047592768740865 -0.0021287745931984725
655 -0.0040033266298315825 -0.007952152079138634 0.025652019995621854
27 -0.01815170789634404 -0.01876132317494552 0.01978804922238992
642 0.0054026434954500815 0.01247384534826626 0.0015832446927441964
635 0.006952711125989581 -0.0050482433368037585 0.012987224583135738
641 0.008295481110196814 0.006697307486609057 0.02443424336294713
29 -0.008561890978272185 0.00341811784036624 0.004263301660007998
1007 0.0010667934655674894 -0.0055715521283418905 0.0026594571539572823
636 0.0058100681634263756 -0.005648771982199433 0.0015022702593869286
643 -0.02845971508900009 0.025459466757710495 -0.020818266660471672
400 0.005271260054468383 0.006855665846437993 0.00021775390078028717
30 -0.010162797540236433 -0.020862007289022884 0.017404126711918978
397 0.0014019545473049305 0.0005542736832732792 0.0010028344279840555
22 -0.0037375996333672496 0.00028991699607578206 0.0001052432516393697
396 -0.0055331167768849845 -0.004293562627916677 0.0014294710009444705
638 0.00023953099197901174 0.0008290433064069591 0.002037677219119296
637 -0.003648079873598784 -0.001562920872310505 -0.00255855664407016
965 0.0010582545890367567 -0.007148591829250511 -0.007685809390341651
270 -0.0017117091462283932 -0.002778941130908677 -0.013168392945361899
326 0.001563533797212583 -0.001738391586388845 0.0038615739032948327
325 -0.0009504717108174519 0.00273912024397866 0.006565893287291056
401 -0.01352670385260079 -0.020305694614743852 -0.015297507908437289
403 0.006554727607005883 -0.006135054295059994 -0.003743077261876694
25 -0.0013932389664636654 -0.004474748388326812 -0.0010828141819172869
26 -0.0024127335301870776 0.0016744251990898579 0.0037354714048716173
666 -0.030282368018895355 -0.0020434476275974197 -0.005698429899646735
21 -0.005890646551972237 0.0012027167997217803 0.0017618162162566136
28 -0.009794645421526336 0.03649378359158875 0.01588654585454473
659 -0.0026237970953268902 0.0005580258792897871 0.0031488605275695972
667 0.02025276566863517 -0.0004775301646164076 -0.013702930612355557
24 -0.0008390671995490975 -0.0041216805958029165 0.0038926440338843465
660 0.0005858422757649442 0.0019671359356076574 -0.003870781941058043
594 0.005434557453186753 0.003573915957823338 0.026571087373556762
665 0.0030299656689226134 -0.0183285337358773 0.021688118583661306
663 0.001626838685041614 0.002058090310842789 0.0021896303947484186
23 0.00024889827189438613 -0.00039534897921417373 -0.0028758272134588544
661 0.0003236997841603339 0.0031028206919308738 -0.0036102630563115395
583 -0.002147944559060681 0.0267349574651658 0.009139760958725167
398 0.00013362621346797154 0.0032223748377459313 0.001540679360280083
327 0.0023896932754639126 0.006370930519598215 0.003970332672574433
582 0.005273748529676255 -0.01837235373081706 0.02213904837090397
575 -0.0015027941480248914 6.8941665488299e-05 0.0005424146782172727
334 0.02746709616109293 0.005829272221777062 -0.0052930719153579655
328 0.018164125827875424 0.006924410067588238 -0.0006559014913949838
332 0.022070122894418 -0.011102572998816724 -0.005153706825565489
333 0.016550924817101704 0.025253140261406147 -0.002118204908681506
395 0.009812580198279748 0.00512856655615197 0.004319181029287311
402 -0.009603528578058348 -0.009693799873371997 -0.015638270121838806
662 -0.0009623125210120836 0.004343435660239206 -0.0022914002823066475
670 0.018170550860698957 0.020800472499279857 0.00339880965245305
664 -0.002597197567587972 0.003949731796808431 0.004792804275549832
882 0.0031019168183459315 -0.01249450789216144 0.015005919875713774
993 -0.009410029751511053 0.00829538731133411 0.00039434575008022617
581 -0.010716863761721663 0.022151702167693067 -0.015588025394111565
988 0.0037985193564390816 0.005333510000608874 -0.0012102636708408387
587 0.007102617276599486 0.0032322593535718145 0.003074230781232569
668 0.013417464670218295 0.00774224360563899 -0.01829955040914354
654 0.0029437890481736223 -0.005329867231354761 -0.014675155087236292
525 0.0032601918080284544 -0.035925105290033815 -0.007145250566391238
868 0.0021463043879719514 -0.0029262653055548695 0.005254531285855064
872 0.013697176133382368 -0.0050998013536052295 -0.0020528019655489853
1051 -0.0006204228329946097 0.007768947032966805 0.0035372201891195314
883 -0.031402997191556585 0.0011534365910844634 -0.04321784166042634
875 0.00023003169957965636 -0.0001750756286450658 -0.00029494012424994697
595 -0.01238055065769653 0.009622842626173307 0.014581854282345229
391 -0.010395888676890182 0.009263942751720803 0.01166916002731679
881 -0.00647371609465824 0.01609075730818135 -0.006776284256630834
867 -0.003306909034746118 -0.0023478950121722285 0.004347490478547082
1046 0.004805685483492404 -0.002450555191805544 0.0008370660165994332
839 -0.0017857897618075132 -0.008187060615733755 -0.006722195778600407
847 -0.010786831890037 -0.017911083782143955 -0.015058175486125874
846 0.0055073546624656786 -0.02788365061831785 0.019917388173492662
845 -0.009797458028308684 -0.010042643657096907 0.006731413570674319
877 0.0018119502122899986 0.000787180262962296 0.006371217901185943
1049 -0.0007971317284702498 -0.00024261280410696646 -0.005580811961979641
878 -0.002445110599590827 -0.00016380103131930304 -0.005025458503202032
1040 -0.0058859083186985316 6.274933263039043e-05 -0.002408202082012679
1045 -0.01036300804377422 -0.0023654612507784606 -0.004756070199672564
1044 0.002392894167447653 -0.007797594698788695 -0.00361557205400355
1041 -0.0007026621681451 -0.00308880754750424 0.0017492609452664394
1042 -0.003895058703958992 -0.0012056116806221943 0.0026938831818676717
1043 -0.006386159157206442 0.003937454403536648 0.001743485323684096
1052 0.004853749855329061 -0.0012419087660187423 -0.0005022627368100826
1050 -0.002934606611405066 -0.00029315802064317105 0.0033478577980428476
1047 0.0059207800532941396 0.004733873931917376 0.0015041900340452112
1048 0.010947512858887624 -0.000313190827096947 0.004298577936597234
886 0.010353692485300521 0.005502580443928661 -0.01616258252684692
876 0.0015175960904549829 -0.0004485634076782371 0.009473689676992272
753 0.004797003498417393 0.016835267672064936 -0.019391003247370822
714 0.0029592546034479627 -0.003735506787104966 -0.002832936119880054
267 0.0018546555267424645 -0.019395970452381443 0.008030285116704446
588 0.0001907352750520818 0.002193322980511587 0.002294708493220368
752 -0.00589983750372944 0.007407840320192784 0.026186683538414766
239 -0.009154407195604754 -0.018213476104037337 -0.0021213313790581323
404 0.005394646795430391 0.028336817809284116 -0.0017987873927512524
232 0.006570877584891219 -0.005327066492418115 -0.008180961123770262
234 -0.008462435538639092 0.0015660094544060023 -0.001517642401541187
235 -0.0022028733846817406 0.0008562315279632165 -0.005456690845360508
722 0.009746766678799437 -0.0041858442532449035 -0.006303241020067309
723 -0.009314114632656108 0.002997639081000521 0.006386443532160346
729 0.02716494976595324 0.01825787639687131 -0.005860680207330263
854 -0.0032717477848645243 0.0029358377570297012 0.0015901930416397185
233 -0.0051078729145711725 -0.0009976439889822061 0.0005365407181559686
853 0.007447916536805948 -0.004139867360492466 -0.0030415489196680915
859 -0.015879050739478196 0.017783151378290295 -0.0039422286157234756
857 0.0007459989678236013 -0.004075678638200518 0.006649032230633333
851 -0.0003960165558584294 -0.004442992047073451 0.0018265291781065615
858 0.0250342315388182 0.023501925996356313 -0.021287674117636057
852 0.0008204316213783512 -0.006104263759618818 0.006387163528599385
953 -0.026860459794755796 -0.0057167979813721554 0.013439251874893933
468 -0.0007166964010316862 0.004362753012262921 -0.008009107362462235
469 0.01062202969941175 -0.008902909255605622 0.001901827447077611
467 0.004580419450968902 0.004671975700191946 0.000661270748586218
724 -0.008027455414141484 -0.003945996951031584 -0.002303956821636654
471 0.0022538143336346787 0.0030148058782126204 -0.003977066060105514
954 0.0002060859341230653 -0.026386356381977095 0.00082253882055933
531 0.00043531572622923227 -0.005393695356720542 4.902425091522517e-06
728 -0.008110583448776213 0.024437904450080355 0.005851429746662527
357 -0.00014806262522576381 0.01033553319760601 0.0044906667047199065
475 0.0009247221166627734 -0.030557705147659136 0.003293851943446973
955 0.01620923267273689 -0.009241900351986305 -0.016502197224068114
947 -0.003112290154851072 -0.0029335697257672298 0.005370597941884296
474 0.016846658809984608 0.005562781545446763 -0.013377019035224022
473 0.010885767046520067 -0.006655287919310314 -0.01585714640372061
730 -0.008540170036368406 0.015346031363943566 0.006041700327537293
48 0.011161051747151712 -0.0014569040856758212 -0.009667840861629088
352 -0.0009794930573758676 0.00359532169045859 -0.0014621098310937826
351 0.0024423090031669833 -0.0009597786453263827 0.003816922278717363
356 0.0052987289747789944 0.017142817741752515 -0.02264394739113995
855 0.001245868788433174 0.0017788336179436442 -0.0023961559903089642
406 0.0068708709754849795 0.0011748224067481992 0.008711200089328599
537 0.00025500133283361866 0.005218040441779012 0.0030493276359942643
532 -0.0029648165861179457 0.005402197367042939 -0.003064496200899259
536 0.03690488312760706 0.02625378443554483 0.004103339622448655
811 0.0037597027134452458 -0.005233274914336495 -0.03003868516552889
951 0.003504734397249673 -0.0061437009777815296 0.004506481978667016
50 -0.01369744422721483 -0.023267315532598823 0.0012479436945446957
810 0.011309625397131885 0.00794850468936668 -0.004261387621673855
804 0.0032304093788133367 0.0012829148817068573 0.002195768555507626
807 -0.0038406674112432164 -0.008127030219415203 0.004549734731196631
948 -0.006790994730379959 -0.0020030978241804614 0.00750291805084705
949 0.00816018946755713 0.00019920883266310273 -0.0020904693804805305
361 -0.0035093411439009246 0.006067071858629663 -0.001237096310254052
103 0.0014197515689764783 -0.0030987773471623224 0.0025330296777844787
102 -0.000711543057735738 0.0008707178361180263 -0.0030986212385986124
107 0.0037814998657366206 0.03117028984452079 0.010341099998841459
101 0.0069762305098674945 -0.0010975705939774306 0.0035452998783744713
110 0.017126263629529587 0.009720540028186281 -0.010819091466746889
108 -0.008073281724575748 0.00994982348329216 -0.003518791533766581
106 0.004946772844857904 -0.002884465615061371 -0.007233693452714752
104 0.0034294714399063573 0.00626139837598577 -0.00018375177472301372
109 0.015020800122603794 -0.04535972835040305 -0.006369539594428448
105 -0.0010030325024578445 0.003090378157090086 0.007458044284533564
362 0.005955983070824646 0.0055994800424218685 0.005157112613708897
359 0.0015080521615545486 0.003178091383018003 -0.015402965454550532
360 0.003466153853737539 -0.00573467577306995 -0.005011617219495572
1027 0.0012105545610664233 -0.002871133510647794 -0.001170225700599235
367 0.011631246174084422 -0.005342930321378538 0.0048089452524068465
1033 0.0012204567860236329 0.003746116397385716 0.0022962064882787437
363 0.001069586515467912 0.005737350134240703 -0.001423383944644514
538 0.003002729951018834 -0.005751985891526377 0.02718316035074281
365 -0.007599282235303339 -0.009687989499792965 -0.0051487506578414876
370 0.023774902424455964 -0.017479248669289987 0.00404887613025125
369 -0.00969484328694117 -0.005983252548433789 0.026652567210965827
364 0.001271706403275146 0.00013738308076507327 -0.0022573039778831087
1028 0.003001394429789095 -0.003668669700906654 0.001695525204039594
368 0.005412453910193037 0.00979217634020017 -0.0153644141479353
856 0.0035108505087698754 -0.0010162336567265736 -0.0014721410589194966
860 -0.0028942941301568943 0.012929885372617219 0.015591265377189275
862 -0.008329153924721602 0.02313504115949115 0.004105930977867005
240 0.013154466921843256 0.03591187546568849 -0.01330292981088196
111 0.0010898027827866918 0.0028471312618506463 0.015304384230086558
118 0.00015477901645468903 -0.0011949091730801891 0.030427306462541572
112 0.006456205274047258 -0.007461703442936854 0.0012993871197144124
120 -0.008621087156941678 -0.018392948697542082 0.0014110560279758278
199 -0.00951851146128584 0.0182734685987402 0.003993454885153366
90 -0.004648028350352591 -0.018009204172461178 0.0064290653175362944
82 0.00759172019734067 -0.0025669685040943684 -0.0035498804784948983
89 0.010027912506537178 -0.0005382260064062351 0.013459389601263312
116 0.0020047525892263026 -0.000449251177647671 2.799881564684001e-05
969 0.025973572569778777 0.004494762443141491 0.015887952529280026
964 0.0009670953913700349 0.007702304722344719 0.000794744441252933
194 -0.0015538161148053453 -0.00656630335863375 0.0013632650577513929
192 0.0077644574043423745 -0.004028135829561249 -0.004499569712908962
193 -0.004491910555539717 -0.0025853894078958573 -0.005791913790651299
197 -0.017110967575585275 0.002990639564673824 0.011318708441436403
81 -0.0010622727695857811 -0.0068884263288783755 -0.004182636346991363
970 -0.015674039119383264 -0.014819591047507928 -0.022109348207816872
1032 -0.00266113203144518 -0.007079677697027346 -0.004206310860088161
113 0.0011939784754572834 -0.00027193841263782056 0.0002763021265860348
114 0.0011167099560966739 -0.0038848432258769315 -0.002944390382491638
115 0.0028494319361357873 -0.0011086377589517205 -0.0008275010896056394
501 -0.015203198163471337 0.014793498177230312 -0.013208788438459535
200 0.03310718623195802 -0.01741220124720186 0.015824786969971884
198 0.034061482871530525 -0.00919030633452386 -0.0034021150774495214
191 0.004679522181887136 0.00043659083449901627 -0.006192210611499725
1031 -0.0025064218519486184 0.0004741999818276788 0.007672731389474373
1029 0.002073477296471903 -0.0027210514872583066 -0.005832320191930666
1034 0.003544917705198938 0.005271246274486137 -0.000528405116020105
1035 0.00040332226525508565 0.009343417845021724 -0.001222417881306408
1037 0.0040631307640145164 0.003546797009456766 -0.00023383667587106795
1038 0.004890433550568238 -0.004185050525413251 0.0023333546397807914
1039 -0.0025443489784841905 0.005935141973029478 0.006450661222205736
1030 0.002947559713127784 0.0036941838850595744 -0.0026060856702163544
1036 -0.002187052302693175 -0.002241788100295042 0.0018153162014407287
128 0.0018591228435439352 0.03234198540915009 0.013948410943811862
196 0.003961361342276823 0.002013898065919476 -0.002802031431924069
317 0.02015652989921772 -0.01672047186531521 0.014429829169162729
763 0.000929084156712944 0.044125246859043905 -0.014779080150195245
762 0.02262496667568978 -0.023259241351333636 0.0010655468865613047
87 -0.007693855738666916 -0.030371660646262767 0.015077881268087144
126 -0.0017914873004598463 -0.002072417503687248 0.005725454815004628
689 -0.00310521764545772 -0.013128546085499793 -0.02125913409340827
688 -0.0033647499321168266 0.004040816083355953 0.004555099096034235
691 0.009569548609574114 0.019407022980805076 -0.017457448943090422
685 -0.0036340651155868714 0.003825817255110532 0.0018900134058951706
683 0.0030059496460855682 -0.004466053141240798 0.004320468413935346
476 0.00893266766905644 0.011576140094875884 -0.018284679198536526
45 -0.00930707120835534 0.0016704714041766947 -0.0017873543960709008
44 -0.001432330096900062 -0.0008232345593303827 -0.0023041038145055898
46 -0.005317094478967377 -0.004591674286185328 -0.006448115993904791
690 -0.03030049777330612 0.0005666888019153526 0.0183170662916943
684 -0.002002167422367097 -0.008657106901020317 -0.001275184247776753
320 0.011794945183724148 -0.009967631231146766 0.008166360896023997
322 -0.011724578911051848 -0.0264610847390739 -0.012343256284731707
687 -0.0018170058903014057 -0.002453393699606755 0.005030131400421768
1077 -0.0011065398953487788 0.0045147445438809 -0.006643874059835753
790 -0.0037543009521934286 -0.0053894912128293615 0.01960875880269575
783 -0.00011834760057007456 -0.005617951947393142 -0.008044850049530169
781 0.00012422570557125105 -0.000184331288941442 -0.0023794238510090075
321 0.002057840415458787 0.009982113189278144 -0.015326787472420018
316 -0.0034078685081009637 2.6089133887354952e-05 -0.003909631500780417
315 -0.0041846791280028914 0.0018557885558313583 0.0003251116178415712
1076 -0.0038180959373673566 0.0027506511148619878 -0.007406928472920607
1078 -0.0016363576661268045 0.001291196324843254 0.0027948451792010206
782 0.0049229333004956995 0.004139695160447912 -0.010756129374639196
785 0.025138711322352073 -0.00855389995351946 0.011059339130018563
918 -0.011291933855431811 -0.034767821480814275 0.029328303193694453
780 -0.010547260165201645 0.004240184579774221 -0.003937476742023156
779 0.004352241311590887 0.0015283608707221564 -0.0014115013530976287
786 -0.004668664022073101 -0.020326343106353298 -0.014843324710592609
228 -0.00888368027008527 0.0030365439850734022 -0.03613634369834623
47 0.011892133258585597 -0.017849414605220763 -0.01235367650303669
41 0.005054648954678399 0.0038223237485563283 0.0022131312703748815
692 -0.00517414510728628 -0.023184359522562415 -0.01557109921559673
787 -0.0053085705480099945 -0.030381210208150065 -0.02511264423912283
226 -0.0013926880209050802 -0.0031293989145029354 -0.005091872072369447
42 -0.004390266596657572 0.007683389114548958 -0.008343292715480021
43 -0.0023312016991964587 -0.0032795563222492437 -0.0022694975229189
313 -0.004733272735210047 0.0036926551923778315 -0.014501440048226054
312 0.002619216782087671 -0.005573495053475921 -0.002306756345264665
173 0.0017671531730946684 0.0010970811911230503 -0.0006099084758656909
917 -0.0010274496510497683 0.014998573922782091 0.00041690817037400474
911 -0.007199684345742041 -0.0025232683335804913 0.005167438724759275
919 0.0016026962201754627 -0.02042544812383829 0.023334851424928683
280 0.018237118965550136 0.018002063472419356 -0.007144131696753758
924 -0.0003849350617674827 -0.004303462158616187 0.002277315809777046
927 0.002328348566902146 0.0008628172102985418 -0.0031769971094879074
230 0.004907245778645176 -0.01157225545784964 0.0028381783275242944
933 -0.02991962460278328 -0.007323425018387668 0.0031772696494590663
221 -0.004336628011228886 0.0026349457333458867 0.0011896817514059415
222 0.01096652293636306 -0.004594492871298921 -0.0034519781225899756
223 -0.0034105975580975083 -0.003384287359327949 0.006024383911212478
229 0.014997023435035185 0.018280543535988212 -0.028375981453630652
49 -0.004977943909706781 0.017559292318367326 -0.016709893977212124
224 0.002380474867362646 -0.0061767622855073805 -0.0007186615001351576
227 0.013711296926683911 -0.005332773192213224 -0.011899853619686956
278 0.011881281010468356 0.001477991133569305 0.02835493407178506
160 0.010595654827420187 0.015741437527757786 0.012621250575887397
279 0.0059331609424130355 -0.0010825012734629567 -0.028742843124730123
272 -0.004876652459484698 0.00678170496354725 0.0030597971953614076
158 -0.00883576500548916 -0.0015421165625946142 -0.004622350729230323
271 0.00208884069609111 0.001700974692419784 -0.0032632304094109103
277 0.012203414027882198 0.01420378146441979 -0.005403849601892675
276 -0.005936381596139446 0.0079212385182463 0.00202358884292551
152 0.0035810893655456796 0.0080857745113959 0.0023423680407404935
151 0.0007394465685668362 0.001190316937677436 -0.00657088402002683
156 -0.002187876225725893 0.0037949414279921235 0.003167429512764252
154 0.008040771671153364 -0.003575739790800234 0.004578216864782337
1018 -0.0022078525916836896 -0.0006316914874278125 0.001779351186079313
1019 0.0036655849803576123 0.0007505270637267582 -0.007069735758604529
1017 0.0016263910271937692 -0.0019041157891545694 -0.0065620922506370895
1021 -0.00540995829591995 -0.002206056969555952 -0.005908063814461757
1020 -0.001546647370718328 0.0024597724609675764 -0.003784112282767977
273 -0.0036253976761962134 0.000635230962972482 0.0011693677764802453
1026 -0.005301480445994761 -0.010006404378453035 -0.0038992967802700036
153 -0.008406428618094233 -0.006418643135746554 -0.009230707728604085
155 0.002108003194435656 0.0030598148385874812 0.0005083110647774409
225 -0.0009739151436707953 0.0004130282648158885 -0.004060822289139867
274 -0.0006711727500002247 0.00023097467521203106 0.0025704715540417053
159 -0.012104644001894531 -0.0007977131194837088 0.03241323729242113
157 0.0015585303187287641 0.020168910673058697 -0.0059820808943080155
680 -0.0007721085543329767 -0.011798005464315937 -0.02394643499875487
676 0.0020681363442958123 -0.0031499838468158304 -0.0033794098936094394
681 -0.00936279996533971 -0.02274792920733941 -0.02610378223910993
519 -0.00048526134431200606 -0.00017879316909779415 0.005784729072657561
520 -0.007320633140477899 -0.0063026668107903985 -0.01061029564008028
311 -0.008287977162912505 0.006599758775100865 -0.002922509875963257
761 0.0003895941021836313 0.02593197518390606 -0.02784168037419953
755 0.009611797961858412 -0.0010205916441557005 0.002228912079817758
319 0.03737366219684998 0.01567313690178513 0.00605104071639559
314 0.0013412721343485767 -0.0034878394782725626 0.000824933539814692
758 0.00023421064835194404 -0.005783985402549353 -0.0007486548116472644
756 -0.0033659021003535194 -0.0013561017228046373 0.0009710937171844538
207 -0.000491274345686396 -0.0020378967030264244 -0.010600659917286398
209 -0.0075583818754978395 0.00956875101294459 -0.0034471859100712633
176 -0.0027026162578174698 0.0017236646830237113 -0.0001698400769572084
174 0.0009785836631068467 -0.0026502270478328737 0.007232998105864854
175 -0.0027321331229516704 -0.0005248391982521643 -0.003526147964745765
523 0.011317536725688287 0.0026996973004904455 0.005655687408523467
518 -0.0044543292774707815 0.00143289899028771 0.007139994102914709
517 -0.007650707459509654 0.008683763650623604 -0.000902943145739437
516 -0.005554976467153158 -0.0009348865801758463 0.007143652246178751
522 -0.015603986285754557 -0.014922764819526748 -0.0036951829403385496
515 0.00203423818590913 -0.004383043925783788 0.006074736610617726
521 -0.04563263638748964 -0.00048428511551025077 0.018338378579641053
757 -0.002726852153708772 -0.005270102442338701 -0.0029745024434572973
206 0.0013140435658264438 -0.0063491628681611395 0.004097628465208366
201 -7.014430105220981e-07 0.0012672600226655588 0.0007556876254696308
204 -0.010133403024093749 0.0029364751514100026 -0.0033516806512993553
202 0.0049198177458239555 0.005647229329862852 0.004180659055968463
208 0.014191525278381115 -0.03612653849013359 -0.03702707795789921
759 -0.0027560876472657084 -0.004595531590991136 0.0008212705755125912
203 -0.0009022361603099492 -0.0005672357579413228 0.005885492924873165
210 -0.007591776174235359 -0.0037520533798185377 -0.019824761241550932
205 -0.007786667029060108 -0.007402190733890858 0.007432799130176516
997 0.006264143782723788 -0.00918048202904858 -0.004949260491356552
765 0.009604988267058398 0.005331891051474035 0.00175579809976693
760 -0.003612442354700863 -0.0029014308963646873 -0.004784586095616276
766 -0.01406886352875028 0.02616638471341204 -0.011378354690609677
788 0.01975199215181389 -0.01892454689962547 0.009484400161530245
405 -0.001653733837247376 0.018157601230934753 -0.01941859118838643
963 0.005787117551248668 0.0009449413003980104 0.0005927570963487789
784 -0.0033002704945568626 -0.005986436801624062 -0.00415657510690537
966 -0.0031602060165811787 -0.010151832350258044 0.013403556618922499
528 0.0010826180082245944 -0.009140867703737204 0.004771242151688975
961 -0.0003339596070937357 0.0016680484224554258 -0.0006403282141058584
529 0.002208924463002865 -0.004244892777304614 0.012297359242805438
959 -0.0038645011320834503 0.005332677099886369 0.004170759460854228
639 -0.0006717124955784505 -0.003324392938858495 -0.00793508695437269
645 0.00026595691685928904 0.0031994992624487595 -0.011805612354803426
358 -0.022060646989372934 -0.005938384031634128 -0.006307004534046868
646 0.016153442083638517 0.0024963921396486755 0.01191888856312932
640 -0.0005150695870546752 0.004509453645422253 0.0022680874540565027
644 0.016131342057125693 0.0039191157818967495 -0.008227754502973231
344 0.027469459512594413 0.0003443933957042412 0.019972076457743577
912 0.0063360236522245995 -0.0035158214163872274 0.0010585986206235118
534 -0.028986915320686032 -0.02378909397140599 0.001288609225760073
350 0.000489158392758453 0.0018198484975035915 0.0007507060072027292
349 0.00545330411047127 0.0017211576142686035 -0.0014900125713041014
533 -0.011468789354875898 -0.02149415515917842 0.018400228197739253
960 0.004747073428297803 0.004033830293281757 -0.0074130456291848605
346 0.03499340874677377 0.016826844461733485 0.010451011610661327
340 -0.002041193425054512 -0.002175877642208807 -0.0004658056434466638
345 -0.005516710728842013 0.011431394284847244 0.013361999980107784
913 -0.0018535698238374442 -0.010263355306029693 -0.0017209082904718089
915 0.0030219090590535807 -0.004541959927984937 -0.001134943974888565
914 -0.0013111013348374475 -0.0038192236112345114 0.005557280560637163
896 0.008488191699146962 0.024544544818924006 -0.03161479821441211
527 0.0039036291506202095 -0.006073626947918305 0.0006222164972710316
916 0.0022464745782805433 -0.0027551108095811377 0.0008819062152514771
921 0.0036176590603772952 0.0026668074709527176 0.012525449881092238
967 0.021605957300192245 -0.01665612289841451 -0.025652897297659624
922 0.007897373114217296 -0.026000398883967824 0.011765220227083178
535 -0.008127827571018952 -0.004601929314748784 -0.015955767646487786
892 0.0009799249914107732 0.008449362063198405 0.002896774991217389
897 -0.02173779484320729 -0.004593245764303324 -0.002326129781491451
920 0.0037558813007401324 0.0021193500384456025 0.02879755980096405
530 0.001444464105850605 -0.007871274460670603 0.0029646326288873025
348 -0.006518699999159058 -0.002537936087986389 0.002841701274289136
353 -0.006831107724913172 0.019243587521032876 0.007701391167819363
669 -0.019790540223327838 -0.008475734773344956 -0.0003001064562073006
621 0.00950359470578522 0.009356145252125525 0.02024462437718618
618 0.02146803412050976 0.0008760505338014505 0.007067658012434902
1022 -0.0008795435118525441 0.0032484613786283485 0.0005355312908275458
1024 0.00579948438590035 -0.0041978834922840914 0.005449258640424901
275 0.0036937574323303254 -0.0012624343277627954 -0.005717470788645382
615 0.0035866239193283003 -0.0008737500972639002 -0.012048452554975228
620 0.007248344511248006 0.0022187959006078044 0.02127211619299458
616 -0.0025692039672958653 0.0002854609951771257 0.001051012084284775
1023 0.0033467307012768352 -0.006535291211888302 0.004472259421500369
611 -0.005180775901560625 0.00047126203690613946 0.004332954067810219
617 0.008253944765592902 -0.01660908925635312 0.004922645826817281
619 -0.0210540752833506 0.011473506603528059 -0.010428524368102593
622 0.022577033400295512 0.0039991851845736694 0.021755431320891805
1000 0.0012818335166593128 0.0003598883929166142 0.0028113376308174687
551 0.002990322934861663 -0.0011062210181826525 -0.0011349055369804224
559 -0.0007337334119162852 -0.01993189892175457 0.0021469977874088815
612 -0.0036838245233758813 -0.0036323933893673823 0.0020961453509204023
554 0.002396345987334087 0.006529775630122394 0.0033095028052588654
613 -2.2438123306598172e-05 -0.005686281763511802 0.007958631982960004
614 -0.00958385533329873 0.0009425389780514772 -0.004011182793778687
553 0.0021100308803718645 -0.0034833587397764395 0.002121021044048158
552 0.004085484516388757 -0.0030415823294591506 -0.0039497743590903404
557 0.021182927684434895 -0.036691916169233355 0.00020780142015021635
558 0.019175403910467927 0.022073809662174808 -0.03186845532003511
1025 -0.00010169822165145153 0.003417671809127144 -0.002350888935607206
555 -0.005776307220061536 -0.002299461613554821 0.002252415707301436
560 0.001118550636498941 0.012068327659004695 0.0003556549278595704
556 -0.003696819964334313 0.0032429693438720906 -0.0038847595471434545
674 -0.004447337874341105 -0.005289031048938129 -6.464702164756073e-05
682 -0.028495678313682535 0.018714267808235267 0.033173077481566234
562 -0.01804017847720516 -0.021968049188245686 -0.012439682407456226
548 -0.014734658024114652 -0.0032490011469144724 -0.023907836851350554
978 0.012841526369200324 0.031484864640501715 0.011951030749174321
873 -0.0029263332189330632 -0.022580260604129605 -0.003055340563336462
880 0.0005997918187357756 -0.0017708023168803034 0.002216211703424921
88 0.02869081275802927 0.002825355967781085 0.002819042435206447
968 -0.01001140030338841 -0.008196336458427324 -0.02353847302925024
524 -0.004055881033679937 0.02643062761313241 -0.025122542049075748
526 -0.010098766835813474 0.016949615187629462 -0.0055782444823133034
339 -0.0019983437749268116 0.005420323242540481 0.0011961446486647416
884 0.014215667597500332 0.01606656691619753 0.0017117257730271391
679 -0.00792803034559331 -0.0031146242428779273 -0.0002629726830994021
673 0.000567442019759699 0.0016775472890969067 0.003638540296753474
130 0.020851246899414595 -0.013538666494540526 -0.02896460862420169
561 0.015245074822002474 0.024364469710725447 0.027966043134962558
879 0.000927779729041245 -0.0015588208896147428 0.0021360526966470797
127 0.01104619387095613 -0.00757532847013833 0.031224986175124498
355 0.008543962359800341 -0.020758827479554275 0.0021389484951180497
675 0.0012465875326767772 0.007397829978351596 -0.001564410960489154
885 -0.012633022726847683 1.9000867910949084e-05 0.0013370290230799236
347 0.0015304232661234236 -0.010013405440682323 0.0003938298208418976
962 0.0062535618329087285 -0.004262406597079719 0.0043036047872889345
121 -0.006148090767593192 -0.01033362768147025 0.0020161847984690355
678 0.01314430827274942 -0.010423042495632976 0.0071695258814468525
672 -0.001053013226824943 0.004410406372151973 -0.0013183264861091229
677 0.006195795503813721 0.004794472595003397 0.011723854299253444
671 -0.00536196932808335 -0.0006792239161449098 -0.0016742085018725636
125 8.621810019944054e-05 -0.008877292542523217 -0.003736756094096926
381 0.020313500142358637 0.017819020380724093 0.013447735779949989
124 -0.002921481404134504 0.003541111410576436 -0.0010404823550088816
129 0.01539160707717584 0.007339341224400385 -0.0027341256569307724
376 -0.008616611872040759 -0.006993416178841443 -0.0012339923715684533
122 -0.002164563890168677 -0.008170590435021604 -0.005208777594511663
338 0.002007598240402434 0.0006085812161608164 0.006778515453913545
337 0.0031530553908353806 -0.0004849168081589632 0.0009663835382578202
336 0.005422903015916884 0.004796933503546534 0.0020024654789062572
343 -0.019665869247984087 -0.0058634615862234885 0.0027804212583868474
123 0.0015070005728596576 -0.0011744783403939635 -0.003091966300942927
335 0.009930777798127882 -0.0024255239466515165 -0.002551226197033095
342 -0.005735376238512295 0.003264963983395757 0.028778644239318356
341 -0.00808918749031513 0.020880242565126068 -0.03309421641188281
375 -0.0054587109105011565 -0.0043677939814041064 -0.005177681168145179
380 -0.006842932320952438 0.022716269072465236 -0.007361079306782735
373 -0.005727398791179066 -0.00014950092469413257 0.00419535138992796
372 0.0034458290307199345 -0.0007140220664677274 0.004036377448824288
354 0.017266345907300324 -0.004842819593131156 -0.013421779875227491
75 0.007242823104676447 -0.007316840285401424 0.004843682426674001
74 0.006500203395391901 0.005699612866631369 -0.0022871830893313877
378 0.029676728532589486 0.00022409431722371495 -0.008464284801904224
76 -0.003495396121858201 -0.003119931109657337 0.004719378185776212
379 0.025295596761305543 0.014207759842171472 0.011542876523929062
382 -0.009286587933358965 0.0016513504514329104 0.0057545550548461525
374 0.00312466284345473 -0.001158617469557341 0.006963471896134792
631 -0.0075345794753965524 0.0037933399092002235 0.002122079635848794
943 -0.008537123270589708 -0.029872163636759687 0.015319749335299794
478 -0.035624355904763 -0.0029814244562528453 0.012314629679214949
545 0.010745536072668486 -0.0013197819394971655 -0.0007666290556980959
546 0.008272370638751097 0.019418316329979833 0.008565247787232902
539 -0.0001510770482890015 0.004900467511107358 -0.004969796780482615
629 0.03901313198323207 0.0075683595762146465 0.0006969762615200116
630 0.003656197433433034 0.005267558969303847 -0.004303939138685393
547 0.0026971419036890504 0.00810849811696586 0.0012094259852527289
470 -0.0022282140366271146 0.006922824574638787 -0.005451262501652937
634 0.02480381880775841 0.009511180978572072 -0.010486603319357798
624 0.0004343921110571463 0.002098332761106045 -0.0017359551432213367
623 0.001963819655212938 0.00531201920477016 0.0028162567798595993
626 -0.005167005045326505 0.003793025657686665 -0.0015693943067949276
625 0.0094969575096774 0.0018324801604524548 -0.0029868919760541283
253 0.0057693005402123 0.0007588272568269832 -0.0003698364397710124
254 0.0006520585680846291 -0.0009600150005917196 -0.008002757203145394
627 0.005337029415733145 0.0013008359365265596 0.003983854435240589
632 0.005054988388420719 0.018404475272258948 0.007313536117773621
628 -0.004369505088767827 -0.0019818833285325434 0.005091143626472703
252 -0.0004355380320302239 0.0020520264763322933 0.00022122045704383957
259 0.018059424577947594 0.0204593492148203 -0.049703826918516554
633 0.011355624270044714 -0.026261751462249138 0.0031694880992074606
260 0.0027055895979489473 -0.00925655511569441 -0.008314027607522322
256 0.004474119245730369 0.0031259547017339654 0.0008688493671347784
251 0.0037001620770672375 -0.006092315050642162 0.0026745583334954336
257 0.018693358183479284 -0.007132035540397316 0.022186195393331967
990 0.008478772146200207 -0.004931196908378409 0.006778521375615482
540 0.0011471854816076953 -0.005313883424398684 0.0016271082287164027
541 0.0045258337551947895 0.007228851010364348 0.003423097752512829
991 0.011701170521593907 0.021682969307082346 -0.008433295723409548
706 0.0012661036139520751 0.0033166888036117977 -0.0005585680855556784
700 -0.009170392893506811 0.003803177072595838 -0.0022049763670040873
705 -0.022022463863864684 0.00027900938761787246 0.0010198216058210376
258 0.028602226617389502 -0.006617732754203982 0.01511434915650435
543 -0.0015159273363069962 0.0014392596880273838 0.004185293544259288
942 -0.0055580354624096395 -0.021976871543333935 -0.00985695471606104
701 0.007629457302672808 0.018254020739886207 0.04287223443756006
695 -0.002714863031822969 -0.0073148861552735055 0.00634593828220068
698 -0.0009765307577764958 -0.001877126422405505 0.0027883454677253717
697 -0.0027085057628216547 -0.011276196824515779 -0.0026618327811436587
187 0.02939866747675255 -0.008354114374072281 -0.03866093607332339
366 0.002349256115576145 -0.004580222494802626 -0.0030562812637158674
60 -0.020190135092865276 -0.0031986421061406148 -0.016208411515203223
255 -0.002887947699177102 0.0011264893642693313 0.002189962666919088
83 0.0022973965107461274 -0.0006538031176872983 -0.003518187272429945
861 0.002533818320263895 0.009183259606826106 -0.01761459571936935
167 0.012359375996512094 -0.0034617537082319077 0.0183334704677408
189 0.012329374489165554 0.007838278796079116 -0.013746741776712158
190 0.023314790949276958 0.0004355336224631191 -0.010439642853285828
188 -0.005057998413774743 0.007261736288273929 0.01657682311055627
181 0.0008878432244000711 -0.0016790560408269481 0.0005622470836676894
182 0.0056983969956185465 -0.0012769171677523253 0.004184057005888366
184 0.0006051115670729526 0.0006293192209287693 -0.005548550200031016
183 -0.003479386056406341 -0.009411043340993533 -0.005073520651133101
767 0.003962843038293244 0.00895928798806432 0.0009862094854389827
775 -0.0008235664291158621 0.022585218295871196 0.013603376157984612
770 -0.001702726549856853 -0.002136781118305528 -0.000244699964844038
769 -0.002207242056181699 0.010772038183703338 -0.0036643501822111297
771 -0.00017941327134724265 0.005114582595546309 0.0023279027265237368
768 -0.0022404436426580686 0.0021481782080953723 -0.006271649889286472
774 0.011736769663224254 0.01641006528625801 -0.007187825550322097
773 0.01772765564632722 0.04282437838961894 0.007532856547259615
816 -0.005364562324736384 0.003521719970876448 -0.0029703857192725745
822 -0.0058174834606980405 0.001911715143073327 0.037359841541692716
815 -0.005634041087100207 -0.00551233796334976 -0.002112590568526802
186 -0.0009209418120034284 0.005944086000897065 0.003880570132134697
817 -0.0078012533182225015 0.00476305221257545 0.0016084012048332003
819 0.004800355862561596 -0.003164366937088295 -0.0023101032254832484
821 -0.023888500190364814 0.01914696497000113 0.009825147991799186
820 0.0010714311052916177 -0.0002594965436703721 -0.0038107827171903704
823 -0.009534723161073639 0.024963651684047298 0.013979832192630057
608 -0.009210682630432432 -0.01338422337634243 -0.01011183159199995
825 -0.016374117789536187 0.018877651179537686 -0.004329177202334068
818 -0.003246580193981561 0.0012602679751728273 0.00347559781028342
826 -0.0008954672093190021 0.01636071900737796 0.0046483518952624295
169 0.008864832938463605 0.010679971835596519 0.03134841670135523
161 -0.001067676063764788 0.0041410402179965925 -0.001695163922960631
162 -0.007626289587942141 -0.0007170975797413934 -0.00266818302127
696 -0.003527755396435293 0.0008396134093241633 0.0002836083985604045
308 0.004948318594037818 -0.01845496511879517 0.021614697274032993
310 -0.0014857048118071898 -0.004781342669775866 -0.013435663238646981
699 -0.007038694433860322 -0.0037591435174333097 -0.0037984130213248634
610 -0.015594452097166924 0.0016153135438946472 0.021220965732098678
496 -0.0031406247987817086 0.0028239613270083066 7.580739323159991e-05
502 0.007576295895188058 -0.014222059833211058 0.04286956478321112
39 -0.01993373476205697 0.004969279158054919 0.02431778311733556
500 -0.003947682152152592 -0.01561673554030997 0.015377840031714454
702 0.009917440395124356 0.008286620540788225 0.003023087996338522
598 -0.01191075583882932 -0.0053598905877603725 0.027796303943456422
824 0.02561079958044618 -0.003867603627654582 0.004457875668788771
40 0.022122482024248394 -0.018302793471063603 -0.00036894293877164975
213 0.003999758528386047 -0.0018769555781546182 0.0074537433705546274
609 -0.0009024049302842913 -0.03812633536124313 -0.021742800259268027
703 0.01780974809694052 0.01030567349281203 -0.035124629195486805
494 0.0013178479111718715 0.0022147043887612633 -0.006994026986370426
495 0.005820282862386498 -0.0008364979264362132 -0.003607634176964531
215 0.001010257646795559 -0.0037042192847644238 -0.003121291038610241
214 0.007136472009997874 0.0008808783683035286 -0.004256837228755257
704 -0.009129684842033024 0.014842489022828483 0.01940523388070138
493 0.0030137685510229426 -0.00011921757603251598 -0.006781459971400771
216 -0.007112991057645468 -0.0010803316396467053 0.001675629888184991
37 0.011609767732262308 -0.004643708625668716 0.006011314975456447
32 0.0016789825590248857 0.0001615730006000063 0.006444462725232282
38 0.020339596059673448 0.004843126008709636 0.018756809313197547
211 0.008750630409821358 0.0047884686117201205 -0.00042419144418643945
31 -0.004492003630870999 -0.0001423352547163096 0.0011254618557491568
499 -0.04129170631207756 -0.007383494815244824 0.0034219102410611747
36 0.004497081226327479 -0.002305405704073236 -0.0045628370853079
597 0.001379011521865781 -0.0006347889455559901 0.0007744870438441483
497 0.01229159832152327 -0.010959886288431364 -0.01935656522308021
492 0.002226896527125758 -0.005623129447288951 0.004647032322650945
491 -0.002785163037433518 -0.005560217303854463 -0.004221971823464041
498 0.009708418212803063 -0.007816120938025133 -0.0107182147841652
604 0.009318766516784335 -0.0013212556767737622 -0.002093101411006458
592 0.0024033508981368447 0.0009317459132975272 -0.0018393364684138123
596 0.015035569766616403 -0.023053137026939115 0.006606464278768804
33 0.002054138608978373 0.0025839443240741372 -0.0006784082575909903
34 0.001979447245320429 -0.007599840771529299 0.0009218687730333255
507 -0.001851464521067972 -0.0025963134370062453 -0.003745879355049355
504 0.005200589638220039 0.000984156764522649 0.0032401337909606686
505 -0.00705932832919459 0.009772574397625224 -0.0036828044619945342
135 -0.005361751426272544 0.004304524708832649 -0.0037278138650701466
472 -0.00978705167340685 -0.003849615657370874 -0.0038415287112674116
477 0.007877386404181572 -0.010709393181410922 -0.0038954122888427934
503 0.00472508196378366 0.0030957626970484955 -0.00843322361126462
55 0.002663616017260289 -0.002279335982066314 -0.002196983832614243
54 0.000617692754193436 0.0015747001093405827 -0.001802911815830251
133 -0.0030653738648102617 -0.00025915958239396066 -6.605028298902916e-05
1074 -0.0042762090463079 -0.0003988190419353722 0.0007991186044355819
895 -0.000694673106662943 0.0017086003945218989 0.012388671513373433
509 -0.0006647364596180511 -0.018313023135411756 0.012614723202314751
1075 0.004479195271059827 0.004010064548614159 0.004492456287212477
1069 0.0006693396723677286 0.00025607349286454757 -0.002644460450277362
1073 -0.000134331859531008 0.007744134828687128 -0.003871006543952505
138 -0.010272213880958548 0.00922342529151272 -0.02031150346257029
131 -0.0015215812029198581 -0.0012846388808078898 -0.0035867008964162086
134 0.001884938692108709 0.011886273591757509 -0.001172691649364314
136 -0.0004669613313959952 0.004113745858971908 -0.00040057574746518086
428 -0.010994798286675572 -0.012246429360466661 0.021280840670576843
894 -0.0058140228325903945 -0.006702145489556978 -0.023159208960263706
429 -0.006296197124691366 -0.004356990633689511 0.018795077359823695
424 -0.0021683510300051882 0.001520324219724053 -0.007351746916070848
430 -0.02194362102731773 -0.0232888334409379 -0.025100679532522062
893 -0.005017897835524849 -0.003195863358933436 0.005665897055995246
887 -0.007116853317722102 -0.002875438914898002 -0.0013610405831466122
132 0.0043635611325908395 0.0025175232417859396 0.0046706735637594456
423 -0.007999605684606639 -0.0012080828618941594 -0.0018656021337198339
137 0.006098181072075693 0.003056764175838089 -0.0024184769398017374
140 0.021916597295264593 0.020708252044565664 -0.013764036066252323
1070 0.003336857448867385 0.0008037465693850413 -0.0028858772455386604
139 0.034988063965043226 0.007317604976965772 0.0018516572010760846
180 -0.025311031761884206 -0.017646421468179664 -0.011221147139430614
888 -0.0010357912060835277 0.005751885790491919 -0.0017856142462428976
53 0.002751157735789421 -0.0026888549903814774 0.008554992670437194
511 0.012200933910160597 0.01553374909596145 -0.023940312041676504
510 0.02596078983679648 0.02392755237860678 -0.0076280119541768925
150 -0.02356504145349033 0.004576061854303121 0.028855471523655262
1015 -0.0009902282567338496 -0.0004356430602743774 -0.0014163428037594484
1016 0.004304714846497576 -0.002726640072128207 0.0001036313830417264
1014 -0.0014647437732204908 0.009582282583380314 0.0008578721862974523
168 -0.021368981548050746 0.006232858449832225 -0.0049273438879141335
94 -0.0036151018767956724 0.0036461925700716174 -0.0024488663830590936
734 0.0011433000072195159 0.00526340684306693 0.0025537643802249496
1068 -0.003348419222524811 0.0029500083510631946 0.0006941333423463069
58 0.03714634516929161 -0.01749294912201896 0.021034957954938194
59 -0.022364050831248095 0.0005550921352590269 -0.007354345579072233
52 -0.001207485933035727 -0.0001999696696278133 0.0032573687654759704
185 0.0036988231189136033 0.008284410647659834 0.0023148161195532253
166 0.003976109300630472 0.002335273233655843 0.007496280041047842
56 0.0027139387848669483 -0.005492195467119828 0.002121740531328969
170 0.008322634572553427 -0.008533583761281147 0.04908884638593837
51 0.003173377579476914 -0.004484139186371507 -0.0025904254495538893
57 -0.0022045217129437163 -0.020487145038331097 -0.00469514805889675
1071 -0.0038969838345164626 0.003972005101915139 -0.0060105388997993645
1067 -0.003768362029560991 -0.005486890586809621 0.005172259014395867
1066 -0.0011963565105635964 -0.0030242562612074887 0.003945673016222133
164 -0.004326995670162335 0.0037116186765144637 0.0005451122902023614
163 0.0008217512331437108 0.005726879354308057 -0.008612162640838484
165 -0.0035201462586436747 0.0002939950201805103 0.003892567955883426
738 0.004157519632562167 0.02234342017316968 0.013950788187600783
999 0.0021443691470366118 -0.001693076003580255 -0.005284496707379002
732 0.000840656502565248 -0.0034735079649555987 0.007040435829141422
569 0.006007513503230925 0.014985756186893533 -0.005824539722393282
737 -0.004191783510610872 0.0002291970695265297 0.008398830021106462
731 -0.0054786358786074255 0.00026308735150034864 -0.005914205021872107
739 -0.005498931077154001 0.01679510916514635 -0.011563456416562826
566 -0.0006465982732100016 -0.005484494105914549 0.0015431752603380332
565 -0.0012474578145364853 -0.0032874731392832338 0.0028289254152032662
564 -6.435694994812646e-05 0.00019140800670008402 0.004437781720750064
567 -0.005720088115435174 0.0066584214181608405 -0.002566084187196817
563 -0.0007183969922723317 0.0023292525860973143 0.00456207350551412
570 -0.0004157865661448576 0.017033266865427853 -0.004528135606591648
571 -0.0035283386226079563 -0.0076691845733005345 -0.013086071596576581
982 -0.02038897309887411 0.02242642203434017 -0.013016544994103789
981 -0.009814729719342257 0.004138887736034475 -0.03701683252825349
96 -0.0029838096967780537 0.001413895587684543 0.004080034239522722
602 0.0023891704000365997 -0.0019185897220414764 -0.0016651025492012976
98 -0.001853433640803904 0.021789971358099867 0.011125139769966843
91 0.002450011179413739 0.00149063019158297 0.002101991621051868
449 -0.002807296636914841 0.0014124430770478449 -0.026628601611525138
92 0.0033694861556057636 -0.0020751282337756524 -0.005682506829891617
100 0.007348348979220104 -0.004089921352378331 0.0017372315230077136
584 0.006257348068143477 -0.011382726362103177 0.0034981438512381212
318 -0.023286373548204155 0.02713797254048614 -0.013798237054142615
764 0.028890098790781294 -0.02323010839898183 0.0051716745479389046
450 -0.034414734750322064 0.011947119575615702 0.012349258040295463
171 0.0032034029131484307 -0.00038728319311289 0.0044439078472823705
218 0.013877178778024059 -0.005836439971967337 0.007641864387010666
603 0.008911033342470216 0.0024031862644941448 -0.0005413872374816966
802 -0.0150740123646044 0.026967210391349437 -0.007037200480721834
417 0.0072192975614099346 -0.010943574589016347 -0.00029261525223741995
451 0.014880007907774877 -0.0018958849212188547 -0.003327521469418131
443 -0.002414032861942789 -0.004428647080580253 0.004156376650151199
446 0.005673448372320532 8.549760363597142e-05 -0.006702688834484291
794 -0.0009169556260972133 0.005673449723610284 0.004147142409426164
35 0.0036261492878556555 0.0033312398417399284 0.0009196378537677837
607 0.01921898889196155 -0.0075317017347296044 0.007809026164987952
605 0.0008571398125658516 0.024202492336131157 0.010781877393286711
179 -0.01646890776117426 -0.0035691087732516867 -0.03455666566268251
799 -0.013606337112328427 -0.01448284959925296 0.0034169316105785476
421 -0.0014649243683583142 -0.003271329855971476 -0.0011990172091482442
793 -0.003234441379149505 -0.0031766902742358535 0.0033288071453357986
178 0.0002793473562341254 -0.024966880670252836 -0.016080761554567176
791 -0.005659974504933237 0.008378898443682094 -0.0029740229317547348
792 -0.006581793381037224 -0.0013723629347473885 -0.006831692266700889
172 0.005523124098617226 -0.004643810035693399 0.0006680625307730843
422 0.0011184452384713486 0.0037680398795013853 -0.002780241475687209
177 -0.018278131527510587 0.006862277303452316 -0.006601419124798193
797 0.0049198092539077054 0.0015031469189708403 -0.01114753004311788
601 0.0058356412443702765 0.002427132956674463 -0.00045679642851750055
427 -0.02322703310770117 0.002891485109914946 -0.01936508350387759
425 -0.0028674782295970216 0.011978684838688133 0.0034771156008258676
420 0.000420802193399939 1.303898488689935e-05 0.0007845600567278752
419 0.004237120842327137 0.003743063565152061 0.00227710530741896
426 0.001486867509369582 -0.010475504033627844 0.0035618404358016675
606 0.007718982679951521 -0.020023939922523718 -0.014978651179116197
600 -0.010161600108200287 -0.0028478339567448003 0.005216738576857639
599 0.008982338248793268 -0.0005470314778347194 0.0046159477874409315
798 -0.011488412790663762 0.0025292544158425417 -0.00841566473312856
444 -0.0015911442065597887 0.0024235262489716806 0.002793077912656348
445 0.003114650516395498 0.007861870381076816 0.0003498043567806378
447 0.0002688146661305999 0.0014771990588784193 0.001611000591116849
452 0.011480123205946755 0.02023230106431611 0.009683805891220965
830 -0.001575808141368635 0.0018823937543542115 0.000794170537050755
828 -0.0008490870840077358 0.0014798640040953833 0.006964095313424182
908 0.004288531451214055 0.007184097644366982 -0.0057679983618455855
909 -0.024128036478540515 0.033851303559649513 -0.015400940295496744
910 0.007195290944618562 -0.0076351377942946615 -0.008633127328069819
904 0.0039478471494923265 -0.0014388341721004992 -0.00740529719370218
898 -0.0035349510904493574 0.008616905153692424 -0.03111884348430853
983 -0.00027555303817674827 -0.0009251995019527444 -2.4110703772938077e-05
890 -0.005566615247829514 0.0019362247322146366 0.003644020870495575
95 -0.006047647302987631 -0.0026390900130405714 -0.0028518945215652235
542 0.003730602945636305 0.0025624251972583066 0.0006391109056579152
262 0.004895638042865671 0.005338293193289377 -0.0039430995312770625
269 0.007728433259770231 -0.012539168605649322 0.006175381294150463
149 0.005562934704132415 0.017730406704546595 0.0065861644751429
143 -0.010404234769845117 0.0027094940423483095 0.0022147969214507267
835 -0.029398672644138854 0.00479563680672004 -0.003380244951812465
827 0.0038095721358144315 -0.0029102807665577664 -0.001308176930690967
833 0.0055586718074294725 0.01090219673424071 -0.0024662901020892007
905 -0.02059505705928496 -0.00733455518149727 0.003908457150164379
899 0.004096749730709193 0.004748868801545451 0.008627738085047878
906 -0.014798967269042174 -0.005444208270876386 0.007648595747896196
900 -0.004298182980003911 -0.00023453520213914477 -0.0008499836376592801
902 -0.003469182857048687 0.005598967154812848 0.0029833040092410662
901 0.003632407282731558 0.0007139315964356332 0.006592214035094392
263 0.004024430626678703 0.008915670461675265 -0.006405916983183734
142 -0.003684525852693796 -0.0007321297864804769 -0.0027562880530713433
903 0.0031017706231065935 -0.00920691341032417 -0.0004317631323547333
889 0.005824211634389933 -0.0015964153756921231 -0.0006545849146964398
891 0.0008882727139495567 -0.0004632878802476888 0.0012760180181941735
146 0.003449052323736742 -0.0016692896984810976 -0.003381914651753846
147 -0.00184961243984045 0.01677340562670288 0.006888589381916777
141 0.0019102309489857638 0.0030066648471211137 0.003739153748409106
148 -0.0056414197607326765 -0.012222228270126818 -0.013952670637780726
144 0.002879312104477747 0.003491881892178681 0.005160860973094244
145 -0.00952538133894031 0.0016668952186280268 0.009016298402967008
989 0.013929047696169325 0.02951958600309335 -0.0004402929025749848
907 -0.007342914061915961 -0.001959093464329093 -0.00547994734477063
984 -0.002528642117723807 -7.904948647925974e-05 -0.001899472597898766
77 0.0014605320843927815 -0.009644571843521835 -0.009753580775668529
265 -0.0019631137935334046 -0.005127374914190116 0.0014378664042037407
264 -0.0013420098903629502 0.0036429283781035816 0.005443642105489241
754 -0.01621688241174099 -0.025353886974795733 0.029817403356153196
576 0.006393054712541996 -0.0021462418498111474 -0.0024615264921299396
994 0.0233343904305922 -0.010900106878261494 0.020541297325558462
577 -0.006225792223176747 -0.001979826207895984 0.00313371053993049
578 0.004069092898721569 0.0045242520103993804 -0.0003851664422934341
84 0.004838491905628775 -0.0011513588732548815 0.004820605184435134
85 -0.00048221694460740287 -0.0018516984836267777 -0.005653299252919244
976 -0.0033637898538502434 0.009094040139163463 -0.003674837623107063
980 -0.04152646491215245 -0.020922909376345143 0.012828142728666371
99 -0.01527288965178466 0.008434879691260513 -0.017759039470565747
93 -0.0014697792147021862 0.0009104402423021874 -0.0018800730145990912
834 0.0032089400492497757 0.006698957248509038 0.013524280275647916
550 -0.006389446514188886 -0.011190167412701445 0.02456109097405588
985 0.0026994123541977813 -9.073197193330417e-05 -0.002645317023140345
987 4.7873023356899525e-05 -0.0026357854455953574 -0.0023104594619234474
992 -0.010411886930922553 -0.0009849619497095292 -0.0014661580220766731
544 0.007854515854763239 -0.00010460614707484556 0.008440640289780135
549 0.004422887491536022 0.03169601242575835 -0.011225002052360843
998 -0.01037206814151158 -0.0058256815441612405 0.008230308759665829
1072 -0.005094045660222057 0.00017273762443954652 -0.006052517377028631
971 0.008945584554210446 0.008544710399923302 -0.005740135745643563
972 0.002949256829130283 0.0011109925050251524 0.0025844700480102127
579 0.0035752888952002232 0.004474698713518108 -0.005739224389819958
986 0.004596365911526642 -0.0017604626521788567 -0.0019937940296560594
300 -0.012018574328150476 -0.0057476420175325595 0.004175826063643503
298 -0.0032370785996818025 0.027821030688806522 0.008948092725796254
292 0.0013582960893574769 -0.016221566305622864 0.0016751340420477607
299 0.023913254385053283 -0.013449240308262876 -0.00019028934166357884
293 0.0060471266208329795 0.002164081215509324 0.0012248630567658332
975 0.0053603901352494935 0.0037359851097011247 0.0066535834796740915
291 -0.0038984488590364024 0.0020019653017364 0.0014697822102692517
297 -0.004332798687276211 0.030080486044784836 -0.0008227364268456705
296 0.0010902748422096705 -0.00046938234638952987 0.0019607058182542687
294 -0.0003524052315110695 2.7933911225681883e-05 0.006699248770185174
295 -0.005636544314996058 -0.001996668219052751 -0.003182756003737443
973 -0.0011233529084002688 -0.002687805866320829 -0.0026677996292120906
974 -0.0006861373907765648 0.0015769833966444162 0.00044451830209965657
580 -0.003548702472167421 4.098920631041489e-05 -0.014574538570970139
585 -0.010354212759091787 0.024927502991834424 0.004678673921993238
979 -0.012407146996277244 -0.02695935572121953 0.008713449296459204
73 0.004054058772737449 -0.0018262692334057367 0.001931852205558225
371 0.003285282201263252 0.010542957276105352 -0.003782444524557633
86 -0.0020872948868642088 -0.002000382417952681 -0.005913132945246706
591 0.005002698843104275 -0.006819574110195923 -0.0029277337790396506
79 -0.009416690042163217 0.012080383428186608 0.006257885938623541
72 -0.0036962009923686315 0.0008229972589371445 -0.003063924984308061
448 -0.0038578588603642564 0.001345284310734642 -0.00723684622575344
977 0.008187308320570422 0.01675856009916574 -0.009325214457899366
586 0.02205355014774622 0.004688229694693798 0.00025789462271981
261 0.00037288029906249885 -0.005001829309006352 0.002150609430551771
266 -0.006425894877969372 -0.00033046739444906 -0.0007198191040900001
707 -0.001014161109550522 -0.0003791141590692808 0.003871717828531194
708 -0.0030494764184840115 -0.0007576236223576533 -0.0030684137316988923
748 -0.009638449166680668 0.004056439825895902 0.006778802112716664
453 -0.020635678166245727 0.0063717493822413734 -0.0045000810502578694
377 0.00966806408448194 0.008627077970332157 -0.00034536179177808816
454 0.0011706141482677578 0.018821440611607898 -0.00024744773949858783
749 -0.002627027452429503 -0.006260189380749777 0.012988779832661054
80 -0.009456040073438955 -0.0033707491577166233 -0.010504758475976605
71 -0.002457610720894762 -0.0027345798201547384 -0.0008673300794183038
78 -0.0017608263585086096 -0.006048618182279375 0.011412168928299136
747 0.002576197840056704 0.0027232770362618933 -0.0020662313261706885
750 -0.004850841321784488 -0.015430721617883027 0.022553665272728125
744 -0.001624175182758177 0.0025070628261071298 -0.0007456912317789841
745 0.003945690418485411 0.0016433511220055063 0.007661903510666796
717 -0.00796848243048839 -0.01608476192962861 -0.0019023575999709717
718 -0.0005311560035686259 -0.019422726254984625 -0.011412169211494582
716 -0.005795779354352252 0.0019082275091423214 -0.032690070143136914
711 -0.003788993586185782 0.001717963113685429 0.0009158880614619243
712 0.003840728326560287 0.0002076040999044941 0.005074304129815916
715 -0.00478341212603044 0.003752852173533317 0.0011345429414405261
743 0.008025048859848031 -0.006084835822900692 0.0024031949637069445
713 -0.03385252375898083 0.0018475928945118798 -0.005204252076953194
709 0.0032708980526243 0.0005047105703356852 -0.004244970261303861
710 0.0017234857324848274 -0.006634757810272977 -0.0003167774121672393
751 -0.016778548352887543 0.011916067959144884 0.01575721871587306
746 0.008840633302950493 -0.0009092159148442302 -0.003665680119520451

Bonds

1 2 242 243
2 3 242 249
3 3 242 250
4 1 241 242
5 2 241 246
6 3 241 247
7 3 241 248
8 4 243 244
9 5 244 245
10 4 244 246
11 3 460 464
12 3 460 465
13 3 460 466
14 5 4 5
15 4 4 6
16 4 936 937
17 5 937 938
18 4 937 939
19 4 3 4
20 2 935 936
21 3 935 941
22 3 935 942
23 3 935 943
24 1 1 2
25 2 1 6
26 3 1 7
27 3 1 8
28 2 399 400
29 2 719 720
30 3 719 725
31 3 719 726
32 3 719 727
33 4 720 721
34 1 231 232
35 2 231 236
36 3 231 237
37 3 231 238
38 5 721 722
39 4 721 723
40 2 939 940
41 3 940 944
42 3 940 945
43 3 940 946
44 5 64 65
45 4 64 66
46 1 61 62
47 2 61 66
48 3 61 67
49 3 61 68
50 4 63 64
51 2 323 324
52 3 323 329
53 3 323 330
54 3 323 331
55 2 62 63
56 3 62 69
57 3 62 70
58 3 808 812
59 3 808 813
60 3 808 814
61 4 324 325
62 5 805 806
63 4 805 807
64 3 772 776
65 3 772 777
66 3 772 778
67 3 952 956
68 3 952 957
69 3 952 958
70 2 803 804
71 3 803 809
72 3 803 810
73 3 803 811
74 1 301 302
75 2 301 306
76 3 301 307
77 3 301 308
78 2 302 303
79 3 302 309
80 3 302 310
81 2 387 388
82 3 388 392
83 3 388 393
84 3 388 394
85 4 384 385
86 5 385 386
87 4 385 387
88 3 844 848
89 3 844 849
90 3 844 850
91 2 843 844
92 5 304 305
93 4 304 306
94 2 407 408
95 3 407 413
96 3 407 414
97 3 407 415
98 4 408 409
99 4 303 304
100 5 1061 1062
101 6 1061 1063
102 5 1063 1064
103 4 1063 1065
104 5 841 842
105 4 841 843
106 2 383 384
107 3 383 389
108 3 383 390
109 3 383 391
110 4 1060 1061
111 4 840 841
112 2 212 213
113 3 212 219
114 3 212 220
115 5 589 590
116 4 589 591
117 2 459 460
118 2 2 3
119 3 2 9
120 3 2 10
121 4 456 457
122 5 457 458
123 4 457 459
124 2 431 432
125 3 431 437
126 3 431 438
127 3 431 439
128 2 455 456
129 3 455 461
130 3 455 462
131 3 455 463
132 5 433 434
133 4 433 435
134 3 436 440
135 3 436 441
136 3 436 442
137 5 1011 1012
138 4 1011 1013
139 2 435 436
140 4 432 433
141 5 1009 1010
142 6 1009 1011
143 3 508 512
144 3 508 513
145 3 508 514
146 4 283 284
147 2 411 412
148 3 412 416
149 3 412 417
150 3 412 418
151 5 284 285
152 4 284 286
153 3 484 488
154 3 484 489
155 3 484 490
156 2 483 484
157 5 481 482
158 4 481 483
159 4 480 481
160 4 1054 1055
161 6 1054 1058
162 3 736 740
163 3 736 741
164 3 736 742
165 2 479 480
166 3 479 485
167 3 479 486
168 3 479 487
169 5 1053 1054
170 7 1055 1056
171 2 735 736
172 3 928 932
173 3 928 933
174 3 928 934
175 5 925 926
176 4 925 927
177 2 923 924
178 3 923 929
179 3 923 930
180 3 923 931
181 3 568 572
182 3 568 573
183 3 568 574
184 5 733 734
185 4 733 735
186 5 409 410
187 4 409 411
188 5 1058 1059
189 4 1057 1058
190 2 282 283
191 3 282 289
192 3 282 290
193 7 1056 1057
194 7 1056 1060
195 7 1056 1065
196 1 281 282
197 2 281 286
198 3 281 287
199 3 281 288
200 2 12 13
201 3 12 19
202 3 12 20
203 1 11 12
204 2 11 16
205 3 11 17
206 3 11 18
207 5 14 15
208 4 14 16
209 2 863 864
210 3 863 869
211 3 863 870
212 3 863 871
213 4 13 14
214 5 865 866
215 4 865 867
216 4 864 865
217 3 796 800
218 3 796 801
219 3 796 802
220 2 795 796
221 3 652 656
222 3 652 657
223 3 652 658
224 2 651 652
225 4 648 649
226 5 649 650
227 4 649 651
228 2 647 648
229 3 647 653
230 3 647 654
231 3 647 655
232 4 1008 1009
233 7 1004 1005
234 7 1004 1008
235 7 1004 1013
236 4 1005 1006
237 7 1003 1004
238 2 831 832
239 3 832 836
240 3 832 837
241 3 832 838
242 5 829 830
243 4 829 831
244 4 1002 1003
245 6 1002 1006
246 5 1006 1007
247 5 1001 1002
248 2 635 636
249 3 635 641
250 3 635 642
251 3 635 643
252 4 636 637
253 3 400 404
254 3 400 405
255 3 400 406
256 5 397 398
257 4 397 399
258 2 22 23
259 3 22 29
260 3 22 30
261 4 396 397
262 5 637 638
263 4 637 639
264 5 325 326
265 4 325 327
266 1 21 22
267 2 21 26
268 3 21 27
269 3 21 28
270 2 659 660
271 3 659 665
272 3 659 666
273 3 659 667
274 5 24 25
275 4 24 26
276 4 660 661
277 2 663 664
278 4 23 24
279 5 661 662
280 4 661 663
281 2 327 328
282 2 575 576
283 3 575 581
284 3 575 582
285 3 575 583
286 3 328 332
287 3 328 333
288 3 328 334
289 2 395 396
290 3 395 401
291 3 395 402
292 3 395 403
293 3 664 668
294 3 664 669
295 3 664 670
296 3 988 992
297 3 988 993
298 3 988 994
299 2 587 588
300 3 587 593
301 3 587 594
302 3 587 595
303 3 868 872
304 3 868 873
305 3 868 874
306 2 875 876
307 3 875 881
308 3 875 882
309 3 875 883
310 2 867 868
311 2 839 840
312 3 839 845
313 3 839 846
314 3 839 847
315 5 877 878
316 4 877 879
317 5 1040 1041
318 5 1045 1046
319 4 1044 1045
320 4 1041 1042
321 6 1041 1045
322 7 1042 1043
323 7 1043 1044
324 7 1043 1047
325 7 1043 1052
326 5 1050 1051
327 4 1050 1052
328 4 1047 1048
329 5 1048 1049
330 6 1048 1050
331 4 876 877
332 4 588 589
333 2 232 233
334 3 232 239
335 3 232 240
336 5 234 235
337 4 234 236
338 2 723 724
339 4 233 234
340 5 853 854
341 4 853 855
342 2 851 852
343 3 851 857
344 3 851 858
345 3 851 859
346 4 852 853
347 4 468 469
348 5 469 470
349 4 469 471
350 2 467 468
351 3 467 473
352 3 467 474
353 3 467 475
354 3 724 728
355 3 724 729
356 3 724 730
357 2 471 472
358 2 531 532
359 2 947 948
360 3 947 953
361 3 947 954
362 3 947 955
363 3 352 356
364 3 352 357
365 3 352 358
366 2 351 352
367 2 855 856
368 3 532 536
369 3 532 537
370 3 532 538
371 2 951 952
372 4 804 805
373 2 807 808
374 4 948 949
375 5 949 950
376 4 949 951
377 5 361 362
378 4 361 363
379 4 103 104
380 2 102 103
381 3 102 109
382 3 102 110
383 1 101 102
384 2 101 106
385 3 101 107
386 3 101 108
387 5 104 105
388 4 104 106
389 2 359 360
390 3 359 365
391 3 359 366
392 3 359 367
393 4 360 361
394 5 1027 1028
395 2 363 364
396 3 364 368
397 3 364 369
398 3 364 370
399 4 1028 1029
400 6 1028 1032
401 3 856 860
402 3 856 861
403 3 856 862
404 1 111 112
405 2 111 116
406 3 111 117
407 3 111 118
408 2 112 113
409 3 112 119
410 3 112 120
411 2 82 83
412 3 82 89
413 3 82 90
414 3 964 968
415 3 964 969
416 3 964 970
417 5 194 195
418 4 194 196
419 2 192 193
420 3 192 199
421 3 192 200
422 4 193 194
423 1 81 82
424 2 81 86
425 3 81 87
426 3 81 88
427 5 1032 1033
428 4 113 114
429 5 114 115
430 4 114 116
431 1 191 192
432 2 191 196
433 3 191 197
434 3 191 198
435 4 1031 1032
436 7 1029 1030
437 4 1034 1035
438 5 1035 1036
439 6 1035 1037
440 5 1037 1038
441 4 1037 1039
442 7 1030 1031
443 7 1030 1034
444 7 1030 1039
445 3 688 692
446 3 688 693
447 3 688 694
448 5 685 686
449 4 685 687
450 2 683 684
451 3 683 689
452 3 683 690
453 3 683 691
454 5 44 45
455 4 44 46
456 4 684 685
457 2 687 688
458 2 783 784
459 5 781 782
460 4 781 783
461 3 316 320
462 3 316 321
463 3 316 322
464 2 315 316
465 5 1076 1077
466 4 1076 1078
467 4 780 781
468 2 779 780
469 3 779 785
470 3 779 786
471 3 779 787
472 1 41 42
473 2 41 46
474 3 41 47
475 3 41 48
476 2 42 43
477 3 42 49
478 3 42 50
479 4 43 44
480 5 313 314
481 4 313 315
482 4 312 313
483 4 173 174
484 2 911 912
485 3 911 917
486 3 911 918
487 3 911 919
488 4 924 925
489 2 927 928
490 1 221 222
491 2 221 226
492 3 221 227
493 3 221 228
494 2 222 223
495 3 222 229
496 3 222 230
497 4 223 224
498 5 224 225
499 4 224 226
500 2 272 273
501 3 272 279
502 3 272 280
503 1 271 272
504 2 271 276
505 3 271 277
506 3 271 278
507 2 152 153
508 3 152 159
509 3 152 160
510 1 151 152
511 2 151 156
512 3 151 157
513 3 151 158
514 5 154 155
515 4 154 156
516 4 1018 1019
517 5 1019 1020
518 7 1017 1018
519 7 1017 1021
520 7 1017 1026
521 4 1021 1022
522 4 273 274
523 4 153 154
524 5 274 275
525 4 274 276
526 3 676 680
527 3 676 681
528 3 676 682
529 2 519 520
530 3 520 524
531 3 520 525
532 3 520 526
533 2 311 312
534 3 311 317
535 3 311 318
536 3 311 319
537 2 755 756
538 3 755 761
539 3 755 762
540 3 755 763
541 4 756 757
542 5 174 175
543 4 174 176
544 5 517 518
545 4 517 519
546 4 516 517
547 2 515 516
548 3 515 521
549 3 515 522
550 3 515 523
551 5 757 758
552 4 757 759
553 1 201 202
554 2 201 206
555 3 201 207
556 3 201 208
557 5 204 205
558 4 204 206
559 2 202 203
560 3 202 209
561 3 202 210
562 2 759 760
563 4 203 204
564 3 760 764
565 3 760 765
566 3 760 766
567 2 963 964
568 3 784 788
569 3 784 789
570 3 784 790
571 4 528 529
572 5 961 962
573 4 961 963
574 5 529 530
575 4 529 531
576 2 959 960
577 3 959 965
578 3 959 966
579 3 959 967
580 2 639 640
581 3 640 644
582 3 640 645
583 3 640 646
584 4 912 913
585 5 349 350
586 4 349 351
587 4 960 961
588 3 340 344
589 3 340 345
590 3 340 346
591 5 913 914
592 4 913 915
593 2 915 916
594 2 527 528
595 3 527 533
596 3 527 534
597 3 527 535
598 3 916 920
599 3 916 921
600 3 916 922
601 3 892 896
602 3 892 897
603 3 892 898
604 4 348 349
605 5 1022 1023
606 6 1022 1024
607 5 1024 1025
608 4 1024 1026
609 2 615 616
610 3 616 620
611 3 616 621
612 3 616 622
613 2 611 612
614 3 611 617
615 3 611 618
616 3 611 619
617 2 551 552
618 3 551 557
619 3 551 558
620 3 551 559
621 4 612 613
622 5 613 614
623 4 613 615
624 5 553 554
625 4 553 555
626 4 552 553
627 2 555 556
628 3 556 560
629 3 556 561
630 3 556 562
631 3 880 884
632 3 880 885
633 3 880 886
634 2 339 340
635 5 673 674
636 4 673 675
637 2 879 880
638 2 675 676
639 2 347 348
640 3 347 353
641 3 347 354
642 3 347 355
643 1 121 122
644 2 121 126
645 3 121 127
646 3 121 128
647 4 672 673
648 2 671 672
649 3 671 677
650 3 671 678
651 3 671 679
652 5 124 125
653 4 124 126
654 3 376 380
655 3 376 381
656 3 376 382
657 2 122 123
658 3 122 129
659 3 122 130
660 5 337 338
661 4 337 339
662 4 336 337
663 4 123 124
664 2 335 336
665 3 335 341
666 3 335 342
667 3 335 343
668 2 375 376
669 5 373 374
670 4 373 375
671 4 372 373
672 5 74 75
673 4 74 76
674 2 539 540
675 3 539 545
676 3 539 546
677 3 539 547
678 4 624 625
679 2 623 624
680 3 623 629
681 3 623 630
682 3 623 631
683 5 625 626
684 4 625 627
685 4 253 254
686 5 254 255
687 4 254 256
688 2 627 628
689 3 628 632
690 3 628 633
691 3 628 634
692 2 252 253
693 3 252 259
694 3 252 260
695 1 251 252
696 2 251 256
697 3 251 257
698 3 251 258
699 4 540 541
700 5 541 542
701 4 541 543
702 3 700 704
703 3 700 705
704 3 700 706
705 2 543 544
706 2 695 696
707 3 695 701
708 3 695 702
709 3 695 703
710 5 697 698
711 4 697 699
712 4 83 84
713 1 181 182
714 2 181 186
715 3 181 187
716 3 181 188
717 2 182 183
718 3 182 189
719 3 182 190
720 5 184 185
721 4 184 186
722 4 183 184
723 2 767 768
724 3 767 773
725 3 767 774
726 3 767 775
727 5 769 770
728 4 769 771
729 2 771 772
730 4 768 769
731 4 816 817
732 2 815 816
733 3 815 821
734 3 815 822
735 3 815 823
736 5 817 818
737 4 817 819
738 2 819 820
739 3 820 824
740 3 820 825
741 3 820 826
742 1 161 162
743 2 161 166
744 3 161 167
745 3 161 168
746 2 162 163
747 3 162 169
748 3 162 170
749 4 696 697
750 2 699 700
751 3 496 500
752 3 496 501
753 3 496 502
754 4 213 214
755 2 495 496
756 5 214 215
757 4 214 216
758 5 493 494
759 4 493 495
760 2 32 33
761 3 32 39
762 3 32 40
763 1 211 212
764 2 211 216
765 3 211 217
766 3 211 218
767 1 31 32
768 2 31 36
769 3 31 37
770 3 31 38
771 4 492 493
772 2 491 492
773 3 491 497
774 3 491 498
775 3 491 499
776 3 604 608
777 3 604 609
778 3 604 610
779 3 592 596
780 3 592 597
781 3 592 598
782 4 33 34
783 5 34 35
784 4 34 36
785 2 507 508
786 4 504 505
787 5 505 506
788 4 505 507
789 3 472 476
790 3 472 477
791 3 472 478
792 2 503 504
793 3 503 509
794 3 503 510
795 3 503 511
796 5 54 55
797 4 54 56
798 4 133 134
799 5 1074 1075
800 6 1074 1076
801 7 1069 1070
802 7 1069 1073
803 7 1069 1078
804 4 1073 1074
805 1 131 132
806 2 131 136
807 3 131 137
808 3 131 138
809 5 134 135
810 4 134 136
811 3 424 428
812 3 424 429
813 3 424 430
814 2 887 888
815 3 887 893
816 3 887 894
817 3 887 895
818 2 132 133
819 3 132 139
820 3 132 140
821 2 423 424
822 4 1070 1071
823 4 888 889
824 4 53 54
825 4 1015 1016
826 6 1015 1019
827 7 1016 1017
828 5 1014 1015
829 5 94 95
830 4 94 96
831 7 1068 1069
832 2 52 53
833 3 52 59
834 3 52 60
835 1 51 52
836 2 51 56
837 3 51 57
838 3 51 58
839 5 1071 1072
840 4 1067 1068
841 6 1067 1071
842 5 1066 1067
843 5 164 165
844 4 164 166
845 4 163 164
846 4 732 733
847 2 731 732
848 3 731 737
849 3 731 738
850 3 731 739
851 5 565 566
852 4 565 567
853 4 564 565
854 2 567 568
855 2 563 564
856 3 563 569
857 3 563 570
858 3 563 571
859 1 91 92
860 2 91 96
861 3 91 97
862 3 91 98
863 2 92 93
864 3 92 99
865 3 92 100
866 1 171 172
867 2 171 176
868 3 171 177
869 3 171 178
870 2 603 604
871 2 443 444
872 3 443 449
873 3 443 450
874 3 443 451
875 5 421 422
876 4 421 423
877 5 793 794
878 4 793 795
879 2 791 792
880 3 791 797
881 3 791 798
882 3 791 799
883 4 792 793
884 2 172 173
885 3 172 179
886 3 172 180
887 5 601 602
888 4 601 603
889 4 420 421
890 2 419 420
891 3 419 425
892 3 419 426
893 3 419 427
894 4 600 601
895 2 599 600
896 3 599 605
897 3 599 606
898 3 599 607
899 4 444 445
900 5 445 446
901 4 445 447
902 2 447 448
903 4 828 829
904 3 904 908
905 3 904 909
906 3 904 910
907 2 983 984
908 3 983 989
909 3 983 990
910 3 983 991
911 2 262 263
912 3 262 269
913 3 262 270
914 4 143 144
915 2 827 828
916 3 827 833
917 3 827 834
918 3 827 835
919 2 899 900
920 3 899 905
921 3 899 906
922 3 899 907
923 4 900 901
924 5 901 902
925 4 901 903
926 4 263 264
927 2 142 143
928 3 142 149
929 3 142 150
930 2 903 904
931 5 889 890
932 4 889 891
933 2 891 892
934 1 141 142
935 2 141 146
936 3 141 147
937 3 141 148
938 5 144 145
939 4 144 146
940 4 984 985
941 5 264 265
942 4 264 266
943 4 576 577
944 5 577 578
945 4 577 579
946 5 84 85
947 4 84 86
948 3 976 980
949 3 976 981
950 3 976 982
951 4 93 94
952 5 985 986
953 4 985 987
954 2 987 988
955 3 544 548
956 3 544 549
957 3 544 550
958 2 971 972
959 3 971 977
960 3 971 978
961 3 971 979
962 4 972 973
963 2 579 580
964 2 292 293
965 3 292 299
966 3 292 300
967 4 293 294
968 2 975 976
969 1 291 292
970 2 291 296
971 3 291 297
972 3 291 298
973 5 294 295
974 4 294 296
975 5 973 974
976 4 973 975
977 3 580 584
978 3 580 585
979 3 580 586
980 4 73 74
981 2 371 372
982 3 371 377
983 3 371 378
984 3 371 379
985 2 591 592
986 2 72 73
987 3 72 79
988 3 72 80
989 3 448 452
990 3 448 453
991 3 448 454
992 1 261 262
993 2 261 266
994 3 261 267
995 3 261 268
996 2 707 708
997 3 707 713
998 3 707 714
999 3 707 715
1000 4 708 709
1001 3 748 752
1002 3 748 753
1003 3 748 754
1004 1 71 72
1005 2 71 76
1006 3 71 77
1007 3 71 78
1008 2 747 748
1009 4 744 745
1010 5 745 746
1011 4 745 747
1012 2 711 712
1013 3 712 716
1014 3 712 717
1015 3 712 718
1016 2 743 744
1017 3 743 749
1018 3 743 750
1019 3 743 751
1020 5 709 710
1021 4 709 711

Angles

1 1 241 242 243
2 2 241 242 249
3 2 241 242 250
4 2 243 242 249
5 2 243 242 250
6 4 249 242 250
7 1 242 241 246
8 2 242 241 247
9 2 242 241 248
10 2 246 241 247
11 2 246 241 248
12 4 247 241 248
13 1 242 243 244
14 3 243 244 245
15 1 243 244 246
16 3 245 244 246
17 1 241 246 244
18 2 459 460 464
19 2 459 460 465
20 2 459 460 466
21 4 464 460 465
22 4 464 460 466
23 4 465 460 466
24 1 1 6 4
25 3 3 4 5
26 1 3 4 6
27 3 5 4 6
28 5 935 936 937
29 3 936 937 938
30 6 936 937 939
31 3 938 937 939
32 1 2 3 4
33 2 936 935 941
34 2 936 935 942
35 2 936 935 943
36 4 941 935 942
37 4 941 935 943
38 4 942 935 943
39 1 2 1 6
40 2 2 1 7
41 2 2 1 8
42 2 6 1 7
43 2 6 1 8
44 4 7 1 8
45 5 397 399 400
46 2 720 719 725
47 2 720 719 726
48 2 720 719 727
49 4 725 719 726
50 4 725 719 727
51 4 726 719 727
52 5 719 720 721
53 1 232 231 236
54 2 232 231 237
55 2 232 231 238
56 2 236 231 237
57 2 236 231 238
58 4 237 231 238
59 1 231 236 234
60 3 720 721 722
61 6 720 721 723
62 3 722 721 723
63 5 937 939 940
64 2 939 940 944
65 2 939 940 945
66 2 939 940 946
67 4 944 940 945
68 4 944 940 946
69 4 945 940 946
70 3 63 64 65
71 1 63 64 66
72 3 65 64 66
73 1 62 61 66
74 2 62 61 67
75 2 62 61 68
76 2 66 61 67
77 2 66 61 68
78 4 67 61 68
79 1 61 66 64
80 1 62 63 64
81 2 324 323 329
82 2 324 323 330
83 2 324 323 331
84 4 329 323 330
85 4 329 323 331
86 4 330 323 331
87 1 61 62 63
88 2 61 62 69
89 2 61 62 70
90 2 63 62 69
91 2 63 62 70
92 4 69 62 70
93 2 807 808 812
94 2 807 808 813
95 2 807 808 814
96 4 812 808 813
97 4 812 808 814
98 4 813 808 814
99 5 323 324 325
100 3 804 805 806
101 6 804 805 807
102 3 806 805 807
103 2 771 772 776
104 2 771 772 777
105 2 771 772 778
106 4 776 772 777
107 4 776 772 778
108 4 777 772 778
109 8 1056 1065 1063
110 2 951 952 956
111 2 951 952 957
112 2 951 952 958
113 4 956 952 957
114 4 956 952 958
115 4 957 952 958
116 2 804 803 809
117 2 804 803 810
118 2 804 803 811
119 4 809 803 810
120 4 809 803 811
121 4 810 803 811
122 1 302 301 306
123 2 302 301 307
124 2 302 301 308
125 2 306 301 307
126 2 306 301 308
127 4 307 301 308
128 1 301 302 303
129 2 301 302 309
130 2 301 302 310
131 2 303 302 309
132 2 303 302 310
133 4 309 302 310
134 5 385 387 388
135 2 387 388 392
136 2 387 388 393
137 2 387 388 394
138 4 392 388 393
139 4 392 388 394
140 4 393 388 394
141 5 383 384 385
142 3 384 385 386
143 6 384 385 387
144 3 386 385 387
145 2 843 844 848
146 2 843 844 849
147 2 843 844 850
148 4 848 844 849
149 4 848 844 850
150 4 849 844 850
151 5 841 843 844
152 1 301 306 304
153 3 303 304 305
154 1 303 304 306
155 3 305 304 306
156 2 408 407 413
157 2 408 407 414
158 2 408 407 415
159 4 413 407 414
160 4 413 407 415
161 4 414 407 415
162 5 407 408 409
163 1 302 303 304
164 3 1060 1061 1062
165 1 1060 1061 1063
166 7 1062 1061 1063
167 7 1061 1063 1064
168 1 1061 1063 1065
169 3 1064 1063 1065
170 3 840 841 842
171 6 840 841 843
172 3 842 841 843
173 2 384 383 389
174 2 384 383 390
175 2 384 383 391
176 4 389 383 390
177 4 389 383 391
178 4 390 383 391
179 8 1056 1060 1061
180 5 839 840 841
181 1 211 212 213
182 2 211 212 219
183 2 211 212 220
184 2 213 212 219
185 2 213 212 220
186 4 219 212 220
187 3 588 589 590
188 6 588 589 591
189 3 590 589 591
190 5 457 459 460
191 1 1 2 3
192 2 1 2 9
193 2 1 2 10
194 2 3 2 9
195 2 3 2 10
196 4 9 2 10
197 5 455 456 457
198 3 456 457 458
199 6 456 457 459
200 3 458 457 459
201 2 432 431 437
202 2 432 431 438
203 2 432 431 439
204 4 437 431 438
205 4 437 431 439
206 4 438 431 439
207 2 456 455 461
208 2 456 455 462
209 2 456 455 463
210 4 461 455 462
211 4 461 455 463
212 4 462 455 463
213 3 432 433 434
214 6 432 433 435
215 3 434 433 435
216 2 435 436 440
217 2 435 436 441
218 2 435 436 442
219 4 440 436 441
220 4 440 436 442
221 4 441 436 442
222 7 1009 1011 1012
223 1 1009 1011 1013
224 3 1012 1011 1013
225 8 1004 1013 1011
226 5 433 435 436
227 5 431 432 433
228 3 1008 1009 1010
229 1 1008 1009 1011
230 7 1010 1009 1011
231 2 507 508 512
232 2 507 508 513
233 2 507 508 514
234 4 512 508 513
235 4 512 508 514
236 4 513 508 514
237 1 282 283 284
238 5 409 411 412
239 2 411 412 416
240 2 411 412 417
241 2 411 412 418
242 4 416 412 417
243 4 416 412 418
244 4 417 412 418
245 3 283 284 285
246 1 283 284 286
247 3 285 284 286
248 2 483 484 488
249 2 483 484 489
250 2 483 484 490
251 4 488 484 489
252 4 488 484 490
253 4 489 484 490
254 5 481 483 484
255 3 480 481 482
256 6 480 481 483
257 3 482 481 483
258 5 479 480 481
259 3 1053 1054 1055
260 7 1053 1054 1058
261 1 1055 1054 1058
262 2 735 736 740
263 2 735 736 741
264 2 735 736 742
265 4 740 736 741
266 4 740 736 742
267 4 741 736 742
268 2 480 479 485
269 2 480 479 486
270 2 480 479 487
271 4 485 479 486
272 4 485 479 487
273 4 486 479 487
274 8 1054 1055 1056
275 5 733 735 736
276 2 927 928 932
277 2 927 928 933
278 2 927 928 934
279 4 932 928 933
280 4 932 928 934
281 4 933 928 934
282 3 924 925 926
283 6 924 925 927
284 3 926 925 927
285 2 924 923 929
286 2 924 923 930
287 2 924 923 931
288 4 929 923 930
289 4 929 923 931
290 4 930 923 931
291 2 567 568 572
292 2 567 568 573
293 2 567 568 574
294 4 572 568 573
295 4 572 568 574
296 4 573 568 574
297 3 732 733 734
298 6 732 733 735
299 3 734 733 735
300 3 408 409 410
301 6 408 409 411
302 3 410 409 411
303 1 1054 1058 1057
304 7 1054 1058 1059
305 3 1057 1058 1059
306 8 1056 1057 1058
307 1 281 282 283
308 2 281 282 289
309 2 281 282 290
310 2 283 282 289
311 2 283 282 290
312 4 289 282 290
313 9 1055 1056 1057
314 9 1055 1056 1060
315 9 1055 1056 1065
316 9 1057 1056 1060
317 9 1057 1056 1065
318 9 1060 1056 1065
319 1 281 286 284
320 1 282 281 286
321 2 282 281 287
322 2 282 281 288
323 2 286 281 287
324 2 286 281 288
325 4 287 281 288
326 1 11 12 13
327 2 11 12 19
328 2 11 12 20
329 2 13 12 19
330 2 13 12 20
331 4 19 12 20
332 1 12 11 16
333 2 12 11 17
334 2 12 11 18
335 2 16 11 17
336 2 16 11 18
337 4 17 11 18
338 3 13 14 15
339 1 13 14 16
340 3 15 14 16
341 1 11 16 14
342 2 864 863 869
343 2 864 863 870
344 2 864 863 871
345 4 869 863 870
346 4 869 863 871
347 4 870 863 871
348 1 12 13 14
349 3 864 865 866
350 6 864 865 867
351 3 866 865 867
352 5 863 864 865
353 2 795 796 800
354 2 795 796 801
355 2 795 796 802
356 4 800 796 801
357 4 800 796 802
358 4 801 796 802
359 5 793 795 796
360 2 651 652 656
361 2 651 652 657
362 2 651 652 658
363 4 656 652 657
364 4 656 652 658
365 4 657 652 658
366 5 649 651 652
367 5 647 648 649
368 3 648 649 650
369 6 648 649 651
370 3 650 649 651
371 2 648 647 653
372 2 648 647 654
373 2 648 647 655
374 4 653 647 654
375 4 653 647 655
376 4 654 647 655
377 8 1004 1008 1009
378 9 1003 1004 1005
379 9 1003 1004 1008
380 9 1003 1004 1013
381 9 1005 1004 1008
382 9 1005 1004 1013
383 9 1008 1004 1013
384 8 1004 1005 1006
385 8 1002 1003 1004
386 5 829 831 832
387 2 831 832 836
388 2 831 832 837
389 2 831 832 838
390 4 836 832 837
391 4 836 832 838
392 4 837 832 838
393 3 828 829 830
394 6 828 829 831
395 3 830 829 831
396 3 1001 1002 1003
397 7 1001 1002 1006
398 1 1003 1002 1006
399 1 1002 1006 1005
400 7 1002 1006 1007
401 3 1005 1006 1007
402 2 636 635 641
403 2 636 635 642
404 2 636 635 643
405 4 641 635 642
406 4 641 635 643
407 4 642 635 643
408 5 635 636 637
409 2 399 400 404
410 2 399 400 405
411 2 399 400 406
412 4 404 400 405
413 4 404 400 406
414 4 405 400 406
415 3 396 397 398
416 6 396 397 399
417 3 398 397 399
418 1 21 22 23
419 2 21 22 29
420 2 21 22 30
421 2 23 22 29
422 2 23 22 30
423 4 29 22 30
424 5 395 396 397
425 3 636 637 638
426 6 636 637 639
427 3 638 637 639
428 3 324 325 326
429 6 324 325 327
430 3 326 325 327
431 1 21 26 24
432 1 22 21 26
433 2 22 21 27
434 2 22 21 28
435 2 26 21 27
436 2 26 21 28
437 4 27 21 28
438 2 660 659 665
439 2 660 659 666
440 2 660 659 667
441 4 665 659 666
442 4 665 659 667
443 4 666 659 667
444 3 23 24 25
445 1 23 24 26
446 3 25 24 26
447 5 659 660 661
448 5 661 663 664
449 1 22 23 24
450 3 660 661 662
451 6 660 661 663
452 3 662 661 663
453 5 325 327 328
454 2 576 575 581
455 2 576 575 582
456 2 576 575 583
457 4 581 575 582
458 4 581 575 583
459 4 582 575 583
460 2 327 328 332
461 2 327 328 333
462 2 327 328 334
463 4 332 328 333
464 4 332 328 334
465 4 333 328 334
466 2 396 395 401
467 2 396 395 402
468 2 396 395 403
469 4 401 395 402
470 4 401 395 403
471 4 402 395 403
472 2 663 664 668
473 2 663 664 669
474 2 663 664 670
475 4 668 664 669
476 4 668 664 670
477 4 669 664 670
478 2 987 988 992
479 2 987 988 993
480 2 987 988 994
481 4 992 988 993
482 4 992 988 994
483 4 993 988 994
484 2 588 587 593
485 2 588 587 594
486 2 588 587 595
487 4 593 587 594
488 4 593 587 595
489 4 594 587 595
490 2 867 868 872
491 2 867 868 873
492 2 867 868 874
493 4 872 868 873
494 4 872 868 874
495 4 873 868 874
496 2 876 875 881
497 2 876 875 882
498 2 876 875 883
499 4 881 875 882
500 4 881 875 883
501 4 882 875 883
502 5 865 867 868
503 2 840 839 845
504 2 840 839 846
505 2 840 839 847
506 4 845 839 846
507 4 845 839 847
508 4 846 839 847
509 3 876 877 878
510 6 876 877 879
511 3 878 877 879
512 1 1041 1045 1044
513 7 1041 1045 1046
514 3 1044 1045 1046
515 8 1043 1044 1045
516 3 1040 1041 1042
517 7 1040 1041 1045
518 1 1042 1041 1045
519 8 1041 1042 1043
520 9 1042 1043 1044
521 9 1042 1043 1047
522 9 1042 1043 1052
523 9 1044 1043 1047
524 9 1044 1043 1052
525 9 1047 1043 1052
526 8 1043 1052 1050
527 7 1048 1050 1051
528 1 1048 1050 1052
529 3 1051 1050 1052
530 8 1043 1047 1048
531 3 1047 1048 1049
532 1 1047 1048 1050
533 7 1049 1048 1050
534 5 875 876 877
535 5 587 588 589
536 1 231 232 233
537 2 231 232 239
538 2 231 232 240
539 2 233 232 239
540 2 233 232 240
541 4 239 232 240
542 3 233 234 235
543 1 233 234 236
544 3 235 234 236
545 5 721 723 724
546 1 232 233 234
547 3 852 853 854
548 6 852 853 855
549 3 854 853 855
550 2 852 851 857
551 2 852 851 858
552 2 852 851 859
553 4 857 851 858
554 4 857 851 859
555 4 858 851 859
556 5 851 852 853
557 5 467 468 469
558 3 468 469 470
559 6 468 469 471
560 3 470 469 471
561 2 468 467 473
562 2 468 467 474
563 2 468 467 475
564 4 473 467 474
565 4 473 467 475
566 4 474 467 475
567 2 723 724 728
568 2 723 724 729
569 2 723 724 730
570 4 728 724 729
571 4 728 724 730
572 4 729 724 730
573 5 469 471 472
574 5 529 531 532
575 2 948 947 953
576 2 948 947 954
577 2 948 947 955
578 4 953 947 954
579 4 953 947 955
580 4 954 947 955
581 2 351 352 356
582 2 351 352 357
583 2 351 352 358
584 4 356 352 357
585 4 356 352 358
586 4 357 352 358
587 5 349 351 352
588 5 853 855 856
589 2 531 532 536
590 2 531 532 537
591 2 531 532 538
592 4 536 532 537
593 4 536 532 538
594 4 537 532 538
595 5 949 951 952
596 5 803 804 805
597 5 805 807 808
598 5 947 948 949
599 3 948 949 950
600 6 948 949 951
601 3 950 949 951
602 3 360 361 362
603 6 360 361 363
604 3 362 361 363
605 1 102 103 104
606 1 101 102 103
607 2 101 102 109
608 2 101 102 110
609 2 103 102 109
610 2 103 102 110
611 4 109 102 110
612 1 102 101 106
613 2 102 101 107
614 2 102 101 108
615 2 106 101 107
616 2 106 101 108
617 4 107 101 108
618 1 101 106 104
619 3 103 104 105
620 1 103 104 106
621 3 105 104 106
622 2 360 359 365
623 2 360 359 366
624 2 360 359 367
625 4 365 359 366
626 4 365 359 367
627 4 366 359 367
628 5 359 360 361
629 5 361 363 364
630 2 363 364 368
631 2 363 364 369
632 2 363 364 370
633 4 368 364 369
634 4 368 364 370
635 4 369 364 370
636 3 1027 1028 1029
637 7 1027 1028 1032
638 1 1029 1028 1032
639 2 855 856 860
640 2 855 856 861
641 2 855 856 862
642 4 860 856 861
643 4 860 856 862
644 4 861 856 862
645 1 112 111 116
646 2 112 111 117
647 2 112 111 118
648 2 116 111 117
649 2 116 111 118
650 4 117 111 118
651 1 111 112 113
652 2 111 112 119
653 2 111 112 120
654 2 113 112 119
655 2 113 112 120
656 4 119 112 120
657 1 81 82 83
658 2 81 82 89
659 2 81 82 90
660 2 83 82 89
661 2 83 82 90
662 4 89 82 90
663 1 111 116 114
664 2 963 964 968
665 2 963 964 969
666 2 963 964 970
667 4 968 964 969
668 4 968 964 970
669 4 969 964 970
670 3 193 194 195
671 1 193 194 196
672 3 195 194 196
673 1 191 192 193
674 2 191 192 199
675 2 191 192 200
676 2 193 192 199
677 2 193 192 200
678 4 199 192 200
679 1 192 193 194
680 1 82 81 86
681 2 82 81 87
682 2 82 81 88
683 2 86 81 87
684 2 86 81 88
685 4 87 81 88
686 1 1028 1032 1031
687 7 1028 1032 1033
688 3 1031 1032 1033
689 1 112 113 114
690 3 113 114 115
691 1 113 114 116
692 3 115 114 116
693 1 192 191 196
694 2 192 191 197
695 2 192 191 198
696 2 196 191 197
697 2 196 191 198
698 4 197 191 198
699 8 1030 1031 1032
700 8 1028 1029 1030
701 8 1030 1034 1035
702 3 1034 1035 1036
703 1 1034 1035 1037
704 7 1036 1035 1037
705 7 1035 1037 1038
706 1 1035 1037 1039
707 3 1038 1037 1039
708 8 1030 1039 1037
709 9 1029 1030 1031
710 9 1029 1030 1034
711 9 1029 1030 1039
712 9 1031 1030 1034
713 9 1031 1030 1039
714 9 1034 1030 1039
715 1 191 196 194
716 1 121 126 124
717 2 687 688 692
718 2 687 688 693
719 2 687 688 694
720 4 692 688 693
721 4 692 688 694
722 4 693 688 694
723 3 684 685 686
724 6 684 685 687
725 3 686 685 687
726 2 684 683 689
727 2 684 683 690
728 2 684 683 691
729 4 689 683 690
730 4 689 683 691
731 4 690 683 691
732 3 43 44 45
733 1 43 44 46
734 3 45 44 46
735 1 41 46 44
736 5 683 684 685
737 5 685 687 688
738 5 781 783 784
739 3 780 781 782
740 6 780 781 783
741 3 782 781 783
742 2 315 316 320
743 2 315 316 321
744 2 315 316 322
745 4 320 316 321
746 4 320 316 322
747 4 321 316 322
748 5 313 315 316
749 7 1074 1076 1077
750 1 1074 1076 1078
751 3 1077 1076 1078
752 8 1069 1078 1076
753 5 779 780 781
754 2 780 779 785
755 2 780 779 786
756 2 780 779 787
757 4 785 779 786
758 4 785 779 787
759 4 786 779 787
760 1 42 41 46
761 2 42 41 47
762 2 42 41 48
763 2 46 41 47
764 2 46 41 48
765 4 47 41 48
766 1 221 226 224
767 1 41 42 43
768 2 41 42 49
769 2 41 42 50
770 2 43 42 49
771 2 43 42 50
772 4 49 42 50
773 1 42 43 44
774 3 312 313 314
775 6 312 313 315
776 3 314 313 315
777 5 311 312 313
778 1 172 173 174
779 2 912 911 917
780 2 912 911 918
781 2 912 911 919
782 4 917 911 918
783 4 917 911 919
784 4 918 911 919
785 5 923 924 925
786 5 925 927 928
787 1 222 221 226
788 2 222 221 227
789 2 222 221 228
790 2 226 221 227
791 2 226 221 228
792 4 227 221 228
793 1 221 222 223
794 2 221 222 229
795 2 221 222 230
796 2 223 222 229
797 2 223 222 230
798 4 229 222 230
799 1 222 223 224
800 3 223 224 225
801 1 223 224 226
802 3 225 224 226
803 1 271 272 273
804 2 271 272 279
805 2 271 272 280
806 2 273 272 279
807 2 273 272 280
808 4 279 272 280
809 1 272 271 276
810 2 272 271 277
811 2 272 271 278
812 2 276 271 277
813 2 276 271 278
814 4 277 271 278
815 1 271 276 274
816 1 151 152 153
817 2 151 152 159
818 2 151 152 160
819 2 153 152 159
820 2 153 152 160
821 4 159 152 160
822 1 152 151 156
823 2 152 151 157
824 2 152 151 158
825 2 156 151 157
826 2 156 151 158
827 4 157 151 158
828 1 151 156 154
829 3 153 154 155
830 1 153 154 156
831 3 155 154 156
832 8 1017 1018 1019
833 1 1015 1019 1018
834 7 1015 1019 1020
835 3 1018 1019 1020
836 9 1016 1017 1018
837 9 1016 1017 1021
838 9 1016 1017 1026
839 9 1018 1017 1021
840 9 1018 1017 1026
841 9 1021 1017 1026
842 8 1017 1021 1022
843 1 272 273 274
844 8 1017 1026 1024
845 1 152 153 154
846 3 273 274 275
847 1 273 274 276
848 3 275 274 276
849 2 675 676 680
850 2 675 676 681
851 2 675 676 682
852 4 680 676 681
853 4 680 676 682
854 4 681 676 682
855 5 517 519 520
856 2 519 520 524
857 2 519 520 525
858 2 519 520 526
859 4 524 520 525
860 4 524 520 526
861 4 525 520 526
862 2 312 311 317
863 2 312 311 318
864 2 312 311 319
865 4 317 311 318
866 4 317 311 319
867 4 318 311 319
868 2 756 755 761
869 2 756 755 762
870 2 756 755 763
871 4 761 755 762
872 4 761 755 763
873 4 762 755 763
874 5 755 756 757
875 1 171 176 174
876 3 173 174 175
877 1 173 174 176
878 3 175 174 176
879 3 516 517 518
880 6 516 517 519
881 3 518 517 519
882 5 515 516 517
883 2 516 515 521
884 2 516 515 522
885 2 516 515 523
886 4 521 515 522
887 4 521 515 523
888 4 522 515 523
889 3 756 757 758
890 6 756 757 759
891 3 758 757 759
892 1 201 206 204
893 1 202 201 206
894 2 202 201 207
895 2 202 201 208
896 2 206 201 207
897 2 206 201 208
898 4 207 201 208
899 3 203 204 205
900 1 203 204 206
901 3 205 204 206
902 1 201 202 203
903 2 201 202 209
904 2 201 202 210
905 2 203 202 209
906 2 203 202 210
907 4 209 202 210
908 5 757 759 760
909 1 202 203 204
910 2 759 760 764
911 2 759 760 765
912 2 759 760 766
913 4 764 760 765
914 4 764 760 766
915 4 765 760 766
916 5 961 963 964
917 2 783 784 788
918 2 783 784 789
919 2 783 784 790
920 4 788 784 789
921 4 788 784 790
922 4 789 784 790
923 5 527 528 529
924 3 960 961 962
925 6 960 961 963
926 3 962 961 963
927 3 528 529 530
928 6 528 529 531
929 3 530 529 531
930 2 960 959 965
931 2 960 959 966
932 2 960 959 967
933 4 965 959 966
934 4 965 959 967
935 4 966 959 967
936 5 637 639 640
937 2 639 640 644
938 2 639 640 645
939 2 639 640 646
940 4 644 640 645
941 4 644 640 646
942 4 645 640 646
943 5 911 912 913
944 3 348 349 350
945 6 348 349 351
946 3 350 349 351
947 5 959 960 961
948 2 339 340 344
949 2 339 340 345
950 2 339 340 346
951 4 344 340 345
952 4 344 340 346
953 4 345 340 346
954 3 912 913 914
955 6 912 913 915
956 3 914 913 915
957 5 913 915 916
958 2 528 527 533
959 2 528 527 534
960 2 528 527 535
961 4 533 527 534
962 4 533 527 535
963 4 534 527 535
964 2 915 916 920
965 2 915 916 921
966 2 915 916 922
967 4 920 916 921
968 4 920 916 922
969 4 921 916 922
970 2 891 892 896
971 2 891 892 897
972 2 891 892 898
973 4 896 892 897
974 4 896 892 898
975 4 897 892 898
976 5 347 348 349
977 3 1021 1022 1023
978 1 1021 1022 1024
979 7 1023 1022 1024
980 7 1022 1024 1025
981 1 1022 1024 1026
982 3 1025 1024 1026
983 5 613 615 616
984 2 615 616 620
985 2 615 616 621
986 2 615 616 622
987 4 620 616 621
988 4 620 616 622
989 4 621 616 622
990 2 612 611 617
991 2 612 611 618
992 2 612 611 619
993 4 617 611 618
994 4 617 611 619
995 4 618 611 619
996 2 552 551 557
997 2 552 551 558
998 2 552 551 559
999 4 557 551 558
1000 4 557 551 559
1001 4 558 551 559
1002 5 611 612 613
1003 3 612 613 614
1004 6 612 613 615
1005 3 614 613 615
1006 3 552 553 554
1007 6 552 553 555
1008 3 554 553 555
1009 5 551 552 553
1010 5 553 555 556
1011 2 555 556 560
1012 2 555 556 561
1013 2 555 556 562
1014 4 560 556 561
1015 4 560 556 562
1016 4 561 556 562
1017 2 879 880 884
1018 2 879 880 885
1019 2 879 880 886
1020 4 884 880 885
1021 4 884 880 886
1022 4 885 880 886
1023 5 337 339 340
1024 3 672 673 674
1025 6 672 673 675
1026 3 674 673 675
1027 5 877 879 880
1028 5 673 675 676
1029 2 348 347 353
1030 2 348 347 354
1031 2 348 347 355
1032 4 353 347 354
1033 4 353 347 355
1034 4 354 347 355
1035 1 122 121 126
1036 2 122 121 127
1037 2 122 121 128
1038 2 126 121 127
1039 2 126 121 128
1040 4 127 121 128
1041 5 671 672 673
1042 2 672 671 677
1043 2 672 671 678
1044 2 672 671 679
1045 4 677 671 678
1046 4 677 671 679
1047 4 678 671 679
1048 3 123 124 125
1049 1 123 124 126
1050 3 125 124 126
1051 2 375 376 380
1052 2 375 376 381
1053 2 375 376 382
1054 4 380 376 381
1055 4 380 376 382
1056 4 381 376 382
1057 1 121 122 123
1058 2 121 122 129
1059 2 121 122 130
1060 2 123 122 129
1061 2 123 122 130
1062 4 129 122 130
1063 3 336 337 338
1064 6 336 337 339
1065 3 338 337 339
1066 5 335 336 337
1067 1 122 123 124
1068 2 336 335 341
1069 2 336 335 342
1070 2 336 335 343
1071 4 341 335 342
1072 4 341 335 343
1073 4 342 335 343
1074 5 373 375 376
1075 3 372 373 374
1076 6 372 373 375
1077 3 374 373 375
1078 5 371 372 373
1079 3 73 74 75
1080 1 73 74 76
1081 3 75 74 76
1082 1 71 76 74
1083 2 540 539 545
1084 2 540 539 546
1085 2 540 539 547
1086 4 545 539 546
1087 4 545 539 547
1088 4 546 539 547
1089 5 623 624 625
1090 2 624 623 629
1091 2 624 623 630
1092 2 624 623 631
1093 4 629 623 630
1094 4 629 623 631
1095 4 630 623 631
1096 3 624 625 626
1097 6 624 625 627
1098 3 626 625 627
1099 1 252 253 254
1100 3 253 254 255
1101 1 253 254 256
1102 3 255 254 256
1103 5 625 627 628
1104 2 627 628 632
1105 2 627 628 633
1106 2 627 628 634
1107 4 632 628 633
1108 4 632 628 634
1109 4 633 628 634
1110 1 251 252 253
1111 2 251 252 259
1112 2 251 252 260
1113 2 253 252 259
1114 2 253 252 260
1115 4 259 252 260
1116 1 251 256 254
1117 1 252 251 256
1118 2 252 251 257
1119 2 252 251 258
1120 2 256 251 257
1121 2 256 251 258
1122 4 257 251 258
1123 5 539 540 541
1124 3 540 541 542
1125 6 540 541 543
1126 3 542 541 543
1127 2 699 700 704
1128 2 699 700 705
1129 2 699 700 706
1130 4 704 700 705
1131 4 704 700 706
1132 4 705 700 706
1133 5 541 543 544
1134 2 696 695 701
1135 2 696 695 702
1136 2 696 695 703
1137 4 701 695 702
1138 4 701 695 703
1139 4 702 695 703
1140 3 696 697 698
1141 6 696 697 699
1142 3 698 697 699
1143 1 82 83 84
1144 1 182 181 186
1145 2 182 181 187
1146 2 182 181 188
1147 2 186 181 187
1148 2 186 181 188
1149 4 187 181 188
1150 1 181 182 183
1151 2 181 182 189
1152 2 181 182 190
1153 2 183 182 189
1154 2 183 182 190
1155 4 189 182 190
1156 3 183 184 185
1157 1 183 184 186
1158 3 185 184 186
1159 1 182 183 184
1160 2 768 767 773
1161 2 768 767 774
1162 2 768 767 775
1163 4 773 767 774
1164 4 773 767 775
1165 4 774 767 775
1166 3 768 769 770
1167 6 768 769 771
1168 3 770 769 771
1169 5 769 771 772
1170 5 767 768 769
1171 5 815 816 817
1172 2 816 815 821
1173 2 816 815 822
1174 2 816 815 823
1175 4 821 815 822
1176 4 821 815 823
1177 4 822 815 823
1178 1 181 186 184
1179 3 816 817 818
1180 6 816 817 819
1181 3 818 817 819
1182 5 817 819 820
1183 2 819 820 824
1184 2 819 820 825
1185 2 819 820 826
1186 4 824 820 825
1187 4 824 820 826
1188 4 825 820 826
1189 1 162 161 166
1190 2 162 161 167
1191 2 162 161 168
1192 2 166 161 167
1193 2 166 161 168
1194 4 167 161 168
1195 1 161 162 163
1196 2 161 162 169
1197 2 161 162 170
1198 2 163 162 169
1199 2 163 162 170
1200 4 169 162 170
1201 5 695 696 697
1202 5 697 699 700
1203 2 495 496 500
1204 2 495 496 501
1205 2 495 496 502
1206 4 500 496 501
1207 4 500 496 502
1208 4 501 496 502
1209 1 212 213 214
1210 5 493 495 496
1211 3 213 214 215
1212 1 213 214 216
1213 3 215 214 216
1214 3 492 493 494
1215 6 492 493 495
1216 3 494 493 495
1217 1 211 216 214
1218 1 31 32 33
1219 2 31 32 39
1220 2 31 32 40
1221 2 33 32 39
1222 2 33 32 40
1223 4 39 32 40
1224 1 212 211 216
1225 2 212 211 217
1226 2 212 211 218
1227 2 216 211 217
1228 2 216 211 218
1229 4 217 211 218
1230 1 32 31 36
1231 2 32 31 37
1232 2 32 31 38
1233 2 36 31 37
1234 2 36 31 38
1235 4 37 31 38
1236 1 31 36 34
1237 5 491 492 493
1238 2 492 491 497
1239 2 492 491 498
1240 2 492 491 499
1241 4 497 491 498
1242 4 497 491 499
1243 4 498 491 499
1244 2 603 604 608
1245 2 603 604 609
1246 2 603 604 610
1247 4 608 604 609
1248 4 608 604 610
1249 4 609 604 610
1250 2 591 592 596
1251 2 591 592 597
1252 2 591 592 598
1253 4 596 592 597
1254 4 596 592 598
1255 4 597 592 598
1256 1 32 33 34
1257 3 33 34 35
1258 1 33 34 36
1259 3 35 34 36
1260 5 505 507 508
1261 5 503 504 505
1262 3 504 505 506
1263 6 504 505 507
1264 3 506 505 507
1265 2 471 472 476
1266 2 471 472 477
1267 2 471 472 478
1268 4 476 472 477
1269 4 476 472 478
1270 4 477 472 478
1271 2 504 503 509
1272 2 504 503 510
1273 2 504 503 511
1274 4 509 503 510
1275 4 509 503 511
1276 4 510 503 511
1277 3 53 54 55
1278 1 53 54 56
1279 3 55 54 56
1280 1 132 133 134
1281 3 1073 1074 1075
1282 1 1073 1074 1076
1283 7 1075 1074 1076
1284 9 1068 1069 1070
1285 9 1068 1069 1073
1286 9 1068 1069 1078
1287 9 1070 1069 1073
1288 9 1070 1069 1078
1289 9 1073 1069 1078
1290 8 1069 1073 1074
1291 1 132 131 136
1292 2 132 131 137
1293 2 132 131 138
1294 2 136 131 137
1295 2 136 131 138
1296 4 137 131 138
1297 3 133 134 135
1298 1 133 134 136
1299 3 135 134 136
1300 1 131 136 134
1301 2 423 424 428
1302 2 423 424 429
1303 2 423 424 430
1304 4 428 424 429
1305 4 428 424 430
1306 4 429 424 430
1307 2 888 887 893
1308 2 888 887 894
1309 2 888 887 895
1310 4 893 887 894
1311 4 893 887 895
1312 4 894 887 895
1313 1 131 132 133
1314 2 131 132 139
1315 2 131 132 140
1316 2 133 132 139
1317 2 133 132 140
1318 4 139 132 140
1319 5 421 423 424
1320 8 1069 1070 1071
1321 5 887 888 889
1322 1 52 53 54
1323 3 1014 1015 1016
1324 7 1014 1015 1019
1325 1 1016 1015 1019
1326 8 1015 1016 1017
1327 3 93 94 95
1328 1 93 94 96
1329 3 95 94 96
1330 8 1067 1068 1069
1331 1 51 52 53
1332 2 51 52 59
1333 2 51 52 60
1334 2 53 52 59
1335 2 53 52 60
1336 4 59 52 60
1337 1 161 166 164
1338 1 51 56 54
1339 1 52 51 56
1340 2 52 51 57
1341 2 52 51 58
1342 2 56 51 57
1343 2 56 51 58
1344 4 57 51 58
1345 1 1067 1071 1070
1346 7 1067 1071 1072
1347 3 1070 1071 1072
1348 3 1066 1067 1068
1349 7 1066 1067 1071
1350 1 1068 1067 1071
1351 3 163 164 165
1352 1 163 164 166
1353 3 165 164 166
1354 1 162 163 164
1355 5 731 732 733
1356 2 732 731 737
1357 2 732 731 738
1358 2 732 731 739
1359 4 737 731 738
1360 4 737 731 739
1361 4 738 731 739
1362 3 564 565 566
1363 6 564 565 567
1364 3 566 565 567
1365 5 563 564 565
1366 5 565 567 568
1367 2 564 563 569
1368 2 564 563 570
1369 2 564 563 571
1370 4 569 563 570
1371 4 569 563 571
1372 4 570 563 571
1373 1 91 96 94
1374 1 92 91 96
1375 2 92 91 97
1376 2 92 91 98
1377 2 96 91 97
1378 2 96 91 98
1379 4 97 91 98
1380 1 91 92 93
1381 2 91 92 99
1382 2 91 92 100
1383 2 93 92 99
1384 2 93 92 100
1385 4 99 92 100
1386 1 172 171 176
1387 2 172 171 177
1388 2 172 171 178
1389 2 176 171 177
1390 2 176 171 178
1391 4 177 171 178
1392 5 601 603 604
1393 2 444 443 449
1394 2 444 443 450
1395 2 444 443 451
1396 4 449 443 450
1397 4 449 443 451
1398 4 450 443 451
1399 3 420 421 422
1400 6 420 421 423
1401 3 422 421 423
1402 3 792 793 794
1403 6 792 793 795
1404 3 794 793 795
1405 2 792 791 797
1406 2 792 791 798
1407 2 792 791 799
1408 4 797 791 798
1409 4 797 791 799
1410 4 798 791 799
1411 5 791 792 793
1412 1 171 172 173
1413 2 171 172 179
1414 2 171 172 180
1415 2 173 172 179
1416 2 173 172 180
1417 4 179 172 180
1418 3 600 601 602
1419 6 600 601 603
1420 3 602 601 603
1421 5 419 420 421
1422 2 420 419 425
1423 2 420 419 426
1424 2 420 419 427
1425 4 425 419 426
1426 4 425 419 427
1427 4 426 419 427
1428 5 599 600 601
1429 2 600 599 605
1430 2 600 599 606
1431 2 600 599 607
1432 4 605 599 606
1433 4 605 599 607
1434 4 606 599 607
1435 5 443 444 445
1436 3 444 445 446
1437 6 444 445 447
1438 3 446 445 447
1439 5 445 447 448
1440 5 827 828 829
1441 2 903 904 908
1442 2 903 904 909
1443 2 903 904 910
1444 4 908 904 909
1445 4 908 904 910
1446 4 909 904 910
1447 2 984 983 989
1448 2 984 983 990
1449 2 984 983 991
1450 4 989 983 990
1451 4 989 983 991
1452 4 990 983 991
1453 1 261 262 263
1454 2 261 262 269
1455 2 261 262 270
1456 2 263 262 269
1457 2 263 262 270
1458 4 269 262 270
1459 1 142 143 144
1460 2 828 827 833
1461 2 828 827 834
1462 2 828 827 835
1463 4 833 827 834
1464 4 833 827 835
1465 4 834 827 835
1466 2 900 899 905
1467 2 900 899 906
1468 2 900 899 907
1469 4 905 899 906
1470 4 905 899 907
1471 4 906 899 907
1472 5 899 900 901
1473 3 900 901 902
1474 6 900 901 903
1475 3 902 901 903
1476 1 262 263 264
1477 1 141 142 143
1478 2 141 142 149
1479 2 141 142 150
1480 2 143 142 149
1481 2 143 142 150
1482 4 149 142 150
1483 5 901 903 904
1484 3 888 889 890
1485 6 888 889 891
1486 3 890 889 891
1487 5 889 891 892
1488 1 141 146 144
1489 1 142 141 146
1490 2 142 141 147
1491 2 142 141 148
1492 2 146 141 147
1493 2 146 141 148
1494 4 147 141 148
1495 3 143 144 145
1496 1 143 144 146
1497 3 145 144 146
1498 5 983 984 985
1499 3 263 264 265
1500 1 263 264 266
1501 3 265 264 266
1502 5 575 576 577
1503 3 576 577 578
1504 6 576 577 579
1505 3 578 577 579
1506 3 83 84 85
1507 1 83 84 86
1508 3 85 84 86
1509 2 975 976 980
1510 2 975 976 981
1511 2 975 976 982
1512 4 980 976 981
1513 4 980 976 982
1514 4 981 976 982
1515 1 92 93 94
1516 3 984 985 986
1517 6 984 985 987
1518 3 986 985 987
1519 5 985 987 988
1520 2 543 544 548
1521 2 543 544 549
1522 2 543 544 550
1523 4 548 544 549
1524 4 548 544 550
1525 4 549 544 550
1526 2 972 971 977
1527 2 972 971 978
1528 2 972 971 979
1529 4 977 971 978
1530 4 977 971 979
1531 4 978 971 979
1532 5 971 972 973
1533 5 577 579 580
1534 1 291 292 293
1535 2 291 292 299
1536 2 291 292 300
1537 2 293 292 299
1538 2 293 292 300
1539 4 299 292 300
1540 1 292 293 294
1541 5 973 975 976
1542 1 292 291 296
1543 2 292 291 297
1544 2 292 291 298
1545 2 296 291 297
1546 2 296 291 298
1547 4 297 291 298
1548 1 291 296 294
1549 3 293 294 295
1550 1 293 294 296
1551 3 295 294 296
1552 3 972 973 974
1553 6 972 973 975
1554 3 974 973 975
1555 2 579 580 584
1556 2 579 580 585
1557 2 579 580 586
1558 4 584 580 585
1559 4 584 580 586
1560 4 585 580 586
1561 1 72 73 74
1562 2 372 371 377
1563 2 372 371 378
1564 2 372 371 379
1565 4 377 371 378
1566 4 377 371 379
1567 4 378 371 379
1568 1 81 86 84
1569 5 589 591 592
1570 1 71 72 73
1571 2 71 72 79
1572 2 71 72 80
1573 2 73 72 79
1574 2 73 72 80
1575 4 79 72 80
1576 2 447 448 452
1577 2 447 448 453
1578 2 447 448 454
1579 4 452 448 453
1580 4 452 448 454
1581 4 453 448 454
1582 1 262 261 266
1583 2 262 261 267
1584 2 262 261 268
1585 2 266 261 267
1586 2 266 261 268
1587 4 267 261 268
1588 1 261 266 264
1589 2 708 707 713
1590 2 708 707 714
1591 2 708 707 715
1592 4 713 707 714
1593 4 713 707 715
1594 4 714 707 715
1595 5 707 708 709
1596 2 747 748 752
1597 2 747 748 753
1598 2 747 748 754
1599 4 752 748 753
1600 4 752 748 754
1601 4 753 748 754
1602 1 72 71 76
1603 2 72 71 77
1604 2 72 71 78
1605 2 76 71 77
1606 2 76 71 78
1607 4 77 71 78
1608 5 745 747 748
1609 5 743 744 745
1610 3 744 745 746
1611 6 744 745 747
1612 3 746 745 747
1613 5 709 711 712
1614 2 711 712 716
1615 2 711 712 717
1616 2 711 712 718
1617 4 716 712 717
1618 4 716 712 718
1619 4 717 712 718
1620 2 744 743 749
1621 2 744 743 750
1622 2 744 743 751
1623 4 749 743 750
1624 4 749 743 751
1625 4 750 743 751
1626 3 708 709 710
1627 6 708 709 711
1628 3 710 709 711

Dihedrals

1 1 241 242 243 244
2 2 241 242 243 244
3 4 243 242 241 246
4 5 243 242 241 246
5 6 243 242 241 247
6 7 243 242 241 247
7 6 243 242 241 248
8 7 243 242 241 248
9 1 242 241 246 244
10 2 242 241 246 244
11 6 246 241 242 249
12 7 246 241 242 249
13 6 246 241 242 250
14 7 246 241 242 250
15 9 247 241 242 249
16 9 247 241 242 250
17 9 248 241 242 249
18 9 248 241 242 250
19 3 242 243 244 245
20 3 242 243 244 246
21 8 244 243 242 249
22 8 244 243 242 250
23 3 241 246 244 243
24 3 241 246 244 245
25 8 244 246 241 247
26 8 244 246 241 248
27 3 1 6 4 3
28 3 1 6 4 5
29 8 4 6 1 7
30 8 4 6 1 8
31 10 935 936 937 938
32 11 935 936 937 938
33 12 935 936 937 939
34 8 937 936 935 941
35 8 937 936 935 942
36 8 937 936 935 943
37 12 936 937 939 940
38 10 938 937 939 940
39 11 938 937 939 940
40 3 2 3 4 5
41 3 2 3 4 6
42 8 4 3 2 9
43 8 4 3 2 10
44 1 2 1 6 4
45 2 2 1 6 4
46 6 6 1 2 9
47 7 6 1 2 9
48 6 6 1 2 10
49 7 6 1 2 10
50 9 7 1 2 9
51 9 7 1 2 10
52 9 8 1 2 9
53 9 8 1 2 10
54 8 397 399 400 404
55 8 397 399 400 405
56 8 397 399 400 406
57 10 719 720 721 722
58 11 719 720 721 722
59 12 719 720 721 723
60 8 721 720 719 725
61 8 721 720 719 726
62 8 721 720 719 727
63 1 232 231 236 234
64 2 232 231 236 234
65 6 236 231 232 239
66 7 236 231 232 239
67 6 236 231 232 240
68 7 236 231 232 240
69 9 237 231 232 239
70 9 237 231 232 240
71 9 238 231 232 239
72 9 238 231 232 240
73 3 231 236 234 233
74 3 231 236 234 235
75 8 234 236 231 237
76 8 234 236 231 238
77 12 720 721 723 724
78 10 722 721 723 724
79 11 722 721 723 724
80 8 937 939 940 944
81 8 937 939 940 945
82 8 937 939 940 946
83 1 62 61 66 64
84 2 62 61 66 64
85 6 66 61 62 69
86 7 66 61 62 69
87 6 66 61 62 70
88 7 66 61 62 70
89 9 67 61 62 69
90 9 67 61 62 70
91 9 68 61 62 69
92 9 68 61 62 70
93 3 61 66 64 63
94 3 61 66 64 65
95 8 64 66 61 67
96 8 64 66 61 68
97 3 62 63 64 65
98 3 62 63 64 66
99 8 64 63 62 69
100 8 64 63 62 70
101 1 61 62 63 64
102 2 61 62 63 64
103 4 63 62 61 66
104 5 63 62 61 66
105 6 63 62 61 67
106 7 63 62 61 67
107 6 63 62 61 68
108 7 63 62 61 68
109 10 323 324 325 326
110 11 323 324 325 326
111 12 323 324 325 327
112 8 325 324 323 329
113 8 325 324 323 330
114 8 325 324 323 331
115 12 804 805 807 808
116 10 806 805 807 808
117 11 806 805 807 808
118 15 1056 1065 1063 1061
119 3 1056 1065 1063 1064
120 1 302 301 306 304
121 2 302 301 306 304
122 6 306 301 302 309
123 7 306 301 302 309
124 6 306 301 302 310
125 7 306 301 302 310
126 9 307 301 302 309
127 9 307 301 302 310
128 9 308 301 302 309
129 9 308 301 302 310
130 1 301 302 303 304
131 2 301 302 303 304
132 4 303 302 301 306
133 5 303 302 301 306
134 6 303 302 301 307
135 7 303 302 301 307
136 6 303 302 301 308
137 7 303 302 301 308
138 8 385 387 388 392
139 8 385 387 388 393
140 8 385 387 388 394
141 10 383 384 385 386
142 11 383 384 385 386
143 12 383 384 385 387
144 8 385 384 383 389
145 8 385 384 383 390
146 8 385 384 383 391
147 12 384 385 387 388
148 10 386 385 387 388
149 11 386 385 387 388
150 8 841 843 844 848
151 8 841 843 844 849
152 8 841 843 844 850
153 3 301 306 304 303
154 3 301 306 304 305
155 8 304 306 301 307
156 8 304 306 301 308
157 10 407 408 409 410
158 11 407 408 409 410
159 12 407 408 409 411
160 8 409 408 407 413
161 8 409 408 407 414
162 8 409 408 407 415
163 3 302 303 304 305
164 3 302 303 304 306
165 8 304 303 302 309
166 8 304 303 302 310
167 13 1060 1061 1063 1064
168 13 1060 1061 1063 1065
169 13 1062 1061 1063 1064
170 13 1062 1061 1063 1065
171 12 840 841 843 844
172 10 842 841 843 844
173 11 842 841 843 844
174 3 1056 1060 1061 1062
175 15 1056 1060 1061 1063
176 14 1061 1060 1056 1065
177 10 839 840 841 842
178 11 839 840 841 842
179 12 839 840 841 843
180 8 841 840 839 845
181 8 841 840 839 846
182 8 841 840 839 847
183 1 211 212 213 214
184 2 211 212 213 214
185 4 213 212 211 216
186 5 213 212 211 216
187 6 213 212 211 217
188 7 213 212 211 217
189 6 213 212 211 218
190 7 213 212 211 218
191 12 588 589 591 592
192 10 590 589 591 592
193 11 590 589 591 592
194 8 457 459 460 464
195 8 457 459 460 465
196 8 457 459 460 466
197 1 1 2 3 4
198 2 1 2 3 4
199 4 3 2 1 6
200 5 3 2 1 6
201 6 3 2 1 7
202 7 3 2 1 7
203 6 3 2 1 8
204 7 3 2 1 8
205 10 455 456 457 458
206 11 455 456 457 458
207 12 455 456 457 459
208 8 457 456 455 461
209 8 457 456 455 462
210 8 457 456 455 463
211 12 456 457 459 460
212 10 458 457 459 460
213 11 458 457 459 460
214 12 432 433 435 436
215 10 434 433 435 436
216 11 434 433 435 436
217 15 1004 1013 1011 1009
218 3 1004 1013 1011 1012
219 8 433 435 436 440
220 8 433 435 436 441
221 8 433 435 436 442
222 10 431 432 433 434
223 11 431 432 433 434
224 12 431 432 433 435
225 8 433 432 431 437
226 8 433 432 431 438
227 8 433 432 431 439
228 13 1008 1009 1011 1012
229 13 1008 1009 1011 1013
230 13 1010 1009 1011 1012
231 13 1010 1009 1011 1013
232 3 282 283 284 285
233 3 282 283 284 286
234 8 284 283 282 289
235 8 284 283 282 290
236 8 409 411 412 416
237 8 409 411 412 417
238 8 409 411 412 418
239 8 481 483 484 488
240 8 481 483 484 489
241 8 481 483 484 490
242 12 480 481 483 484
243 10 482 481 483 484
244 11 482 481 483 484
245 10 479 480 481 482
246 11 479 480 481 482
247 12 479 480 481 483
248 8 481 480 479 485
249 8 481 480 479 486
250 8 481 480 479 487
251 3 1053 1054 1055 1056
252 13 1053 1054 1058 1057
253 13 1053 1054 1058 1059
254 13 1055 1054 1058 1057
255 13 1055 1054 1058 1059
256 14 1054 1055 1056 1057
257 14 1054 1055 1056 1060
258 14 1054 1055 1056 1065
259 15 1056 1055 1054 1058
260 8 733 735 736 740
261 8 733 735 736 741
262 8 733 735 736 742
263 12 924 925 927 928
264 10 926 925 927 928
265 11 926 925 927 928
266 12 732 733 735 736
267 10 734 733 735 736
268 11 734 733 735 736
269 12 408 409 411 412
270 10 410 409 411 412
271 11 410 409 411 412
272 15 1054 1058 1057 1056
273 3 1056 1057 1058 1059
274 14 1058 1057 1056 1060
275 14 1058 1057 1056 1065
276 1 281 282 283 284
277 2 281 282 283 284
278 4 283 282 281 286
279 5 283 282 281 286
280 6 283 282 281 287
281 7 283 282 281 287
282 6 283 282 281 288
283 7 283 282 281 288
284 14 1055 1056 1057 1058
285 14 1055 1056 1060 1061
286 14 1055 1056 1065 1063
287 14 1057 1056 1060 1061
288 14 1057 1056 1065 1063
289 14 1060 1056 1065 1063
290 3 281 286 284 283
291 3 281 286 284 285
292 8 284 286 281 287
293 8 284 286 281 288
294 1 282 281 286 284
295 2 282 281 286 284
296 6 286 281 282 289
297 7 286 281 282 289
298 6 286 281 282 290
299 7 286 281 282 290
300 9 287 281 282 289
301 9 287 281 282 290
302 9 288 281 282 289
303 9 288 281 282 290
304 1 11 12 13 14
305 2 11 12 13 14
306 4 13 12 11 16
307 5 13 12 11 16
308 6 13 12 11 17
309 7 13 12 11 17
310 6 13 12 11 18
311 7 13 12 11 18
312 1 12 11 16 14
313 2 12 11 16 14
314 6 16 11 12 19
315 7 16 11 12 19
316 6 16 11 12 20
317 7 16 11 12 20
318 9 17 11 12 19
319 9 17 11 12 20
320 9 18 11 12 19
321 9 18 11 12 20
322 3 11 16 14 13
323 3 11 16 14 15
324 8 14 16 11 17
325 8 14 16 11 18
326 3 12 13 14 15
327 3 12 13 14 16
328 8 14 13 12 19
329 8 14 13 12 20
330 12 864 865 867 868
331 10 866 865 867 868
332 11 866 865 867 868
333 10 863 864 865 866
334 11 863 864 865 866
335 12 863 864 865 867
336 8 865 864 863 869
337 8 865 864 863 870
338 8 865 864 863 871
339 8 793 795 796 800
340 8 793 795 796 801
341 8 793 795 796 802
342 8 649 651 652 656
343 8 649 651 652 657
344 8 649 651 652 658
345 10 647 648 649 650
346 11 647 648 649 650
347 12 647 648 649 651
348 8 649 648 647 653
349 8 649 648 647 654
350 8 649 648 647 655
351 12 648 649 651 652
352 10 650 649 651 652
353 11 650 649 651 652
354 3 1004 1008 1009 1010
355 15 1004 1008 1009 1011
356 14 1009 1008 1004 1013
357 14 1003 1004 1005 1006
358 14 1003 1004 1008 1009
359 14 1003 1004 1013 1011
360 14 1005 1004 1008 1009
361 14 1005 1004 1013 1011
362 14 1008 1004 1013 1011
363 3 1004 1005 1006 1007
364 14 1006 1005 1004 1008
365 14 1006 1005 1004 1013
366 14 1002 1003 1004 1005
367 14 1002 1003 1004 1008
368 14 1002 1003 1004 1013
369 15 1004 1003 1002 1006
370 8 829 831 832 836
371 8 829 831 832 837
372 8 829 831 832 838
373 12 828 829 831 832
374 10 830 829 831 832
375 11 830 829 831 832
376 3 1001 1002 1003 1004
377 13 1001 1002 1006 1005
378 13 1001 1002 1006 1007
379 13 1003 1002 1006 1005
380 13 1003 1002 1006 1007
381 15 1002 1006 1005 1004
382 10 635 636 637 638
383 11 635 636 637 638
384 12 635 636 637 639
385 8 637 636 635 641
386 8 637 636 635 642
387 8 637 636 635 643
388 12 396 397 399 400
389 10 398 397 399 400
390 11 398 397 399 400
391 1 21 22 23 24
392 2 21 22 23 24
393 4 23 22 21 26
394 5 23 22 21 26
395 6 23 22 21 27
396 7 23 22 21 27
397 6 23 22 21 28
398 7 23 22 21 28
399 10 395 396 397 398
400 11 395 396 397 398
401 12 395 396 397 399
402 8 397 396 395 401
403 8 397 396 395 402
404 8 397 396 395 403
405 12 636 637 639 640
406 10 638 637 639 640
407 11 638 637 639 640
408 12 324 325 327 328
409 10 326 325 327 328
410 11 326 325 327 328
411 3 21 26 24 23
412 3 21 26 24 25
413 8 24 26 21 27
414 8 24 26 21 28
415 1 22 21 26 24
416 2 22 21 26 24
417 6 26 21 22 29
418 7 26 21 22 29
419 6 26 21 22 30
420 7 26 21 22 30
421 9 27 21 22 29
422 9 27 21 22 30
423 9 28 21 22 29
424 9 28 21 22 30
425 10 659 660 661 662
426 11 659 660 661 662
427 12 659 660 661 663
428 8 661 660 659 665
429 8 661 660 659 666
430 8 661 660 659 667
431 8 661 663 664 668
432 8 661 663 664 669
433 8 661 663 664 670
434 3 22 23 24 25
435 3 22 23 24 26
436 8 24 23 22 29
437 8 24 23 22 30
438 12 660 661 663 664
439 10 662 661 663 664
440 11 662 661 663 664
441 8 325 327 328 332
442 8 325 327 328 333
443 8 325 327 328 334
444 8 865 867 868 872
445 8 865 867 868 873
446 8 865 867 868 874
447 12 876 877 879 880
448 10 878 877 879 880
449 11 878 877 879 880
450 15 1041 1045 1044 1043
451 3 1043 1044 1045 1046
452 14 1045 1044 1043 1047
453 14 1045 1044 1043 1052
454 3 1040 1041 1042 1043
455 13 1040 1041 1045 1044
456 13 1040 1041 1045 1046
457 13 1042 1041 1045 1044
458 13 1042 1041 1045 1046
459 14 1041 1042 1043 1044
460 14 1041 1042 1043 1047
461 14 1041 1042 1043 1052
462 15 1043 1042 1041 1045
463 14 1042 1043 1044 1045
464 14 1042 1043 1047 1048
465 14 1042 1043 1052 1050
466 14 1044 1043 1047 1048
467 14 1044 1043 1052 1050
468 14 1047 1043 1052 1050
469 15 1043 1052 1050 1048
470 3 1043 1052 1050 1051
471 3 1043 1047 1048 1049
472 15 1043 1047 1048 1050
473 14 1048 1047 1043 1052
474 13 1047 1048 1050 1051
475 13 1047 1048 1050 1052
476 13 1049 1048 1050 1051
477 13 1049 1048 1050 1052
478 10 875 876 877 878
479 11 875 876 877 878
480 12 875 876 877 879
481 8 877 876 875 881
482 8 877 876 875 882
483 8 877 876 875 883
484 10 587 588 589 590
485 11 587 588 589 590
486 12 587 588 589 591
487 8 589 588 587 593
488 8 589 588 587 594
489 8 589 588 587 595
490 1 231 232 233 234
491 2 231 232 233 234
492 4 233 232 231 236
493 5 233 232 231 236
494 6 233 232 231 237
495 7 233 232 231 237
496 6 233 232 231 238
497 7 233 232 231 238
498 8 721 723 724 728
499 8 721 723 724 729
500 8 721 723 724 730
501 3 232 233 234 235
502 3 232 233 234 236
503 8 234 233 232 239
504 8 234 233 232 240
505 12 852 853 855 856
506 10 854 853 855 856
507 11 854 853 855 856
508 10 851 852 853 854
509 11 851 852 853 854
510 12 851 852 853 855
511 8 853 852 851 857
512 8 853 852 851 858
513 8 853 852 851 859
514 10 467 468 469 470
515 11 467 468 469 470
516 12 467 468 469 471
517 8 469 468 467 473
518 8 469 468 467 474
519 8 469 468 467 475
520 12 468 469 471 472
521 10 470 469 471 472
522 11 470 469 471 472
523 8 469 471 472 476
524 8 469 471 472 477
525 8 469 471 472 478
526 8 529 531 532 536
527 8 529 531 532 537
528 8 529 531 532 538
529 8 349 351 352 356
530 8 349 351 352 357
531 8 349 351 352 358
532 8 853 855 856 860
533 8 853 855 856 861
534 8 853 855 856 862
535 8 949 951 952 956
536 8 949 951 952 957
537 8 949 951 952 958
538 10 803 804 805 806
539 11 803 804 805 806
540 12 803 804 805 807
541 8 805 804 803 809
542 8 805 804 803 810
543 8 805 804 803 811
544 8 805 807 808 812
545 8 805 807 808 813
546 8 805 807 808 814
547 10 947 948 949 950
548 11 947 948 949 950
549 12 947 948 949 951
550 8 949 948 947 953
551 8 949 948 947 954
552 8 949 948 947 955
553 12 948 949 951 952
554 10 950 949 951 952
555 11 950 949 951 952
556 12 360 361 363 364
557 10 362 361 363 364
558 11 362 361 363 364
559 3 102 103 104 105
560 3 102 103 104 106
561 8 104 103 102 109
562 8 104 103 102 110
563 1 101 102 103 104
564 2 101 102 103 104
565 4 103 102 101 106
566 5 103 102 101 106
567 6 103 102 101 107
568 7 103 102 101 107
569 6 103 102 101 108
570 7 103 102 101 108
571 1 102 101 106 104
572 2 102 101 106 104
573 6 106 101 102 109
574 7 106 101 102 109
575 6 106 101 102 110
576 7 106 101 102 110
577 9 107 101 102 109
578 9 107 101 102 110
579 9 108 101 102 109
580 9 108 101 102 110
581 3 101 106 104 103
582 3 101 106 104 105
583 8 104 106 101 107
584 8 104 106 101 108
585 10 359 360 361 362
586 11 359 360 361 362
587 12 359 360 361 363
588 8 361 360 359 365
589 8 361 360 359 366
590 8 361 360 359 367
591 8 361 363 364 368
592 8 361 363 364 369
593 8 361 363 364 370
594 3 1027 1028 1029 1030
595 13 1027 1028 1032 1031
596 13 1027 1028 1032 1033
597 13 1029 1028 1032 1031
598 13 1029 1028 1032 1033
599 1 112 111 116 114
600 2 112 111 116 114
601 6 116 111 112 119
602 7 116 111 112 119
603 6 116 111 112 120
604 7 116 111 112 120
605 9 117 111 112 119
606 9 117 111 112 120
607 9 118 111 112 119
608 9 118 111 112 120
609 1 111 112 113 114
610 2 111 112 113 114
611 4 113 112 111 116
612 5 113 112 111 116
613 6 113 112 111 117
614 7 113 112 111 117
615 6 113 112 111 118
616 7 113 112 111 118
617 1 81 82 83 84
618 2 81 82 83 84
619 4 83 82 81 86
620 5 83 82 81 86
621 6 83 82 81 87
622 7 83 82 81 87
623 6 83 82 81 88
624 7 83 82 81 88
625 3 111 116 114 113
626 3 111 116 114 115
627 8 114 116 111 117
628 8 114 116 111 118
629 1 191 192 193 194
630 2 191 192 193 194
631 4 193 192 191 196
632 5 193 192 191 196
633 6 193 192 191 197
634 7 193 192 191 197
635 6 193 192 191 198
636 7 193 192 191 198
637 3 192 193 194 195
638 3 192 193 194 196
639 8 194 193 192 199
640 8 194 193 192 200
641 1 82 81 86 84
642 2 82 81 86 84
643 6 86 81 82 89
644 7 86 81 82 89
645 6 86 81 82 90
646 7 86 81 82 90
647 9 87 81 82 89
648 9 87 81 82 90
649 9 88 81 82 89
650 9 88 81 82 90
651 15 1028 1032 1031 1030
652 3 112 113 114 115
653 3 112 113 114 116
654 8 114 113 112 119
655 8 114 113 112 120
656 1 192 191 196 194
657 2 192 191 196 194
658 6 196 191 192 199
659 7 196 191 192 199
660 6 196 191 192 200
661 7 196 191 192 200
662 9 197 191 192 199
663 9 197 191 192 200
664 9 198 191 192 199
665 9 198 191 192 200
666 3 1030 1031 1032 1033
667 14 1032 1031 1030 1034
668 14 1032 1031 1030 1039
669 14 1028 1029 1030 1031
670 14 1028 1029 1030 1034
671 14 1028 1029 1030 1039
672 15 1030 1029 1028 1032
673 3 1030 1034 1035 1036
674 15 1030 1034 1035 1037
675 14 1035 1034 1030 1039
676 13 1034 1035 1037 1038
677 13 1034 1035 1037 1039
678 13 1036 1035 1037 1038
679 13 1036 1035 1037 1039
680 15 1030 1039 1037 1035
681 3 1030 1039 1037 1038
682 14 1029 1030 1031 1032
683 14 1029 1030 1034 1035
684 14 1029 1030 1039 1037
685 14 1031 1030 1034 1035
686 14 1031 1030 1039 1037
687 14 1034 1030 1039 1037
688 3 191 196 194 193
689 3 191 196 194 195
690 8 194 196 191 197
691 8 194 196 191 198
692 3 121 126 124 123
693 3 121 126 124 125
694 8 124 126 121 127
695 8 124 126 121 128
696 12 684 685 687 688
697 10 686 685 687 688
698 11 686 685 687 688
699 3 41 46 44 43
700 3 41 46 44 45
701 8 44 46 41 47
702 8 44 46 41 48
703 10 683 684 685 686
704 11 683 684 685 686
705 12 683 684 685 687
706 8 685 684 683 689
707 8 685 684 683 690
708 8 685 684 683 691
709 8 685 687 688 692
710 8 685 687 688 693
711 8 685 687 688 694
712 8 781 783 784 788
713 8 781 783 784 789
714 8 781 783 784 790
715 12 780 781 783 784
716 10 782 781 783 784
717 11 782 781 783 784
718 8 313 315 316 320
719 8 313 315 316 321
720 8 313 315 316 322
721 15 1069 1078 1076 1074
722 3 1069 1078 1076 1077
723 10 779 780 781 782
724 11 779 780 781 782
725 12 779 780 781 783
726 8 781 780 779 785
727 8 781 780 779 786
728 8 781 780 779 787
729 1 42 41 46 44
730 2 42 41 46 44
731 6 46 41 42 49
732 7 46 41 42 49
733 6 46 41 42 50
734 7 46 41 42 50
735 9 47 41 42 49
736 9 47 41 42 50
737 9 48 41 42 49
738 9 48 41 42 50
739 3 221 226 224 223
740 3 221 226 224 225
741 8 224 226 221 227
742 8 224 226 221 228
743 1 41 42 43 44
744 2 41 42 43 44
745 4 43 42 41 46
746 5 43 42 41 46
747 6 43 42 41 47
748 7 43 42 41 47
749 6 43 42 41 48
750 7 43 42 41 48
751 3 42 43 44 45
752 3 42 43 44 46
753 8 44 43 42 49
754 8 44 43 42 50
755 12 312 313 315 316
756 10 314 313 315 316
757 11 314 313 315 316
758 10 311 312 313 314
759 11 311 312 313 314
760 12 311 312 313 315
761 8 313 312 311 317
762 8 313 312 311 318
763 8 313 312 311 319
764 3 172 173 174 175
765 3 172 173 174 176
766 8 174 173 172 179
767 8 174 173 172 180
768 10 923 924 925 926
769 11 923 924 925 926
770 12 923 924 925 927
771 8 925 924 923 929
772 8 925 924 923 930
773 8 925 924 923 931
774 8 925 927 928 932
775 8 925 927 928 933
776 8 925 927 928 934
777 1 222 221 226 224
778 2 222 221 226 224
779 6 226 221 222 229
780 7 226 221 222 229
781 6 226 221 222 230
782 7 226 221 222 230
783 9 227 221 222 229
784 9 227 221 222 230
785 9 228 221 222 229
786 9 228 221 222 230
787 1 221 222 223 224
788 2 221 222 223 224
789 4 223 222 221 226
790 5 223 222 221 226
791 6 223 222 221 227
792 7 223 222 221 227
793 6 223 222 221 228
794 7 223 222 221 228
795 3 222 223 224 225
796 3 222 223 224 226
797 8 224 223 222 229
798 8 224 223 222 230
799 1 271 272 273 274
800 2 271 272 273 274
801 4 273 272 271 276
802 5 273 272 271 276
803 6 273 272 271 277
804 7 273 272 271 277
805 6 273 272 271 278
806 7 273 272 271 278
807 1 272 271 276 274
808 2 272 271 276 274
809 6 276 271 272 279
810 7 276 271 272 279
811 6 276 271 272 280
812 7 276 271 272 280
813 9 277 271 272 279
814 9 277 271 272 280
815 9 278 271 272 279
816 9 278 271 272 280
817 3 271 276 274 273
818 3 271 276 274 275
819 8 274 276 271 277
820 8 274 276 271 278
821 1 151 152 153 154
822 2 151 152 153 154
823 4 153 152 151 156
824 5 153 152 151 156
825 6 153 152 151 157
826 7 153 152 151 157
827 6 153 152 151 158
828 7 153 152 151 158
829 1 152 151 156 154
830 2 152 151 156 154
831 6 156 151 152 159
832 7 156 151 152 159
833 6 156 151 152 160
834 7 156 151 152 160
835 9 157 151 152 159
836 9 157 151 152 160
837 9 158 151 152 159
838 9 158 151 152 160
839 3 151 156 154 153
840 3 151 156 154 155
841 8 154 156 151 157
842 8 154 156 151 158
843 3 1017 1018 1019 1020
844 14 1019 1018 1017 1021
845 14 1019 1018 1017 1026
846 15 1015 1019 1018 1017
847 14 1016 1017 1018 1019
848 14 1016 1017 1021 1022
849 14 1016 1017 1026 1024
850 14 1018 1017 1021 1022
851 14 1018 1017 1026 1024
852 14 1021 1017 1026 1024
853 3 1017 1021 1022 1023
854 15 1017 1021 1022 1024
855 14 1022 1021 1017 1026
856 3 272 273 274 275
857 3 272 273 274 276
858 8 274 273 272 279
859 8 274 273 272 280
860 15 1017 1026 1024 1022
861 3 1017 1026 1024 1025
862 3 152 153 154 155
863 3 152 153 154 156
864 8 154 153 152 159
865 8 154 153 152 160
866 8 517 519 520 524
867 8 517 519 520 525
868 8 517 519 520 526
869 10 755 756 757 758
870 11 755 756 757 758
871 12 755 756 757 759
872 8 757 756 755 761
873 8 757 756 755 762
874 8 757 756 755 763
875 3 171 176 174 173
876 3 171 176 174 175
877 8 174 176 171 177
878 8 174 176 171 178
879 12 516 517 519 520
880 10 518 517 519 520
881 11 518 517 519 520
882 10 515 516 517 518
883 11 515 516 517 518
884 12 515 516 517 519
885 8 517 516 515 521
886 8 517 516 515 522
887 8 517 516 515 523
888 12 756 757 759 760
889 10 758 757 759 760
890 11 758 757 759 760
891 3 201 206 204 203
892 3 201 206 204 205
893 8 204 206 201 207
894 8 204 206 201 208
895 1 202 201 206 204
896 2 202 201 206 204
897 6 206 201 202 209
898 7 206 201 202 209
899 6 206 201 202 210
900 7 206 201 202 210
901 9 207 201 202 209
902 9 207 201 202 210
903 9 208 201 202 209
904 9 208 201 202 210
905 1 201 202 203 204
906 2 201 202 203 204
907 4 203 202 201 206
908 5 203 202 201 206
909 6 203 202 201 207
910 7 203 202 201 207
911 6 203 202 201 208
912 7 203 202 201 208
913 8 757 759 760 764
914 8 757 759 760 765
915 8 757 759 760 766
916 3 202 203 204 205
917 3 202 203 204 206
918 8 204 203 202 209
919 8 204 203 202 210
920 8 961 963 964 968
921 8 961 963 964 969
922 8 961 963 964 970
923 10 527 528 529 530
924 11 527 528 529 530
925 12 527 528 529 531
926 8 529 528 527 533
927 8 529 528 527 534
928 8 529 528 527 535
929 12 960 961 963 964
930 10 962 961 963 964
931 11 962 961 963 964
932 12 528 529 531 532
933 10 530 529 531 532
934 11 530 529 531 532
935 8 637 639 640 644
936 8 637 639 640 645
937 8 637 639 640 646
938 10 911 912 913 914
939 11 911 912 913 914
940 12 911 912 913 915
941 8 913 912 911 917
942 8 913 912 911 918
943 8 913 912 911 919
944 12 348 349 351 352
945 10 350 349 351 352
946 11 350 349 351 352
947 10 959 960 961 962
948 11 959 960 961 962
949 12 959 960 961 963
950 8 961 960 959 965
951 8 961 960 959 966
952 8 961 960 959 967
953 12 912 913 915 916
954 10 914 913 915 916
955 11 914 913 915 916
956 8 913 915 916 920
957 8 913 915 916 921
958 8 913 915 916 922
959 10 347 348 349 350
960 11 347 348 349 350
961 12 347 348 349 351
962 8 349 348 347 353
963 8 349 348 347 354
964 8 349 348 347 355
965 13 1021 1022 1024 1025
966 13 1021 1022 1024 1026
967 13 1023 1022 1024 1025
968 13 1023 1022 1024 1026
969 8 613 615 616 620
970 8 613 615 616 621
971 8 613 615 616 622
972 10 611 612 613 614
973 11 611 612 613 614
974 12 611 612 613 615
975 8 613 612 611 617
976 8 613 612 611 618
977 8 613 612 611 619
978 12 612 613 615 616
979 10 614 613 615 616
980 11 614 613 615 616
981 12 552 553 555 556
982 10 554 553 555 556
983 11 554 553 555 556
984 10 551 552 553 554
985 11 551 552 553 554
986 12 551 552 553 555
987 8 553 552 551 557
988 8 553 552 551 558
989 8 553 552 551 559
990 8 553 555 556 560
991 8 553 555 556 561
992 8 553 555 556 562
993 8 337 339 340 344
994 8 337 339 340 345
995 8 337 339 340 346
996 12 672 673 675 676
997 10 674 673 675 676
998 11 674 673 675 676
999 8 877 879 880 884
1000 8 877 879 880 885
1001 8 877 879 880 886
1002 8 673 675 676 680
1003 8 673 675 676 681
1004 8 673 675 676 682
1005 1 122 121 126 124
1006 2 122 121 126 124
1007 6 126 121 122 129
1008 7 126 121 122 129
1009 6 126 121 122 130
1010 7 126 121 122 130
1011 9 127 121 122 129
1012 9 127 121 122 130
1013 9 128 121 122 129
1014 9 128 121 122 130
1015 10 671 672 673 674
1016 11 671 672 673 674
1017 12 671 672 673 675
1018 8 673 672 671 677
1019 8 673 672 671 678
1020 8 673 672 671 679
1021 1 121 122 123 124
1022 2 121 122 123 124
1023 4 123 122 121 126
1024 5 123 122 121 126
1025 6 123 122 121 127
1026 7 123 122 121 127
1027 6 123 122 121 128
1028 7 123 122 121 128
1029 12 336 337 339 340
1030 10 338 337 339 340
1031 11 338 337 339 340
1032 10 335 336 337 338
1033 11 335 336 337 338
1034 12 335 336 337 339
1035 8 337 336 335 341
1036 8 337 336 335 342
1037 8 337 336 335 343
1038 3 122 123 124 125
1039 3 122 123 124 126
1040 8 124 123 122 129
1041 8 124 123 122 130
1042 8 373 375 376 380
1043 8 373 375 376 381
1044 8 373 375 376 382
1045 12 372 373 375 376
1046 10 374 373 375 376
1047 11 374 373 375 376
1048 10 371 372 373 374
1049 11 371 372 373 374
1050 12 371 372 373 375
1051 8 373 372 371 377
1052 8 373 372 371 378
1053 8 373 372 371 379
1054 3 71 76 74 73
1055 3 71 76 74 75
1056 8 74 76 71 77
1057 8 74 76 71 78
1058 10 623 624 625 626
1059 11 623 624 625 626
1060 12 623 624 625 627
1061 8 625 624 623 629
1062 8 625 624 623 630
1063 8 625 624 623 631
1064 12 624 625 627 628
1065 10 626 625 627 628
1066 11 626 625 627 628
1067 3 252 253 254 255
1068 3 252 253 254 256
1069 8 254 253 252 259
1070 8 254 253 252 260
1071 8 625 627 628 632
1072 8 625 627 628 633
1073 8 625 627 628 634
1074 1 251 252 253 254
1075 2 251 252 253 254
1076 4 253 252 251 256
1077 5 253 252 251 256
1078 6 253 252 251 257
1079 7 253 252 251 257
1080 6 253 252 251 258
1081 7 253 252 251 258
1082 3 251 256 254 253
1083 3 251 256 254 255
1084 8 254 256 251 257
1085 8 254 256 251 258
1086 1 252 251 256 254
1087 2 252 251 256 254
1088 6 256 251 252 259
1089 7 256 251 252 259
1090 6 256 251 252 260
1091 7 256 251 252 260
1092 9 257 251 252 259
1093 9 257 251 252 260
1094 9 258 251 252 259
1095 9 258 251 252 260
1096 10 539 540 541 542
1097 11 539 540 541 542
1098 12 539 540 541 543
1099 8 541 540 539 545
1100 8 541 540 539 546
1101 8 541 540 539 547
1102 12 540 541 543 544
1103 10 542 541 543 544
1104 11 542 541 543 544
1105 8 541 543 544 548
1106 8 541 543 544 549
1107 8 541 543 544 550
1108 12 696 697 699 700
1109 10 698 697 699 700
1110 11 698 697 699 700
1111 3 82 83 84 85
1112 3 82 83 84 86
1113 8 84 83 82 89
1114 8 84 83 82 90
1115 1 182 181 186 184
1116 2 182 181 186 184
1117 6 186 181 182 189
1118 7 186 181 182 189
1119 6 186 181 182 190
1120 7 186 181 182 190
1121 9 187 181 182 189
1122 9 187 181 182 190
1123 9 188 181 182 189
1124 9 188 181 182 190
1125 1 181 182 183 184
1126 2 181 182 183 184
1127 4 183 182 181 186
1128 5 183 182 181 186
1129 6 183 182 181 187
1130 7 183 182 181 187
1131 6 183 182 181 188
1132 7 183 182 181 188
1133 3 182 183 184 185
1134 3 182 183 184 186
1135 8 184 183 182 189
1136 8 184 183 182 190
1137 12 768 769 771 772
1138 10 770 769 771 772
1139 11 770 769 771 772
1140 8 769 771 772 776
1141 8 769 771 772 777
1142 8 769 771 772 778
1143 10 767 768 769 770
1144 11 767 768 769 770
1145 12 767 768 769 771
1146 8 769 768 767 773
1147 8 769 768 767 774
1148 8 769 768 767 775
1149 10 815 816 817 818
1150 11 815 816 817 818
1151 12 815 816 817 819
1152 8 817 816 815 821
1153 8 817 816 815 822
1154 8 817 816 815 823
1155 3 181 186 184 183
1156 3 181 186 184 185
1157 8 184 186 181 187
1158 8 184 186 181 188
1159 12 816 817 819 820
1160 10 818 817 819 820
1161 11 818 817 819 820
1162 8 817 819 820 824
1163 8 817 819 820 825
1164 8 817 819 820 826
1165 1 162 161 166 164
1166 2 162 161 166 164
1167 6 166 161 162 169
1168 7 166 161 162 169
1169 6 166 161 162 170
1170 7 166 161 162 170
1171 9 167 161 162 169
1172 9 167 161 162 170
1173 9 168 161 162 169
1174 9 168 161 162 170
1175 1 161 162 163 164
1176 2 161 162 163 164
1177 4 163 162 161 166
1178 5 163 162 161 166
1179 6 163 162 161 167
1180 7 163 162 161 167
1181 6 163 162 161 168
1182 7 163 162 161 168
1183 10 695 696 697 698
1184 11 695 696 697 698
1185 12 695 696 697 699
1186 8 697 696 695 701
1187 8 697 696 695 702
1188 8 697 696 695 703
1189 8 697 699 700 704
1190 8 697 699 700 705
1191 8 697 699 700 706
1192 3 212 213 214 215
1193 3 212 213 214 216
1194 8 214 213 212 219
1195 8 214 213 212 220
1196 8 493 495 496 500
1197 8 493 495 496 501
1198 8 493 495 496 502
1199 12 492 493 495 496
1200 10 494 493 495 496
1201 11 494 493 495 496
1202 3 211 216 214 213
1203 3 211 216 214 215
1204 8 214 216 211 217
1205 8 214 216 211 218
1206 1 31 32 33 34
1207 2 31 32 33 34
1208 4 33 32 31 36
1209 5 33 32 31 36
1210 6 33 32 31 37
1211 7 33 32 31 37
1212 6 33 32 31 38
1213 7 33 32 31 38
1214 1 212 211 216 214
1215 2 212 211 216 214
1216 6 216 211 212 219
1217 7 216 211 212 219
1218 6 216 211 212 220
1219 7 216 211 212 220
1220 9 217 211 212 219
1221 9 217 211 212 220
1222 9 218 211 212 219
1223 9 218 211 212 220
1224 1 32 31 36 34
1225 2 32 31 36 34
1226 6 36 31 32 39
1227 7 36 31 32 39
1228 6 36 31 32 40
1229 7 36 31 32 40
1230 9 37 31 32 39
1231 9 37 31 32 40
1232 9 38 31 32 39
1233 9 38 31 32 40
1234 3 31 36 34 33
1235 3 31 36 34 35
1236 8 34 36 31 37
1237 8 34 36 31 38
1238 10 491 492 493 494
1239 11 491 492 493 494
1240 12 491 492 493 495
1241 8 493 492 491 497
1242 8 493 492 491 498
1243 8 493 492 491 499
1244 3 32 33 34 35
1245 3 32 33 34 36
1246 8 34 33 32 39
1247 8 34 33 32 40
1248 8 505 507 508 512
1249 8 505 507 508 513
1250 8 505 507 508 514
1251 10 503 504 505 506
1252 11 503 504 505 506
1253 12 503 504 505 507
1254 8 505 504 503 509
1255 8 505 504 503 510
1256 8 505 504 503 511
1257 12 504 505 507 508
1258 10 506 505 507 508
1259 11 506 505 507 508
1260 3 132 133 134 135
1261 3 132 133 134 136
1262 8 134 133 132 139
1263 8 134 133 132 140
1264 13 1073 1074 1076 1077
1265 13 1073 1074 1076 1078
1266 13 1075 1074 1076 1077
1267 13 1075 1074 1076 1078
1268 14 1068 1069 1070 1071
1269 14 1068 1069 1073 1074
1270 14 1068 1069 1078 1076
1271 14 1070 1069 1073 1074
1272 14 1070 1069 1078 1076
1273 14 1073 1069 1078 1076
1274 3 1069 1073 1074 1075
1275 15 1069 1073 1074 1076
1276 14 1074 1073 1069 1078
1277 1 132 131 136 134
1278 2 132 131 136 134
1279 6 136 131 132 139
1280 7 136 131 132 139
1281 6 136 131 132 140
1282 7 136 131 132 140
1283 9 137 131 132 139
1284 9 137 131 132 140
1285 9 138 131 132 139
1286 9 138 131 132 140
1287 3 131 136 134 133
1288 3 131 136 134 135
1289 8 134 136 131 137
1290 8 134 136 131 138
1291 1 131 132 133 134
1292 2 131 132 133 134
1293 4 133 132 131 136
1294 5 133 132 131 136
1295 6 133 132 131 137
1296 7 133 132 131 137
1297 6 133 132 131 138
1298 7 133 132 131 138
1299 8 421 423 424 428
1300 8 421 423 424 429
1301 8 421 423 424 430
1302 3 1069 1070 1071 1072
1303 14 1071 1070 1069 1073
1304 14 1071 1070 1069 1078
1305 10 887 888 889 890
1306 11 887 888 889 890
1307 12 887 888 889 891
1308 8 889 888 887 893
1309 8 889 888 887 894
1310 8 889 888 887 895
1311 3 52 53 54 55
1312 3 52 53 54 56
1313 8 54 53 52 59
1314 8 54 53 52 60
1315 3 1014 1015 1016 1017
1316 13 1014 1015 1019 1018
1317 13 1014 1015 1019 1020
1318 13 1016 1015 1019 1018
1319 13 1016 1015 1019 1020
1320 14 1015 1016 1017 1018
1321 14 1015 1016 1017 1021
1322 14 1015 1016 1017 1026
1323 15 1017 1016 1015 1019
1324 14 1067 1068 1069 1070
1325 14 1067 1068 1069 1073
1326 14 1067 1068 1069 1078
1327 15 1069 1068 1067 1071
1328 1 51 52 53 54
1329 2 51 52 53 54
1330 4 53 52 51 56
1331 5 53 52 51 56
1332 6 53 52 51 57
1333 7 53 52 51 57
1334 6 53 52 51 58
1335 7 53 52 51 58
1336 3 161 166 164 163
1337 3 161 166 164 165
1338 8 164 166 161 167
1339 8 164 166 161 168
1340 3 51 56 54 53
1341 3 51 56 54 55
1342 8 54 56 51 57
1343 8 54 56 51 58
1344 1 52 51 56 54
1345 2 52 51 56 54
1346 6 56 51 52 59
1347 7 56 51 52 59
1348 6 56 51 52 60
1349 7 56 51 52 60
1350 9 57 51 52 59
1351 9 57 51 52 60
1352 9 58 51 52 59
1353 9 58 51 52 60
1354 15 1067 1071 1070 1069
1355 3 1066 1067 1068 1069
1356 13 1066 1067 1071 1070
1357 13 1066 1067 1071 1072
1358 13 1068 1067 1071 1070
1359 13 1068 1067 1071 1072
1360 3 162 163 164 165
1361 3 162 163 164 166
1362 8 164 163 162 169
1363 8 164 163 162 170
1364 10 731 732 733 734
1365 11 731 732 733 734
1366 12 731 732 733 735
1367 8 733 732 731 737
1368 8 733 732 731 738
1369 8 733 732 731 739
1370 12 564 565 567 568
1371 10 566 565 567 568
1372 11 566 565 567 568
1373 10 563 564 565 566
1374 11 563 564 565 566
1375 12 563 564 565 567
1376 8 565 564 563 569
1377 8 565 564 563 570
1378 8 565 564 563 571
1379 8 565 567 568 572
1380 8 565 567 568 573
1381 8 565 567 568 574
1382 3 91 96 94 93
1383 3 91 96 94 95
1384 8 94 96 91 97
1385 8 94 96 91 98
1386 1 92 91 96 94
1387 2 92 91 96 94
1388 6 96 91 92 99
1389 7 96 91 92 99
1390 6 96 91 92 100
1391 7 96 91 92 100
1392 9 97 91 92 99
1393 9 97 91 92 100
1394 9 98 91 92 99
1395 9 98 91 92 100
1396 1 91 92 93 94
1397 2 91 92 93 94
1398 4 93 92 91 96
1399 5 93 92 91 96
1400 6 93 92 91 97
1401 7 93 92 91 97
1402 6 93 92 91 98
1403 7 93 92 91 98
1404 1 172 171 176 174
1405 2 172 171 176 174
1406 6 176 171 172 179
1407 7 176 171 172 179
1408 6 176 171 172 180
1409 7 176 171 172 180
1410 9 177 171 172 179
1411 9 177 171 172 180
1412 9 178 171 172 179
1413 9 178 171 172 180
1414 8 601 603 604 608
1415 8 601 603 604 609
1416 8 601 603 604 610
1417 12 420 421 423 424
1418 10 422 421 423 424
1419 11 422 421 423 424
1420 12 792 793 795 796
1421 10 794 793 795 796
1422 11 794 793 795 796
1423 10 791 792 793 794
1424 11 791 792 793 794
1425 12 791 792 793 795
1426 8 793 792 791 797
1427 8 793 792 791 798
1428 8 793 792 791 799
1429 1 171 172 173 174
1430 2 171 172 173 174
1431 4 173 172 171 176
1432 5 173 172 171 176
1433 6 173 172 171 177
1434 7 173 172 171 177
1435 6 173 172 171 178
1436 7 173 172 171 178
1437 12 600 601 603 604
1438 10 602 601 603 604
1439 11 602 601 603 604
1440 10 419 420 421 422
1441 11 419 420 421 422
1442 12 419 420 421 423
1443 8 421 420 419 425
1444 8 421 420 419 426
1445 8 421 420 419 427
1446 10 599 600 601 602
1447 11 599 600 601 602
1448 12 599 600 601 603
1449 8 601 600 599 605
1450 8 601 600 599 606
1451 8 601 600 599 607
1452 10 443 444 445 446
1453 11 443 444 445 446
1454 12 443 444 445 447
1455 8 445 444 443 449
1456 8 445 444 443 450
1457 8 445 444 443 451
1458 12 444 445 447 448
1459 10 446 445 447 448
1460 11 446 445 447 448
1461 8 445 447 448 452
1462 8 445 447 448 453
1463 8 445 447 448 454
1464 10 827 828 829 830
1465 11 827 828 829 830
1466 12 827 828 829 831
1467 8 829 828 827 833
1468 8 829 828 827 834
1469 8 829 828 827 835
1470 1 261 262 263 264
1471 2 261 262 263 264
1472 4 263 262 261 266
1473 5 263 262 261 266
1474 6 263 262 261 267
1475 7 263 262 261 267
1476 6 263 262 261 268
1477 7 263 262 261 268
1478 3 142 143 144 145
1479 3 142 143 144 146
1480 8 144 143 142 149
1481 8 144 143 142 150
1482 10 899 900 901 902
1483 11 899 900 901 902
1484 12 899 900 901 903
1485 8 901 900 899 905
1486 8 901 900 899 906
1487 8 901 900 899 907
1488 12 900 901 903 904
1489 10 902 901 903 904
1490 11 902 901 903 904
1491 3 262 263 264 265
1492 3 262 263 264 266
1493 8 264 263 262 269
1494 8 264 263 262 270
1495 1 141 142 143 144
1496 2 141 142 143 144
1497 4 143 142 141 146
1498 5 143 142 141 146
1499 6 143 142 141 147
1500 7 143 142 141 147
1501 6 143 142 141 148
1502 7 143 142 141 148
1503 8 901 903 904 908
1504 8 901 903 904 909
1505 8 901 903 904 910
1506 12 888 889 891 892
1507 10 890 889 891 892
1508 11 890 889 891 892
1509 8 889 891 892 896
1510 8 889 891 892 897
1511 8 889 891 892 898
1512 3 141 146 144 143
1513 3 141 146 144 145
1514 8 144 146 141 147
1515 8 144 146 141 148
1516 1 142 141 146 144
1517 2 142 141 146 144
1518 6 146 141 142 149
1519 7 146 141 142 149
1520 6 146 141 142 150
1521 7 146 141 142 150
1522 9 147 141 142 149
1523 9 147 141 142 150
1524 9 148 141 142 149
1525 9 148 141 142 150
1526 10 983 984 985 986
1527 11 983 984 985 986
1528 12 983 984 985 987
1529 8 985 984 983 989
1530 8 985 984 983 990
1531 8 985 984 983 991
1532 10 575 576 577 578
1533 11 575 576 577 578
1534 12 575 576 577 579
1535 8 577 576 575 581
1536 8 577 576 575 582
1537 8 577 576 575 583
1538 12 576 577 579 580
1539 10 578 577 579 580
1540 11 578 577 579 580
1541 3 92 93 94 95
1542 3 92 93 94 96
1543 8 94 93 92 99
1544 8 94 93 92 100
1545 12 984 985 987 988
1546 10 986 985 987 988
1547 11 986 985 987 988
1548 8 985 987 988 992
1549 8 985 987 988 993
1550 8 985 987 988 994
1551 10 971 972 973 974
1552 11 971 972 973 974
1553 12 971 972 973 975
1554 8 973 972 971 977
1555 8 973 972 971 978
1556 8 973 972 971 979
1557 8 577 579 580 584
1558 8 577 579 580 585
1559 8 577 579 580 586
1560 1 291 292 293 294
1561 2 291 292 293 294
1562 4 293 292 291 296
1563 5 293 292 291 296
1564 6 293 292 291 297
1565 7 293 292 291 297
1566 6 293 292 291 298
1567 7 293 292 291 298
1568 3 292 293 294 295
1569 3 292 293 294 296
1570 8 294 293 292 299
1571 8 294 293 292 300
1572 8 973 975 976 980
1573 8 973 975 976 981
1574 8 973 975 976 982
1575 1 292 291 296 294
1576 2 292 291 296 294
1577 6 296 291 292 299
1578 7 296 291 292 299
1579 6 296 291 292 300
1580 7 296 291 292 300
1581 9 297 291 292 299
1582 9 297 291 292 300
1583 9 298 291 292 299
1584 9 298 291 292 300
1585 3 291 296 294 293
1586 3 291 296 294 295
1587 8 294 296 291 297
1588 8 294 296 291 298
1589 12 972 973 975 976
1590 10 974 973 975 976
1591 11 974 973 975 976
1592 3 72 73 74 75
1593 3 72 73 74 76
1594 8 74 73 72 79
1595 8 74 73 72 80
1596 3 81 86 84 83
1597 3 81 86 84 85
1598 8 84 86 81 87
1599 8 84 86 81 88
1600 8 589 591 592 596
1601 8 589 591 592 597
1602 8 589 591 592 598
1603 1 71 72 73 74
1604 2 71 72 73 74
1605 4 73 72 71 76
1606 5 73 72 71 76
1607 6 73 72 71 77
1608 7 73 72 71 77
1609 6 73 72 71 78
1610 7 73 72 71 78
1611 1 262 261 266 264
1612 2 262 261 266 264
1613 6 266 261 262 269
1614 7 266 261 262 269
1615 6 266 261 262 270
1616 7 266 261 262 270
1617 9 267 261 262 269
1618 9 267 261 262 270
1619 9 268 261 262 269
1620 9 268 261 262 270
1621 3 261 266 264 263
1622 3 261 266 264 265
1623 8 264 266 261 267
1624 8 264 266 261 268
1625 10 707 708 709 710
1626 11 707 708 709 710
1627 12 707 708 709 711
1628 8 709 708 707 713
1629 8 709 708 707 714
1630 8 709 708 707 715
1631 1 72 71 76 74
1632 2 72 71 76 74
1633 6 76 71 72 79
1634 7 76 71 72 79
1635 6 76 71 72 80
1636 7 76 71 72 80
1637 9 77 71 72 79
1638 9 77 71 72 80
1639 9 78 71 72 79
1640 9 78 71 72 80
1641 8 745 747 748 752
1642 8 745 747 748 753
1643 8 745 747 748 754
1644 10 743 744 745 746
1645 11 743 744 745 746
1646 12 743 744 745 747
1647 8 745 744 743 749
1648 8 745 744 743 750
1649 8 745 744 743 751
1650 12 744 745 747 748
1651 10 746 745 747 748
1652 11 746 745 747 748
1653 8 709 711 712 716
1654 8 709 711 712 717
1655 8 709 711 712 718
1656 12 708 709 711 712
1657 10 710 709 711 712
1658 11 710 709 711 712

Impropers

1 1 244 243 245 246
2 1 244 246 243 245
3 1 4 6 3 5
4 1 4 5 6 3
5 1 244 245 246 243
6 1 937 936 938 939
7 1 4 3 5 6
8 1 397 399 396 398
9 1 721 720 722 723
10 1 234 236 233 235
11 1 937 938 939 936
12 1 937 939 936 938
13 1 805 806 807 804
14 1 64 66 63 65
15 1 64 63 65 66
16 1 64 65 66 63
17 1 325 324 326 327
18 1 1063 1065 1061 1064
19 1 949 950 951 948
20 1 194 195 196 193
21 1 385 387 384 386
22 1 385 384 386 387
23 1 385 386 387 384
24 1 841 843 840 842
25 1 1061 1062 1063 1060
26 1 304 306 303 305
27 1 304 305 306 303
28 1 589 590 591 588
29 1 1063 1064 1065 1061
30 1 409 408 410 411
31 1 304 303 305 306
32 1 1063 1061 1064 1065
33 1 1061 1063 1060 1062
34 1 841 842 843 840
35 1 1061 1060 1062 1063
36 1 841 840 842 843
37 1 457 459 456 458
38 1 457 456 458 459
39 1 457 458 459 456
40 1 433 434 435 432
41 1 284 285 286 283
42 1 1011 1012 1013 1009
43 1 1009 1011 1008 1010
44 1 1011 1013 1009 1012
45 1 685 686 687 684
46 1 433 435 432 434
47 1 433 432 434 435
48 1 1009 1010 1011 1008
49 1 1011 1009 1012 1013
50 1 284 283 285 286
51 1 409 411 408 410
52 1 505 506 507 504
53 1 925 926 927 924
54 1 481 483 480 482
55 1 481 482 483 480
56 1 481 480 482 483
57 1 1058 1054 1057 1059
58 1 1054 1053 1055 1058
59 1 1054 1055 1058 1053
60 1 733 735 732 734
61 1 1058 1059 1054 1057
62 1 1054 1058 1053 1055
63 1 409 410 411 408
64 1 1058 1057 1059 1054
65 1 284 286 283 285
66 1 14 16 13 15
67 1 865 866 867 864
68 1 14 13 15 16
69 1 865 864 866 867
70 1 14 15 16 13
71 1 793 795 792 794
72 1 649 651 648 650
73 1 649 648 650 651
74 1 649 650 651 648
75 1 1009 1008 1010 1011
76 1 1006 1005 1007 1002
77 1 1002 1003 1006 1001
78 1 829 831 828 830
79 1 1006 1002 1005 1007
80 1 1002 1006 1001 1003
81 1 1002 1001 1003 1006
82 1 1006 1007 1002 1005
83 1 637 636 638 639
84 1 397 396 398 399
85 1 637 638 639 636
86 1 325 326 327 324
87 1 24 25 26 23
88 1 24 26 23 25
89 1 661 660 662 663
90 1 661 663 660 662
91 1 24 23 25 26
92 1 397 398 399 396
93 1 325 327 324 326
94 1 661 662 663 660
95 1 1050 1051 1052 1048
96 1 865 867 864 866
97 1 1045 1046 1041 1044
98 1 1048 1049 1050 1047
99 1 877 878 879 876
100 1 1041 1040 1042 1045
101 1 1041 1045 1040 1042
102 1 1045 1044 1046 1041
103 1 1045 1041 1044 1046
104 1 1041 1042 1045 1040
105 1 1050 1052 1048 1051
106 1 1048 1050 1047 1049
107 1 1048 1047 1049 1050
108 1 1050 1048 1051 1052
109 1 877 876 878 879
110 1 589 588 590 591
111 1 234 235 236 233
112 1 721 722 723 720
113 1 721 723 720 722
114 1 853 854 855 852
115 1 234 233 235 236
116 1 853 852 854 855
117 1 469 468 470 471
118 1 469 471 468 470
119 1 529 531 528 530
120 1 349 351 348 350
121 1 853 855 852 854
122 1 949 951 948 950
123 1 805 804 806 807
124 1 805 807 804 806
125 1 949 948 950 951
126 1 104 103 105 106
127 1 104 106 103 105
128 1 104 105 106 103
129 1 361 362 363 360
130 1 361 360 362 363
131 1 1028 1027 1029 1032
132 1 1032 1033 1028 1031
133 1 361 363 360 362
134 1 1032 1028 1031 1033
135 1 114 116 113 115
136 1 194 193 195 196
137 1 1028 1032 1027 1029
138 1 114 113 115 116
139 1 114 115 116 113
140 1 1032 1031 1033 1028
141 1 1028 1029 1032 1027
142 1 1035 1034 1036 1037
143 1 1037 1035 1038 1039
144 1 1035 1037 1034 1036
145 1 1037 1038 1039 1035
146 1 1037 1039 1035 1038
147 1 1035 1036 1037 1034
148 1 194 196 193 195
149 1 124 126 123 125
150 1 44 45 46 43
151 1 44 46 43 45
152 1 685 684 686 687
153 1 685 687 684 686
154 1 1076 1077 1078 1074
155 1 781 783 780 782
156 1 313 315 312 314
157 1 1074 1076 1073 1075
158 1 1076 1078 1074 1077
159 1 781 782 783 780
160 1 781 780 782 783
161 1 224 226 223 225
162 1 44 43 45 46
163 1 313 312 314 315
164 1 174 173 175 176
165 1 925 924 926 927
166 1 925 927 924 926
167 1 224 223 225 226
168 1 274 276 273 275
169 1 154 156 153 155
170 1 1019 1018 1020 1015
171 1 1015 1019 1014 1016
172 1 1022 1021 1023 1024
173 1 1019 1020 1015 1018
174 1 274 273 275 276
175 1 1024 1026 1022 1025
176 1 154 153 155 156
177 1 154 155 156 153
178 1 224 225 226 223
179 1 517 519 516 518
180 1 313 314 315 312
181 1 757 758 759 756
182 1 757 756 758 759
183 1 174 176 173 175
184 1 174 175 176 173
185 1 517 518 519 516
186 1 517 516 518 519
187 1 204 206 203 205
188 1 757 759 756 758
189 1 204 203 205 206
190 1 204 205 206 203
191 1 961 963 960 962
192 1 529 528 530 531
193 1 637 639 636 638
194 1 913 912 914 915
195 1 349 350 351 348
196 1 961 960 962 963
197 1 913 915 912 914
198 1 913 914 915 912
199 1 529 530 531 528
200 1 349 348 350 351
201 1 1024 1022 1025 1026
202 1 1022 1024 1021 1023
203 1 274 275 276 273
204 1 613 615 612 614
205 1 1022 1023 1024 1021
206 1 613 612 614 615
207 1 553 554 555 552
208 1 613 614 615 612
209 1 553 552 554 555
210 1 1024 1025 1026 1022
211 1 553 555 552 554
212 1 673 674 675 672
213 1 337 339 336 338
214 1 877 879 876 878
215 1 673 675 672 674
216 1 961 962 963 960
217 1 673 672 674 675
218 1 124 125 126 123
219 1 337 338 339 336
220 1 337 336 338 339
221 1 124 123 125 126
222 1 373 375 372 374
223 1 373 372 374 375
224 1 74 75 76 73
225 1 74 76 73 75
226 1 373 374 375 372
227 1 469 470 471 468
228 1 625 624 626 627
229 1 625 626 627 624
230 1 254 253 255 256
231 1 625 627 624 626
232 1 254 256 253 255
233 1 541 540 542 543
234 1 541 543 540 542
235 1 697 698 699 696
236 1 254 255 256 253
237 1 84 83 85 86
238 1 184 183 185 186
239 1 769 770 771 768
240 1 769 771 768 770
241 1 769 768 770 771
242 1 817 816 818 819
243 1 184 186 183 185
244 1 817 819 816 818
245 1 817 818 819 816
246 1 697 696 698 699
247 1 697 699 696 698
248 1 214 213 215 216
249 1 493 494 495 492
250 1 493 495 492 494
251 1 214 215 216 213
252 1 214 216 213 215
253 1 34 36 33 35
254 1 493 492 494 495
255 1 34 33 35 36
256 1 505 507 504 506
257 1 505 504 506 507
258 1 134 135 136 133
259 1 54 55 56 53
260 1 134 133 135 136
261 1 1076 1074 1077 1078
262 1 1074 1075 1076 1073
263 1 1074 1073 1075 1076
264 1 134 136 133 135
265 1 421 423 420 422
266 1 1071 1070 1072 1067
267 1 889 888 890 891
268 1 54 53 55 56
269 1 1019 1015 1018 1020
270 1 1015 1016 1019 1014
271 1 1015 1014 1016 1019
272 1 733 734 735 732
273 1 1067 1068 1071 1066
274 1 184 185 186 183
275 1 164 166 163 165
276 1 54 56 53 55
277 1 1067 1071 1066 1068
278 1 1071 1067 1070 1072
279 1 1067 1066 1068 1071
280 1 164 163 165 166
281 1 164 165 166 163
282 1 733 732 734 735
283 1 565 566 567 564
284 1 565 564 566 567
285 1 565 567 564 566
286 1 94 96 93 95
287 1 601 602 603 600
288 1 601 603 600 602
289 1 445 446 447 444
290 1 793 794 795 792
291 1 34 35 36 33
292 1 793 792 794 795
293 1 421 422 423 420
294 1 421 420 422 423
295 1 601 600 602 603
296 1 445 444 446 447
297 1 445 447 444 446
298 1 829 830 831 828
299 1 829 828 830 831
300 1 889 890 891 888
301 1 94 95 96 93
302 1 541 542 543 540
303 1 144 143 145 146
304 1 901 900 902 903
305 1 901 902 903 900
306 1 264 263 265 266
307 1 901 903 900 902
308 1 889 891 888 890
309 1 144 146 143 145
310 1 144 145 146 143
311 1 985 984 986 987
312 1 264 265 266 263
313 1 577 576 578 579
314 1 577 578 579 576
315 1 84 85 86 83
316 1 94 93 95 96
317 1 985 987 984 986
318 1 1071 1072 1067 1070
319 1 973 972 974 975
320 1 577 579 576 578
321 1 985 986 987 984
322 1 294 293 295 296
323 1 973 975 972 974
324 1 294 296 293 295
325 1 294 295 296 293
326 1 973 974 975 972
327 1 74 73 75 76
328 1 84 86 83 85
329 1 589 591 588 590
330 1 264 266 263 265
331 1 709 708 710 711
332 1 745 747 744 746
333 1 745 744 746 747
334 1 709 711 708 710
335 1 709 710 711 708
336 1 745 746 747 744
