LAMMPS (22 Jul 2025 - Update 4)
# Restart continuation NPT chunk for composition tag=ec_dmc_3_7_libob_0p8m_298K
# Generated by scripts/curate_ff_md_data.py

read_restart    ${input_restart}
read_restart    ec_dmc_3_7_libob_0p8m_298K.npt.6.restart
Reading restart file ...
  restart file = 22 Jul 2025, LAMMPS = 22 Jul 2025
  restoring atom style full from restart
  orthogonal box = (-0.078642233 -0.081642235 -0.13264224) to (23.300854 23.297854 23.246854)
  1 by 2 by 2 MPI processor grid
  restoring pair style lj/cut/coul/long from restart
  restoring bond style harmonic from restart
  restoring angle style harmonic from restart
  restoring dihedral style opls from restart
  restoring improper style cvff from restart
  1078 atoms
  1021 bonds
  1628 angles
  1658 dihedrals
  336 impropers
Finding 1-2 1-3 1-4 neighbors ...
  special bond factors lj:    0        0        0.5     
  special bond factors coul:  0        0        0.5     
     4 = max # of 1-2 neighbors
     5 = max # of 1-3 neighbors
    12 = max # of 1-4 neighbors
    12 = max # of special neighbors
  special bonds CPU = 0.001 seconds
  read_restart CPU = 0.014 seconds
kspace_style    pppm 1.0e-4
neighbor        2.0 bin
neigh_modify    every 1 delay 0 check yes
timestep        1.0

thermo_style    custom step time temp press vol density pe ke etotal
thermo          100
variable        tracked_temperature_K equal temp
variable        tracked_density_g_cm3 equal density
variable        tracked_volume_A3 equal vol
variable        tracked_pressure_atm equal press
fix             NPT_EQ all npt temp 298.15 298.15 100.0 iso 1.0 1.0 1000.0
fix             NPT_TRACE all ave/time 100 1 100 v_tracked_temperature_K v_tracked_density_g_cm3 v_tracked_volume_A3 v_tracked_pressure_atm file ${thermo_trace}
fix             NPT_TRACE all ave/time 100 1 100 v_tracked_temperature_K v_tracked_density_g_cm3 v_tracked_volume_A3 v_tracked_pressure_atm file npt_thermo.7.dat
run             5000
PPPM initialization ...
  using 12-bit tables for long-range coulomb
  G vector (1/distance) = 0.21173693
  grid = 9 9 9
  stencil order = 5
  estimated absolute RMS force accuracy = 0.017634066
  estimated relative force accuracy = 5.3104466e-05
  using double precision FFTW3
  3d grid and FFT values/proc = 1400 225
Generated 21 of 21 mixed pair_coeff terms from arithmetic mixing rule
Neighbor list info ...
  update: every = 1 steps, delay = 0 steps, check = yes
  max neighbors/atom: 2000, page size: 100000
  master list distance cutoff = 14
  ghost atom cutoff = 14
  binsize = 7, bins = 4 4 4
  1 neighbor lists, perpetual/occasional/extra = 1 0 0
  (1) pair lj/cut/coul/long, perpetual
      attributes: half, newton on
      pair build: half/bin/newton
      stencil: half/bin/3d
      bin: standard
Per MPI rank memory allocation (min/avg/max) = 13.45 | 13.45 | 13.46 Mbytes
   Step          Time           Temp          Press          Volume        Density         PotEng         KinEng         TotEng    
     30447   30447          300.30282     -374.07175      12779.253      1.1729895      968.26361      964.07187      1932.3355    
     30500   30500          304.35973     -2883.9795      12776.104      1.1732786      947.99361      977.09592      1925.0895    
     30600   30600          306.74705      498.138        12748.907      1.1757815      888.26889      984.76         1873.0289    
     30700   30700          297.57202      597.56935      12720.724      1.1783865      889.25115      955.3051       1844.5562    
     30800   30800          288.02204      2211.7017      12700.919      1.1802241      919.80351      924.64648      1844.45      
     30900   30900          297.22399     -1739.4707      12753.25       1.1753812      903.33934      954.18781      1857.5271    
     31000   31000          293.9723      -1349.202       12860.954      1.165538       951.73767      943.74879      1895.4865    
     31100   31100          314.37797     -1773.0684      12980.272      1.154824       935.30007      1009.2578      1944.5579    
     31200   31200          309.38472      553.29042      12993.899      1.1536129      935.37249      993.22779      1928.6003    
     31300   31300          303.90417     -1980.1722      12943.968      1.158063       921.9788       975.63343      1897.6122    
     31400   31400          295.62344     -1262.9583      12834.689      1.1679231      939.03736      949.04952      1888.0869    
     31500   31500          308.04559      191.85972      12687.67       1.1814565      897.5904       988.92876      1886.5192    
     31600   31600          303.56891      691.4898       12565.092      1.1929821      898.47305      974.55713      1873.0302    
     31700   31700          289.1085       2321.151       12517.074      1.1975586      889.37746      928.13438      1817.5118    
     31800   31800          284.69037      1150.3796      12589.857      1.1906355      886.50129      913.95074      1800.452     
     31900   31900          289.17837     -304.42019      12697.992      1.1804961      910.49127      928.35871      1838.85      
     32000   32000          298.46554     -346.5757       12791.734      1.171845       901.65218      958.1736       1859.8258    
     32100   32100          294.19686     -937.67338      12822.496      1.1690337      935.6803       944.46973      1880.15      
     32200   32200          304.62157      385.77298      12785.038      1.1724588      930.73473      977.93649      1908.6712    
     32300   32300          308.99738     -1237.8966      12728.744      1.177644       912.5168       991.98432      1904.5011    
     32400   32400          287.58543     -135.77662      12707.159      1.1796445      906.61636      923.24484      1829.8612    
     32500   32500          296.65999     -1368.5626      12670.575      1.1830505      861.50718      952.37718      1813.8844    
     32600   32600          302.16229      2505.8619      12588.575      1.1907567      866.89993      970.04141      1836.9413    
     32700   32700          308.13275      1614.7883      12555.987      1.1938472      890.65324      989.20856      1879.8618    
     32800   32800          305.94725      3102.6456      12582.626      1.1913197      905.5608       982.19237      1887.7532    
     32900   32900          294.91683     -1693.0769      12673.295      1.1827966      912.89393      946.78108      1859.675     
     33000   33000          280.53369      193.44651      12737.429      1.1768411      898.65342      900.6064       1799.2598    
     33100   33100          301.5203      -848.26079      12762.296      1.1745481      849.51896      967.9804       1817.4994    
     33200   33200          301.94742      1189.8262      12779.847      1.172935       887.19523      969.3516       1856.5468    
     33300   33300          299.86462      2894.1403      12807.535      1.1703993      918.15376      962.66512      1880.8189    
     33400   33400          300.58703     -256.46221      12849.195      1.1666046      932.36206      964.98429      1897.3463    
     33500   33500          294.33315     -3991.9911      12812.831      1.1699155      948.13639      944.90726      1893.0437    
     33600   33600          288.41227     -3894.4309      12752.577      1.1754432      926.20799      925.89928      1852.1073    
     33700   33700          289.81953     -90.465667      12703.131      1.1800185      882.88273      930.41702      1813.2998    
     33800   33800          291.53803      1952.6616      12677.073      1.1824441      891.23184      935.93401      1827.1658    
     33900   33900          301.90793      2555.944       12676.57       1.182491       905.66616      969.22483      1874.891     
     34000   34000          308.99735      2239.5807      12740.308      1.1765752      899.59857      991.98421      1891.5828    
     34100   34100          298.57992      1892.4351      12854.917      1.1660853      923.48169      958.5408       1882.0225    
     34200   34200          297.45563     -1670.7576      12935.753      1.1587984      916.43817      954.93144      1871.3696    
     34300   34300          294.78617     -2952.5159      12878.95       1.1639093      916.00464      946.3616       1862.3662    
     34400   34400          294.37669     -2083.4947      12747.1        1.1759483      917.63971      945.04703      1862.6867    
     34500   34500          303.1903       880.65982      12643.393      1.1855939      915.99511      973.34164      1889.3368    
     34600   34600          306.17364     -733.44188      12658.952      1.1841368      915.29528      982.91916      1898.2144    
     34700   34700          289.79363      1467.4014      12731.691      1.1773714      915.74502      930.33389      1846.0789    
     34800   34800          286.77467      1687.3262      12805.456      1.1705893      904.77596      920.64203      1825.418     
     34900   34900          290.57211      1155.5668      12804.94       1.1706365      917.13121      932.83305      1849.9643    
     35000   35000          301.9298      -612.70937      12777.927      1.1731113      913.3559       969.29504      1882.6509    
     35100   35100          305.41963     -1500.6394      12734.767      1.1770871      906.10888      980.49855      1886.6074    
     35200   35200          301.14843     -203.7582       12700.049      1.1803049      907.05704      966.78656      1873.8436    
     35300   35300          297.67121     -1206.6514      12671.897      1.182927       893.5664       955.62355      1849.1899    
     35400   35400          295.74878      1265.8228      12649.07       1.1850618      877.0401       949.45191      1826.492     
     35447   35447          289.062        168.54102      12656.085      1.184405       890.68699      927.98511      1818.6721    
Loop time of 38.9898 on 4 procs for 5000 steps with 1078 atoms

Performance: 11.080 ns/day, 2.166 hours/ns, 128.239 timesteps/s, 138.241 katom-step/s
75.9% CPU use with 4 MPI tasks x no OpenMP threads

MPI task timing breakdown:
Section |  min time  |  avg time  |  max time  |%varavg| %total
---------------------------------------------------------------
Pair    | 20.46      | 21.272     | 22.764     |  19.5 | 54.56
Bond    | 1.0025     | 1.0855     | 1.1486     |   5.8 |  2.78
Kspace  | 11.033     | 12.498     | 13.375     |  25.4 | 32.06
Neigh   | 1.0652     | 1.0721     | 1.0758     |   0.4 |  2.75
Comm    | 1.8279     | 1.8524     | 1.8663     |   1.1 |  4.75
Output  | 0.0050627  | 0.0057662  | 0.0060099  |   0.5 |  0.01
Modify  | 0.77975    | 0.846      | 0.92701    |   6.1 |  2.17
Other   |            | 0.3573     |            |       |  0.92

Nlocal:          269.5 ave         289 max         248 min
Histogram: 1 0 0 0 1 0 1 0 0 1
Nghost:        6601.75 ave        6682 max        6533 min
Histogram: 1 0 1 0 0 1 0 0 0 1
Neighs:         131798 ave      152716 max      122454 min
Histogram: 2 0 1 0 0 0 0 0 0 1

Total # of neighbors = 527192
Ave neighs/atom = 489.04638
Ave special neighs/atom = 6.9777365
Neighbor list builds = 107
Dangerous builds = 0
unfix           NPT_TRACE
unfix           NPT_EQ
write_restart   ${output_restart}
write_restart   ec_dmc_3_7_libob_0p8m_298K.npt.7.restart
System init for write_restart ...
PPPM initialization ...
  using 12-bit tables for long-range coulomb
  G vector (1/distance) = 0.21197232
  grid = 9 9 9
  stencil order = 5
  estimated absolute RMS force accuracy = 0.017466928
  estimated relative force accuracy = 5.2601135e-05
  using double precision FFTW3
  3d grid and FFT values/proc = 1400 225
Generated 21 of 21 mixed pair_coeff terms from arithmetic mixing rule
Total wall time: 0:00:39
