LAMMPS (22 Jul 2025 - Update 4)
# Restart continuation NPT chunk for composition tag=ec_dmc_3_7_libob_0p8m_298K
# Generated by scripts/curate_ff_md_data.py

read_restart    ${input_restart}
read_restart    ec_dmc_3_7_libob_0p8m_298K.npt.4.restart
Reading restart file ...
  restart file = 22 Jul 2025, LAMMPS = 22 Jul 2025
  restoring atom style full from restart
  orthogonal box = (-0.16267887 -0.16567887 -0.21667888) to (23.384891 23.381891 23.330891)
  1 by 2 by 2 MPI processor grid
  restoring pair style lj/cut/coul/long from restart
  restoring bond style harmonic from restart
  restoring angle style harmonic from restart
  restoring dihedral style opls from restart
  restoring improper style cvff from restart
  1078 atoms
  1021 bonds
  1628 angles
  1658 dihedrals
  336 impropers
Finding 1-2 1-3 1-4 neighbors ...
  special bond factors lj:    0        0        0.5     
  special bond factors coul:  0        0        0.5     
     4 = max # of 1-2 neighbors
     5 = max # of 1-3 neighbors
    12 = max # of 1-4 neighbors
    12 = max # of special neighbors
  special bonds CPU = 0.002 seconds
  read_restart CPU = 0.017 seconds
kspace_style    pppm 1.0e-4
neighbor        2.0 bin
neigh_modify    every 1 delay 0 check yes
timestep        1.0

thermo_style    custom step time temp press vol density pe ke etotal
thermo          100
variable        tracked_temperature_K equal temp
variable        tracked_density_g_cm3 equal density
variable        tracked_volume_A3 equal vol
variable        tracked_pressure_atm equal press
fix             NPT_EQ all npt temp 298.15 298.15 100.0 iso 1.0 1.0 1000.0
fix             NPT_TRACE all ave/time 100 1 100 v_tracked_temperature_K v_tracked_density_g_cm3 v_tracked_volume_A3 v_tracked_pressure_atm file ${thermo_trace}
fix             NPT_TRACE all ave/time 100 1 100 v_tracked_temperature_K v_tracked_density_g_cm3 v_tracked_volume_A3 v_tracked_pressure_atm file npt_thermo.5.dat
run             5000
PPPM initialization ...
  using 12-bit tables for long-range coulomb
  G vector (1/distance) = 0.21121393
  grid = 9 9 9
  stencil order = 5
  estimated absolute RMS force accuracy = 0.018010367
  estimated relative force accuracy = 5.4237684e-05
  using double precision FFTW3
  3d grid and FFT values/proc = 1400 225
Generated 21 of 21 mixed pair_coeff terms from arithmetic mixing rule
Neighbor list info ...
  update: every = 1 steps, delay = 0 steps, check = yes
  max neighbors/atom: 2000, page size: 100000
  master list distance cutoff = 14
  ghost atom cutoff = 14
  binsize = 7, bins = 4 4 4
  1 neighbor lists, perpetual/occasional/extra = 1 0 0
  (1) pair lj/cut/coul/long, perpetual
      attributes: half, newton on
      pair build: half/bin/newton
      stencil: half/bin/3d
      bin: standard
Per MPI rank memory allocation (min/avg/max) = 13.45 | 13.45 | 13.46 Mbytes
   Step          Time           Temp          Press          Volume        Density         PotEng         KinEng         TotEng    
     20447   20447          300.13669      2106.2028      13056.846      1.1480513      991.26454      963.53856      1954.8031    
     20500   20500          308.17676     -1486.3109      13059.29       1.1478365      958.19846      989.34986      1947.5483    
     20600   20600          293.06489      41.114557      13002.391      1.1528595      946.22908      940.83572      1887.0648    
     20700   20700          296.42033     -12.511719      12947.236      1.1577707      920.00223      951.60779      1871.61      
     20800   20800          306.74807     -2031.5149      12936.779      1.1587064      888.98995      984.76328      1873.7532    
     20900   20900          296.29897      16.865093      12922.653      1.1599731      916.2422       951.2182       1867.4604    
     21000   21000          293.61799     -202.2888       12954.971      1.1570793      919.61646      942.61134      1862.2278    
     21100   21100          291.63171     -2018.484       13023.49       1.1509918      942.62903      936.23473      1878.8638    
     21200   21200          294.87762     -1217.7477      13073.658      1.146575       980.5166       946.65519      1927.1718    
     21300   21300          301.54349     -170.42911      13099.582      1.1443059      986.29264      968.05483      1954.3475    
     21400   21400          301.01004     -2926.4007      13137.42       1.1410102      982.29597      966.34229      1948.6383    
     21500   21500          286.89869     -2490.2794      13139.78       1.1408053      964.30408      921.04016      1885.3442    
     21600   21600          290.54367      3077.6258      13079.757      1.1460404      934.14082      932.74175      1866.8826    
     21700   21700          304.48656     -604.81954      13004.249      1.1526947      907.96306      977.50308      1885.4661    
     21800   21800          302.45276     -771.70844      12921.012      1.1601204      944.39177      970.97391      1915.3657    
     21900   21900          301.50077     -1969.2645      12889.949      1.1629162      952.65889      967.91768      1920.5766    
     22000   22000          292.76016      750.20082      12904.015      1.1616485      925.89471      939.85742      1865.7521    
     22100   22100          295.18569     -364.78051      12918.979      1.160303       887.16346      947.64419      1834.8077    
     22200   22200          288.79329     -442.84758      12934.274      1.1589309      936.75454      927.12246      1863.877     
     22300   22300          295.69882     -645.37422      12904.377      1.1616159      958.4917       949.29152      1907.7832    
     22400   22400          303.91586      641.91161      12885.376      1.1633288      935.28626      975.67093      1910.9572    
     22500   22500          298.009        2042.7879      12899.955      1.1620141      949.9051       956.70794      1906.613     
     22600   22600          301.86426      2948.4932      12959.557      1.15667        914.65596      969.08464      1883.7406    
     22700   22700          295.56389     -1274.0995      13036.334      1.1498577      882.33237      948.85835      1831.1907    
     22800   22800          293.255       -2045.6367      13067.033      1.1471564      893.06372      941.44605      1834.5098    
     22900   22900          299.87493      359.10233      13016.45       1.1516143      924.9038       962.69819      1887.602     
     23000   23000          297.46874     -733.80141      12959.418      1.1566824      947.89053      954.97355      1902.8641    
     23100   23100          299.93502      121.96503      12927.957      1.1594972      931.61206      962.89111      1894.5032    
     23200   23200          294.67087     -628.50755      12951.545      1.1573854      938.90893      945.99146      1884.9004    
     23300   23300          292.71383     -1116.4741      12950.471      1.1574815      971.96809      939.70871      1911.6768    
     23400   23400          302.76517     -438.10512      12935.217      1.1588464      988.15606      971.97684      1960.1329    
     23500   23500          299.36697      568.92244      12928.468      1.1594513      980.48861      961.06748      1941.5561    
     23600   23600          288.68433     -1206.0463      12976.838      1.1551296      964.85281      926.77267      1891.6255    
     23700   23700          292.8434      -433.14996      13062.228      1.1475783      944.76319      940.12467      1884.8879    
     23800   23800          294.26989      1680.2312      13098.423      1.1444072      947.96087      944.70416      1892.665     
     23900   23900          309.99339      691.54803      13092.092      1.1449606      925.88343      995.18184      1921.0653    
     24000   24000          310.29707      1014.9254      13010.525      1.1521387      959.43009      996.15675      1955.5868    
     24100   24100          298.27543      2104.4164      12912.664      1.1608705      979.37107      957.56328      1936.9343    
     24200   24200          293.15523      826.23275      12877.105      1.164076       934.55412      941.12575      1875.6799    
     24300   24300          295.34183      1809.5943      12846.634      1.1668372      926.64668      948.14547      1874.7921    
     24400   24400          303.2399      -70.109747      12883.119      1.1635326      935.58575      973.50089      1909.0866    
     24500   24500          310.88656     -750.44802      12925.569      1.1597114      914.65903      998.0492       1912.7082    
     24600   24600          296.28635      188.33704      12938.126      1.1585859      896.49435      951.17768      1847.672     
     24700   24700          287.85949      1027.8919      12965.464      1.156143       913.6545       924.12465      1837.7792    
     24800   24800          297.18868     -1101.258       12935.98       1.158778       917.65697      954.07445      1871.7314    
     24900   24900          292.33888      579.61821      12828.342      1.1685009      952.46446      938.50499      1890.9695    
     25000   25000          307.55045     -1418.0099      12791.322      1.1718827      910.63897      987.33918      1897.9782    
     25100   25100          297.52014      2083.042       12815.906      1.1696349      906.37425      955.13854      1861.5128    
     25200   25200          284.30841      699.22404      12865.464      1.1651293      897.62745      912.72451      1810.352     
     25300   25300          289.61086      2291.6504      12887.404      1.1631458      906.35144      929.74713      1836.0986    
     25400   25400          298.04405      305.38027      12925.676      1.1597018      914.11147      956.82048      1870.932     
     25447   25447          294.63858     -1788.4732      12943.829      1.1580754      938.21413      945.8878       1884.1019    
Loop time of 33.1483 on 4 procs for 5000 steps with 1078 atoms

Performance: 13.032 ns/day, 1.842 hours/ns, 150.837 timesteps/s, 162.603 katom-step/s
81.1% CPU use with 4 MPI tasks x no OpenMP threads

MPI task timing breakdown:
Section |  min time  |  avg time  |  max time  |%varavg| %total
---------------------------------------------------------------
Pair    | 18.358     | 19.925     | 20.701     |  21.4 | 60.11
Bond    | 0.90749    | 0.98341    | 1.0953     |   7.1 |  2.97
Kspace  | 7.9749     | 8.8805     | 10.421     |  32.2 | 26.79
Neigh   | 0.93195    | 0.93354    | 0.93505    |   0.1 |  2.82
Comm    | 1.4094     | 1.4254     | 1.4416     |   1.3 |  4.30
Output  | 0.0042289  | 0.0048602  | 0.0050785  |   0.5 |  0.01
Modify  | 0.61773    | 0.68446    | 0.7456     |   5.5 |  2.06
Other   |            | 0.3115     |            |       |  0.94

Nlocal:          269.5 ave         273 max         265 min
Histogram: 1 0 0 1 0 0 0 0 1 1
Nghost:        6458.25 ave        6483 max        6441 min
Histogram: 1 0 1 1 0 0 0 0 0 1
Neighs:         128927 ave      141955 max      117549 min
Histogram: 1 0 1 0 0 0 1 0 0 1

Total # of neighbors = 515708
Ave neighs/atom = 478.39332
Ave special neighs/atom = 6.9777365
Neighbor list builds = 108
Dangerous builds = 0
unfix           NPT_TRACE
unfix           NPT_EQ
write_restart   ${output_restart}
write_restart   ec_dmc_3_7_libob_0p8m_298K.npt.5.restart
System init for write_restart ...
PPPM initialization ...
  using 12-bit tables for long-range coulomb
  G vector (1/distance) = 0.21142562
  grid = 9 9 9
  stencil order = 5
  estimated absolute RMS force accuracy = 0.017857228
  estimated relative force accuracy = 5.3776512e-05
  using double precision FFTW3
  3d grid and FFT values/proc = 1400 225
Generated 21 of 21 mixed pair_coeff terms from arithmetic mixing rule
Total wall time: 0:00:33
