LAMMPS (22 Jul 2025 - Update 4)
# Initial NPT chunk for composition tag=ec_dmc_3_7_libob_0p8m_298K
# Generated by scripts/curate_ff_md_data.py

units           real
boundary        p p p
atom_style      full
bond_style      harmonic
angle_style     harmonic
dihedral_style  opls
improper_style  cvff

pair_style      lj/cut/coul/long 12.0 12.0
pair_modify     mix arithmetic
special_bonds   lj/coul 0.0 0.0 0.5

read_data       ec_dmc_3_7_libob_0p8m_298K.lmp
Reading data file ...
  triclinic box = (-0.046 -0.049000002 -0.10000001) to (23.268212 23.265212 23.214212) with tilt (0 0 0)
  1 by 2 by 2 MPI processor grid
  reading atoms ...
  1078 atoms
  scanning bonds ...
  4 = max bonds/atom
  scanning angles ...
  6 = max angles/atom
  scanning dihedrals ...
  10 = max dihedrals/atom
  scanning impropers ...
  1 = max impropers/atom
  triclinic box = (-0.046 -0.049000002 -0.10000001) to (23.268212 23.265212 23.214212) with tilt (0 0 0)
  1 by 2 by 2 MPI processor grid
  reading bonds ...
  1021 bonds
  reading angles ...
  1628 angles
  reading dihedrals ...
  1658 dihedrals
  reading impropers ...
  336 impropers
Finding 1-2 1-3 1-4 neighbors ...
  special bond factors lj:    0        0        0.5     
  special bond factors coul:  0        0        0.5     
     4 = max # of 1-2 neighbors
     5 = max # of 1-3 neighbors
    12 = max # of 1-4 neighbors
    12 = max # of special neighbors
  special bonds CPU = 0.002 seconds
  read_data CPU = 0.078 seconds

# openff-interchange writes the box as triclinic with zero tilt; PPPM stalls
# indefinitely in triclinic mode on this brew LAMMPS build, but works fine
# after change_box all ortho converts the zero-tilt box to orthogonal.
change_box      all ortho
Changing box ...
  orthogonal box = (-0.046 -0.049000002 -0.10000001) to (23.268212 23.265212 23.214212)
kspace_style    pppm 1.0e-4

min_style       cg
minimize        1.0e-4 1.0e-6 10000 100000
PPPM initialization ...
  using 12-bit tables for long-range coulomb
  G vector (1/distance) = 0.21194083
  grid = 9 9 9
  stencil order = 5
  estimated absolute RMS force accuracy = 0.017489207
  estimated relative force accuracy = 5.2668226e-05
  using double precision FFTW3
  3d grid and FFT values/proc = 1400 225
Generated 21 of 21 mixed pair_coeff terms from arithmetic mixing rule
Neighbor list info ...
  update: every = 1 steps, delay = 0 steps, check = yes
  max neighbors/atom: 2000, page size: 100000
  master list distance cutoff = 14
  ghost atom cutoff = 14
  binsize = 7, bins = 4 4 4
  1 neighbor lists, perpetual/occasional/extra = 1 0 0
  (1) pair lj/cut/coul/long, perpetual
      attributes: half, newton on
      pair build: half/bin/newton
      stencil: half/bin/3d
      bin: standard
Per MPI rank memory allocation (min/avg/max) = 14.21 | 14.49 | 14.58 Mbytes
   Step          Temp          E_pair         E_mol          TotEng         Press     
         0   0              4130.0626      24190.648      28320.71       129130.87    
       447   0             -3088.9748      3670.8189      581.84408      4910.6059    
Loop time of 12.2035 on 4 procs for 447 steps with 1078 atoms

69.4% CPU use with 4 MPI tasks x no OpenMP threads

Minimization stats:
  Stopping criterion = energy tolerance
  Energy initial, next-to-last, final = 
      28320.7104326253   581.854184433457   581.844083757629
  Force two-norm initial, final = 8085.8059 178.76591
  Force max component initial, final = 1106.7315 111.66689
  Final line search alpha, max atom move = 0.0022358166 0.2496667
  Iterations, force evaluations = 447 898

MPI task timing breakdown:
Section |  min time  |  avg time  |  max time  |%varavg| %total
---------------------------------------------------------------
Pair    | 6.4181     | 7.1255     | 7.6766     |  18.1 | 58.39
Bond    | 0.20162    | 0.22497    | 0.24938    |   3.7 |  1.84
Kspace  | 3.5376     | 4.0946     | 4.8356     |  24.8 | 33.55
Neigh   | 0.10615    | 0.10676    | 0.10739    |   0.2 |  0.87
Comm    | 0.47276    | 0.48736    | 0.50004    |   1.5 |  3.99
Output  | 0          | 0          | 0          |   0.0 |  0.00
Modify  | 0          | 0          | 0          |   0.0 |  0.00
Other   |            | 0.1644     |            |       |  1.35

Nlocal:          269.5 ave         289 max         247 min
Histogram: 1 0 0 1 0 0 0 1 0 1
Nghost:        6544.75 ave        6616 max        6464 min
Histogram: 1 0 0 0 1 0 1 0 0 1
Neighs:         131848 ave      136093 max      125368 min
Histogram: 1 0 0 0 0 0 1 1 0 1

Total # of neighbors = 527392
Ave neighs/atom = 489.23191
Ave special neighs/atom = 6.9777365
Neighbor list builds = 10
Dangerous builds = 0
velocity        all create 298.15 155933 dist gaussian
neighbor        2.0 bin
neigh_modify    every 1 delay 0 check yes
timestep        1.0

thermo_style    custom step time temp press vol density pe ke etotal
thermo          100
variable        tracked_temperature_K equal temp
variable        tracked_density_g_cm3 equal density
variable        tracked_volume_A3 equal vol
variable        tracked_pressure_atm equal press
fix             NPT_EQ all npt temp 298.15 298.15 100.0 iso 1.0 1.0 1000.0
fix             NPT_TRACE all ave/time 100 1 100 v_tracked_temperature_K v_tracked_density_g_cm3 v_tracked_volume_A3 v_tracked_pressure_atm file ${thermo_trace}
fix             NPT_TRACE all ave/time 100 1 100 v_tracked_temperature_K v_tracked_density_g_cm3 v_tracked_volume_A3 v_tracked_pressure_atm file npt_thermo.1.dat
run             5000
PPPM initialization ...
  using 12-bit tables for long-range coulomb
  G vector (1/distance) = 0.21194083
  grid = 9 9 9
  stencil order = 5
  estimated absolute RMS force accuracy = 0.017489207
  estimated relative force accuracy = 5.2668226e-05
  using double precision FFTW3
  3d grid and FFT values/proc = 1400 225
Generated 21 of 21 mixed pair_coeff terms from arithmetic mixing rule
Per MPI rank memory allocation (min/avg/max) = 13.45 | 13.46 | 13.46 Mbytes
   Step          Time           Temp          Press          Volume        Density         PotEng         KinEng         TotEng    
       447   447            298.15         8363.2788      12672.498      1.1828709      581.84408      957.16061      1539.0047    
       500   500            178.93909      9206.6152      12774.164      1.1734569      1008.8782      574.45398      1583.3322    
       600   600            208.29168      6558.3878      13377.673      1.1205185      1016.7034      668.68555      1685.3889    
       700   700            249.88822      6017.9496      13867.897      1.0809087      1041.2784      802.22426      1843.5027    
       800   800            266.05287      3105.9967      14205.602      1.0552126      1144.0487      854.11815      1998.1669    
       900   900            290.40866      1948.1224      14522.499      1.0321866      1191.5648      932.30834      2123.8731    
      1000   1000           307.1309       467.26973      14843.644      1.0098551      1205.0685      985.99228      2191.0608    
      1100   1100           302.35988      947.25055      15132.724      0.99056385     1224.4666      970.67573      2195.1424    
      1200   1200           299.90741      362.90235      15331.841      0.97769927     1208.9022      962.80249      2171.7047    
      1300   1300           304.73015      649.01069      15526.052      0.96546953     1187.3182      978.28507      2165.6033    
      1400   1400           302.69047     -34.096767      15695.228      0.95506287     1191.1352      971.73702      2162.8723    
      1500   1500           308.07105     -1466.9698      15810.342      0.94810915     1162.5288      989.01048      2151.5393    
      1600   1600           291.13689     -869.81261      15877.029      0.94412686     1196.8984      934.64618      2131.5446    
      1700   1700           291.84092     -1106.9417      15964.181      0.93897268     1199.9972      936.90636      2136.9036    
      1800   1800           312.50134      621.94249      15989.186      0.93750423     1152.0453      1003.2332      2155.2784    
      1900   1900           292.48788      766.64491      15968.096      0.93874246     1194.8381      938.98333      2133.8214    
      2000   2000           296.55996      293.31876      15980.055      0.93803993     1144.3071      952.05604      2096.3631    
      2100   2100           286.60944     -631.18128      16026.749      0.93530698     1172.1036      920.11156      2092.2152    
      2200   2200           296.37082      178.4204       16021.625      0.93560611     1197.3131      951.44885      2148.7619    
      2300   2300           307.91111      81.43413       16021.515      0.93561251     1203.9943      988.49701      2192.4913    
      2400   2400           308.97671     -524.3776       16005.009      0.93657738     1200.8022      991.91795      2192.7202    
      2500   2500           302.02155      196.60599      16053.256      0.93376259     1182.2715      969.58958      2151.8611    
      2600   2600           295.67171     -317.44956      16081.133      0.93214386     1148.6432      949.20447      2097.8477    
      2700   2700           290.46763     -369.58397      16039.8        0.93454594     1142.0943      932.49764      2074.592     
      2800   2800           290.59728     -1207.5652      15930.471      0.94095963     1166.0794      932.91388      2098.9933    
      2900   2900           301.65586      1759.1045      15848.993      0.94579698     1179.9259      968.41558      2148.3414    
      3000   3000           307.25549      951.74953      15822.525      0.94737911     1166.6239      986.39225      2153.0162    
      3100   3100           291.18244      1327.6526      15769.817      0.95054558     1167.2134      934.79243      2102.0058    
      3200   3200           305.04459     -1696.0829      15742.142      0.95221668     1113.3302      979.29454      2092.6247    
      3300   3300           297.64575      1062.6527      15765.938      0.95077944     1142.3137      955.54181      2097.8555    
      3400   3400           297.76232     -777.26973      15854.343      0.94547783     1136.957       955.91604      2092.873     
      3500   3500           284.41938      135.36044      15856.995      0.9453197      1154.633       913.08075      2067.7137    
      3600   3600           291.33063     -392.66677      15800.102      0.94872361     1125.1951      935.26816      2060.4633    
      3700   3700           290.79896      3433.1225      15680.348      0.9559692      1180.9267      933.56132      2114.4881    
      3800   3800           298.54188      636.65753      15635.811      0.95869217     1183.9585      958.41866      2142.3772    
      3900   3900           303.30451     -506.04804      15507.295      0.96663731     1157.9672      973.70831      2131.6755    
      4000   4000           296.48914     -1377.3198      15340.36       0.97715629     1145.4153      951.82871      2097.244     
      4100   4100           288.02932     -1031.7692      15138.226      0.99020383     1110.723       924.66988      2035.3929    
      4200   4200           292.14848     -540.60059      15008.564      0.99875844     1104.931       937.89375      2042.8248    
      4300   4300           296.37533      476.97738      14900.965      1.0059704      1118.6037      951.46335      2070.0671    
      4400   4400           297.79235      2613.6876      14773.994      1.0146159      1137.152       956.01245      2093.1644    
      4500   4500           308.36801      1701.0832      14711.046      1.0189575      1120.372       989.96382      2110.3359    
      4600   4600           298.66752      3.0839189      14719.919      1.0183432      1126.2177      958.82202      2085.0397    
      4700   4700           285.17312      216.97404      14701.668      1.0196074      1102.7166      915.5005       2018.2171    
      4800   4800           294.57321      1301.4425      14680.819      1.0210554      1096.388       945.67792      2042.0659    
      4900   4900           296.12185     -426.33895      14719.703      1.0183581      1135.7695      950.64956      2086.419     
      5000   5000           306.03782      177.98648      14757.731      1.015734       1118.3993      982.48315      2100.8825    
      5100   5100           309.92471      1830.2335      14782.134      1.0140572      1093.3216      994.96135      2088.283     
      5200   5200           295.65405     -1182.2771      14826.922      1.010994       1075.0766      949.14779      2024.2244    
      5300   5300           304.9305       54.257348      14848.646      1.0095149      1033.8817      978.92828      2012.81      
      5400   5400           291.89297      906.32314      14901.047      1.0059649      1073.8613      937.07348      2010.9348    
      5447   5447           289.05798      1180.5516      14931.624      1.0039048      1093.4529      927.97219      2021.4251    
Loop time of 35.5538 on 4 procs for 5000 steps with 1078 atoms

Performance: 12.151 ns/day, 1.975 hours/ns, 140.632 timesteps/s, 151.601 katom-step/s
74.8% CPU use with 4 MPI tasks x no OpenMP threads

MPI task timing breakdown:
Section |  min time  |  avg time  |  max time  |%varavg| %total
---------------------------------------------------------------
Pair    | 16.062     | 17.681     | 18.943     |  24.6 | 49.73
Bond    | 0.96088    | 1.0372     | 1.0922     |   5.4 |  2.92
Kspace  | 11.378     | 12.594     | 14.27      |  29.7 | 35.42
Neigh   | 1.1618     | 1.1642     | 1.1679     |   0.2 |  3.27
Comm    | 1.7652     | 1.8082     | 1.8649     |   2.8 |  5.09
Output  | 0.013859   | 0.015203   | 0.015666   |   0.6 |  0.04
Modify  | 0.75606    | 0.84148    | 0.9266     |   7.7 |  2.37
Other   |            | 0.4127     |            |       |  1.16

Nlocal:          269.5 ave         282 max         260 min
Histogram: 1 0 1 0 0 1 0 0 0 1
Nghost:        5922.75 ave        5968 max        5878 min
Histogram: 1 1 0 0 0 0 0 0 1 1
Neighs:         111728 ave      118191 max      103962 min
Histogram: 1 0 0 0 0 1 1 0 0 1

Total # of neighbors = 446910
Ave neighs/atom = 414.57328
Ave special neighs/atom = 6.9777365
Neighbor list builds = 125
Dangerous builds = 0
unfix           NPT_TRACE
unfix           NPT_EQ
write_restart   ${output_restart}
write_restart   ec_dmc_3_7_libob_0p8m_298K.npt.1.restart
System init for write_restart ...
PPPM initialization ...
  using 12-bit tables for long-range coulomb
  G vector (1/distance) = 0.20792769
  grid = 9 9 9
  stencil order = 5
  estimated absolute RMS force accuracy = 0.020537026
  estimated relative force accuracy = 6.1846644e-05
  using double precision FFTW3
  3d grid and FFT values/proc = 1400 225
Generated 21 of 21 mixed pair_coeff terms from arithmetic mixing rule
Total wall time: 0:00:47
