LAMMPS (22 Jul 2025 - Update 4)
# Restart continuation NPT chunk for composition tag=ec_dmc_3_7_libob_0p8m_298K
# Generated by scripts/curate_ff_md_data.py

read_restart    ${input_restart}
read_restart    ec_dmc_3_7_libob_0p8m_298K.npt.1.restart
Reading restart file ...
  restart file = 22 Jul 2025, LAMMPS = 22 Jul 2025
  restoring atom style full from restart
  orthogonal box = (-0.60306884 -0.60606884 -0.65706885) to (23.825281 23.822281 23.771281)
  1 by 1 by 1 MPI processor grid
  restoring pair style lj/cut/coul/long from restart
  restoring bond style harmonic from restart
  restoring angle style harmonic from restart
  restoring dihedral style opls from restart
  restoring improper style cvff from restart
  1078 atoms
  1021 bonds
  1628 angles
  1658 dihedrals
  336 impropers
Finding 1-2 1-3 1-4 neighbors ...
  special bond factors lj:    0        0        0.5     
  special bond factors coul:  0        0        0.5     
     4 = max # of 1-2 neighbors
     5 = max # of 1-3 neighbors
    12 = max # of 1-4 neighbors
    12 = max # of special neighbors
  special bonds CPU = 0.002 seconds
  read_restart CPU = 0.006 seconds
kspace_style    pppm 1.0e-4
neighbor        2.0 bin
neigh_modify    every 1 delay 0 check yes
timestep        1.0

thermo_style    custom step time temp press vol density pe ke etotal
thermo          100
variable        tracked_temperature_K equal temp
variable        tracked_density_g_cm3 equal density
variable        tracked_volume_A3 equal vol
variable        tracked_pressure_atm equal press
fix             NPT_EQ all npt temp 298.15 298.15 100.0 iso 1.0 1.0 1000.0
fix             NPT_TRACE all ave/time 100 1 100 v_tracked_temperature_K v_tracked_density_g_cm3 v_tracked_volume_A3 v_tracked_pressure_atm file ${thermo_trace}
fix             NPT_TRACE all ave/time 100 1 100 v_tracked_temperature_K v_tracked_density_g_cm3 v_tracked_volume_A3 v_tracked_pressure_atm file npt_thermo.2.dat
run             5000
PPPM initialization ...
  using 12-bit tables for long-range coulomb
  G vector (1/distance) = 0.20851823
  grid = 9 9 9
  stencil order = 5
  estimated absolute RMS force accuracy = 0.020061763
  estimated relative force accuracy = 6.0415404e-05
  using double precision FFTW3
  3d grid and FFT values/proc = 2744 729
Generated 21 of 21 mixed pair_coeff terms from arithmetic mixing rule
Neighbor list info ...
  update: every = 1 steps, delay = 0 steps, check = yes
  max neighbors/atom: 2000, page size: 100000
  master list distance cutoff = 14
  ghost atom cutoff = 14
  binsize = 7, bins = 4 4 4
  1 neighbor lists, perpetual/occasional/extra = 1 0 0
  (1) pair lj/cut/coul/long, perpetual
      attributes: half, newton on
      pair build: half/bin/newton
      stencil: half/bin/3d
      bin: standard
Per MPI rank memory allocation (min/avg/max) = 14.93 | 14.93 | 14.93 Mbytes
   Step          Time           Temp          Press          Volume        Density         PotEng         KinEng         TotEng    
      5447   5447           306.50157     -306.76489      14577.478      1.0282938      1100.4583      983.97193      2084.4302    
      5500   5500           305.84563      53.414859      14583.12       1.0278959      1091.9587      981.86613      2073.8249    
      5600   5600           296.10213     -2453.0403      14636.876      1.0241209      1073.9002      950.58628      2024.4865    
      5700   5700           278.16911     -1392.9343      14645.286      1.0235328      1117.5624      893.01532      2010.5777    
      5800   5800           293.55846     -150.05929      14654.429      1.0228942      1089.1949      942.42025      2031.6151    
      5900   5900           299.22022     -305.9302       14673.718      1.0215495      1088.6931      960.59638      2049.2895    
      6000   6000           303.34768      720.40842      14712.116      1.0188833      1096.2674      973.84691      2070.1143    
      6100   6100           300.52147      752.94742      14762.407      1.0154123      1153.3588      964.77383      2118.1326    
      6200   6200           321.25026      704.38542      14734.088      1.0173639      1126.6882      1031.3201      2158.0083    
      6300   6300           296.35877     -714.15415      14691.728      1.0202972      1141.7699      951.41016      2093.1801    
      6400   6400           308.56424     -735.88886      14625.399      1.0249245      1080.6223      990.59378      2071.216     
      6500   6500           304.49617      187.43828      14538.93       1.0310202      1067.2033      977.53392      2044.7372    
      6600   6600           293.64586      876.1561       14442.15       1.0379292      1082.8219      942.70084      2025.5227    
      6700   6700           302.81383      1074.5881      14348.056      1.0447359      1072.7833      972.13305      2044.9164    
      6800   6800           312.40399      1147.4129      14273.446      1.0501969      1087.3808      1002.9207      2090.3014    
      6900   6900           309.57168      947.78286      14210.092      1.0548791      1060.4592      993.82802      2054.2873    
      7000   7000           299.19809      430.93923      14243.054      1.0524379      1044.746       960.52532      2005.2713    
      7100   7100           294.59572     -712.59345      14234.158      1.0530956      1041.7764      945.75019      1987.5266    
      7200   7200           292.43592     -242.2197       14256.429      1.0514505      1036.7828      938.8165       1975.5993    
      7300   7300           297.95224     -1379.7107      14299.693      1.0482693      1031.4988      956.52575      1988.0246    
      7400   7400           299.28995      2765.9519      14312.655      1.04732        1079.2363      960.82022      2040.0565    
      7500   7500           302.32352     -586.18043      14342.076      1.0451716      1096.6865      970.55901      2067.2455    
      7600   7600           310.36959      1257.5011      14311.93       1.0473731      1044.1466      996.38954      2040.5361    
      7700   7700           297.24768      779.22115      14252.553      1.0517365      1052.3379      954.26387      2006.6018    
      7800   7800           297.56286      1191.945       14255.685      1.0515054      1044.9626      955.27571      2000.2383    
      7900   7900           296.86932     -103.10274      14340.872      1.0452593      1042.6779      953.04919      1995.7271    
      8000   8000           296.21459      414.6659       14433.578      1.0385456      1040.3611      950.94729      1991.3083    
      8100   8100           293.67228      242.62851      14497.924      1.0339363      1056.6566      942.78563      1999.4423    
      8200   8200           296.0777       133.70438      14561.164      1.0294458      1082.0298      950.50783      2032.5376    
      8300   8300           304.54445      156.26466      14582.92       1.0279101      1087.0278      977.68892      2064.7168    
      8400   8400           296.3191       1836.8678      14540.833      1.0308852      1115.5552      951.28281      2066.838     
      8500   8500           294.27886      196.23722      14483.533      1.0349636      1070.6379      944.73296      2015.3709    
      8600   8600           290.96097     -2298.8133      14369.806      1.0431546      1040.6653      934.08143      1974.7467    
      8700   8700           297.4291      -177.11402      14208.52       1.0549959      1033.0164      954.84628      1987.8627    
      8800   8800           307.02906      1444.8462      14067.441      1.0655762      1038.0427      985.66534      2023.7081    
      8900   8900           305.97942     -1323.8706      13992.125      1.0713119      1037.9545      982.29565      2020.2502    
      9000   9000           300.55436      788.76411      14012.668      1.0697413      1032.2503      964.87942      1997.1297    
      9100   9100           299.78577     -582.84166      14099.191      1.0631766      1027.6695      962.41199      1990.0815    
      9200   9200           286.8583       223.29219      14171.572      1.0577464      1067.5683      920.91049      1988.4788    
      9300   9300           299.67657      1170.3769      14233.622      1.0531353      1034.9074      962.06142      1996.9688    
      9400   9400           297.68458      161.64845      14311.82       1.0473811      1066.8992      955.66646      2022.5656    
      9500   9500           299.13494     -3565.0266      14353.194      1.044362       1116.333       960.3226       2076.6556    
      9600   9600           309.48945     -1169.9582      14316.032      1.0470729      1096.913       993.56402      2090.4771    
      9700   9700           293.26614     -192.72467      14299.813      1.0482605      1079.1861      941.48179      2020.6679    
      9800   9800           290.68804     -1688.5914      14330.63       1.0460063      1064.1214      933.20525      1997.3267    
      9900   9900           284.09201     -1564.8956      14355.549      1.0441906      1087.1497      912.0298       1999.1795    
     10000   10000          294.02109      1633.4333      14390.841      1.0416299      1065.7137      943.90545      2009.6191    
     10100   10100          299.98059      351.42096      14423.407      1.039278       1081.5742      963.0374       2044.6116    
     10200   10200          299.60018     -3189.1042      14438.878      1.0381645      1078.537       961.81616      2040.3532    
     10300   10300          290.49436     -1977.5688      14401.734      1.040842       1043.6787      932.58346      1976.2621    
     10400   10400          292.5781       6.3244418      14254.048      1.0516262      1026.1174      939.27297      1965.3904    
     10447   10447          291.02528      537.11263      14187.609      1.0565508      1039.0119      934.2879       1973.2998    
Loop time of 72.4011 on 1 procs for 5000 steps with 1078 atoms

Performance: 5.967 ns/day, 4.022 hours/ns, 69.060 timesteps/s, 74.446 katom-step/s
90.6% CPU use with 1 MPI tasks x no OpenMP threads

MPI task timing breakdown:
Section |  min time  |  avg time  |  max time  |%varavg| %total
---------------------------------------------------------------
Pair    | 61.676     | 61.676     | 61.676     |   0.0 | 85.19
Bond    | 3.0921     | 3.0921     | 3.0921     |   0.0 |  4.27
Kspace  | 3.1212     | 3.1212     | 3.1212     |   0.0 |  4.31
Neigh   | 3.0137     | 3.0137     | 3.0137     |   0.0 |  4.16
Comm    | 0.34776    | 0.34776    | 0.34776    |   0.0 |  0.48
Output  | 0.002292   | 0.002292   | 0.002292   |   0.0 |  0.00
Modify  | 1.0192     | 1.0192     | 1.0192     |   0.0 |  1.41
Other   |            | 0.1284     |            |       |  0.18

Nlocal:           1078 ave        1078 max        1078 min
Histogram: 1 0 0 0 0 0 0 0 0 0
Nghost:           9638 ave        9638 max        9638 min
Histogram: 1 0 0 0 0 0 0 0 0 0
Neighs:         470498 ave      470498 max      470498 min
Histogram: 1 0 0 0 0 0 0 0 0 0

Total # of neighbors = 470498
Ave neighs/atom = 436.45455
Ave special neighs/atom = 6.9777365
Neighbor list builds = 121
Dangerous builds = 0
unfix           NPT_TRACE
unfix           NPT_EQ
write_restart   ${output_restart}
write_restart   ec_dmc_3_7_libob_0p8m_298K.npt.2.restart
System init for write_restart ...
PPPM initialization ...
  using 12-bit tables for long-range coulomb
  G vector (1/distance) = 0.20918381
  grid = 9 9 9
  stencil order = 5
  estimated absolute RMS force accuracy = 0.019537453
  estimated relative force accuracy = 5.8836459e-05
  using double precision FFTW3
  3d grid and FFT values/proc = 2744 729
Generated 21 of 21 mixed pair_coeff terms from arithmetic mixing rule
Total wall time: 0:01:12
