LAMMPS (22 Jul 2025 - Update 4)
# Restart continuation NPT chunk for composition tag=ec_dmc_3_7_libob_0p8m_298K
# Generated by scripts/curate_ff_md_data.py

read_restart    ${input_restart}
read_restart    ec_dmc_3_7_libob_0p8m_298K.npt.5.restart
Reading restart file ...
  restart file = 22 Jul 2025, LAMMPS = 22 Jul 2025
  restoring atom style full from restart
  orthogonal box = (-0.12860996 -0.13160996 -0.18260997) to (23.350822 23.347822 23.296822)
  1 by 2 by 2 MPI processor grid
  restoring pair style lj/cut/coul/long from restart
  restoring bond style harmonic from restart
  restoring angle style harmonic from restart
  restoring dihedral style opls from restart
  restoring improper style cvff from restart
  1078 atoms
  1021 bonds
  1628 angles
  1658 dihedrals
  336 impropers
Finding 1-2 1-3 1-4 neighbors ...
  special bond factors lj:    0        0        0.5     
  special bond factors coul:  0        0        0.5     
     4 = max # of 1-2 neighbors
     5 = max # of 1-3 neighbors
    12 = max # of 1-4 neighbors
    12 = max # of special neighbors
  special bonds CPU = 0.001 seconds
  read_restart CPU = 0.014 seconds
kspace_style    pppm 1.0e-4
neighbor        2.0 bin
neigh_modify    every 1 delay 0 check yes
timestep        1.0

thermo_style    custom step time temp press vol density pe ke etotal
thermo          100
variable        tracked_temperature_K equal temp
variable        tracked_density_g_cm3 equal density
variable        tracked_volume_A3 equal vol
variable        tracked_pressure_atm equal press
fix             NPT_EQ all npt temp 298.15 298.15 100.0 iso 1.0 1.0 1000.0
fix             NPT_TRACE all ave/time 100 1 100 v_tracked_temperature_K v_tracked_density_g_cm3 v_tracked_volume_A3 v_tracked_pressure_atm file ${thermo_trace}
fix             NPT_TRACE all ave/time 100 1 100 v_tracked_temperature_K v_tracked_density_g_cm3 v_tracked_volume_A3 v_tracked_pressure_atm file npt_thermo.6.dat
run             5000
PPPM initialization ...
  using 12-bit tables for long-range coulomb
  G vector (1/distance) = 0.21142562
  grid = 9 9 9
  stencil order = 5
  estimated absolute RMS force accuracy = 0.017857228
  estimated relative force accuracy = 5.3776512e-05
  using double precision FFTW3
  3d grid and FFT values/proc = 1400 225
Generated 21 of 21 mixed pair_coeff terms from arithmetic mixing rule
Neighbor list info ...
  update: every = 1 steps, delay = 0 steps, check = yes
  max neighbors/atom: 2000, page size: 100000
  master list distance cutoff = 14
  ghost atom cutoff = 14
  binsize = 7, bins = 4 4 4
  1 neighbor lists, perpetual/occasional/extra = 1 0 0
  (1) pair lj/cut/coul/long, perpetual
      attributes: half, newton on
      pair build: half/bin/newton
      stencil: half/bin/3d
      bin: standard
Per MPI rank memory allocation (min/avg/max) = 13.45 | 13.45 | 13.45 Mbytes
   Step          Time           Temp          Press          Volume        Density         PotEng         KinEng         TotEng    
     25447   25447          294.63858     -1788.4579      12943.829      1.1580754      938.2149       945.8878       1884.1027    
     25500   25500          298.35749      619.85204      12945.024      1.1579685      927.85237      957.82672      1885.6791    
     25600   25600          297.14832     -1452.4142      12962.084      1.1564444      944.67471      953.94488      1898.6196    
     25700   25700          303.69293      360.02057      12943.719      1.1580852      971.8241       974.95525      1946.7793    
     25800   25800          315.51206     -1861.1673      12906.865      1.161392       946.28355      1012.8986      1959.1822    
     25900   25900          294.0573       1303.5908      12860.376      1.1655903      952.46006      944.02167      1896.4817    
     26000   26000          292.47585      1523.2926      12857.357      1.165864       933.60228      938.94471      1872.547     
     26100   26100          290.44226      2314.9195      12874.793      1.1642851      945.10961      932.41622      1877.5258    
     26200   26200          307.45639     -25.377918      12863.944      1.1652671      918.49463      987.03723      1905.5319    
     26300   26300          304.6703       392.99253      12872.442      1.1644977      944.1468       978.09294      1922.2397    
     26400   26400          299.28221     -1008.9073      12935.495      1.1588215      942.93723      960.79539      1903.7326    
     26500   26500          284.17864     -322.71666      12951.829      1.1573601      942.03752      912.3079       1854.3454    
     26600   26600          292.57348      1111.7196      12955.048      1.1570725      916.1323       939.25814      1855.3904    
     26700   26700          307.93879      126.32656      12961.924      1.1564587      905.35837      988.58589      1893.9443    
     26800   26800          299.57297     -444.35613      12909.501      1.1611549      969.13691      961.7288       1930.8657    
     26900   26900          308.73398     -269.02536      12841.093      1.1673407      934.62595      991.13871      1925.7647    
     27000   27000          295.59702      189.05652      12793.074      1.1717223      895.42217      948.9647       1844.3869    
     27100   27100          287.00887      381.05913      12726.016      1.1778965      905.652        921.39389      1827.0459    
     27200   27200          298.50851      3171.2021      12689.31       1.1813037      890.5983       958.31156      1848.9099    
     27300   27300          300.23044     -831.05406      12772.738      1.1735878      932.65777      963.83952      1896.4973    
     27400   27400          302.49802     -542.58333      12966.714      1.1560315      942.95043      971.11921      1914.0696    
     27500   27500          303.84549      33.988843      13143.49       1.1404832      918.58597      975.44502      1894.031     
     27600   27600          297.57595     -220.81972      13230.542      1.1329792      917.88397      955.31772      1873.2017    
     27700   27700          299.93922      650.04203      13230.378      1.1329933      922.09677      962.90459      1885.0014    
     27800   27800          294.12405     -612.85587      13155.803      1.1394158      944.60025      944.23598      1888.8362    
     27900   27900          298.81687      2855.1238      13022.397      1.1510884      933.99022      959.30149      1893.2917    
     28000   28000          293.59664     -1411.3267      12883.095      1.1635348      964.45201      942.54282      1906.9948    
     28100   28100          300.73367      2738.4031      12763.503      1.174437       954.1153       965.45504      1919.5703    
     28200   28200          304.19537      880.81742      12761.794      1.1745943      908.45708      976.56826      1885.0253    
     28300   28300          299.51209      1993.0649      12849.03       1.1666196      872.48593      961.53339      1834.0193    
     28400   28400          293.92911     -1597.251       12922.643      1.159974       893.61687      943.61017      1837.227     
     28500   28500          303.34937      2942.8358      12903.53       1.1616921      907.16188      973.85232      1881.0142    
     28600   28600          303.5066      -1905.8538      12820.379      1.1692267      924.14245      974.35707      1898.4995    
     28700   28700          291.16841      332.90963      12760.62       1.1747023      950.3043       934.74739      1885.0517    
     28800   28800          295.50226     -1131.2481      12811.501      1.1700369      927.88689      948.66048      1876.5474    
     28900   28900          292.34267      674.45981      12887.511      1.1631362      915.41274      938.51715      1853.9299    
     29000   29000          278.01659      857.0527       12883.991      1.1634539      909.00592      892.52568      1801.5316    
     29100   29100          290.92567      335.78048      12883.203      1.1635251      892.64708      933.9681       1826.6152    
     29200   29200          295.42167     -3834.4961      12836.021      1.1678019      903.9651       948.40176      1852.3669    
     29300   29300          301.67751     -1516.0535      12725.046      1.1779863      899.47724      968.48511      1867.9623    
     29400   29400          296.9297      -2263.4398      12649.159      1.1850535      918.51914      953.24306      1871.7622    
     29500   29500          294.88234      101.35839      12625.403      1.1872832      894.24066      946.67033      1840.911     
     29600   29600          291.25523      983.54407      12664.289      1.1836377      889.2517       935.02611      1824.2778    
     29700   29700          291.40499      2412.6188      12789.591      1.1720414      925.67774      935.5069       1861.1846    
     29800   29800          304.15121     -2056.7901      12943.755      1.158082       938.42157      976.42651      1914.8481    
     29900   29900          306.35696     -176.63724      12999.652      1.1531024      926.3396       983.50768      1909.8473    
     30000   30000          293.55507     -772.77238      12947.14       1.1577793      922.54959      942.40935      1864.9589    
     30100   30100          286.86921      1660.5972      12850.453      1.1664903      927.04372      920.94554      1847.9893    
     30200   30200          301.54638      2757.613       12773.882      1.1734827      889.18146      968.06411      1857.2456    
     30300   30300          291.32674      1265.6342      12735.909      1.1769815      928.65945      935.25568      1863.9151    
     30400   30400          310.73064     -3140.8335      12778.592      1.1730502      921.48649      997.54866      1919.0351    
     30447   30447          300.30282     -374.13838      12779.253      1.1729895      968.26075      964.07187      1932.3326    
Loop time of 36.7655 on 4 procs for 5000 steps with 1078 atoms

Performance: 11.750 ns/day, 2.043 hours/ns, 135.997 timesteps/s, 146.605 katom-step/s
77.4% CPU use with 4 MPI tasks x no OpenMP threads

MPI task timing breakdown:
Section |  min time  |  avg time  |  max time  |%varavg| %total
---------------------------------------------------------------
Pair    | 20.224     | 21.125     | 22.176     |  15.6 | 57.46
Bond    | 0.90096    | 1.0137     | 1.1174     |   9.1 |  2.76
Kspace  | 9.5366     | 10.575     | 11.448     |  21.9 | 28.76
Neigh   | 0.96392    | 0.96692    | 0.97032    |   0.3 |  2.63
Comm    | 1.791      | 1.888      | 1.9798     |   5.2 |  5.14
Output  | 0.0073216  | 0.0083619  | 0.0090885  |   0.8 |  0.02
Modify  | 0.84223    | 0.87157    | 0.91269    |   3.0 |  2.37
Other   |            | 0.3173     |            |       |  0.86

Nlocal:          269.5 ave         275 max         263 min
Histogram: 1 0 0 0 0 1 1 0 0 1
Nghost:         6539.5 ave        6600 max        6475 min
Histogram: 1 0 0 0 1 0 1 0 0 1
Neighs:         130644 ave      138069 max      120766 min
Histogram: 1 0 0 1 0 0 0 0 0 2

Total # of neighbors = 522574
Ave neighs/atom = 484.76252
Ave special neighs/atom = 6.9777365
Neighbor list builds = 112
Dangerous builds = 0
unfix           NPT_TRACE
unfix           NPT_EQ
write_restart   ${output_restart}
write_restart   ec_dmc_3_7_libob_0p8m_298K.npt.6.restart
System init for write_restart ...
PPPM initialization ...
  using 12-bit tables for long-range coulomb
  G vector (1/distance) = 0.21173693
  grid = 9 9 9
  stencil order = 5
  estimated absolute RMS force accuracy = 0.017634066
  estimated relative force accuracy = 5.3104466e-05
  using double precision FFTW3
  3d grid and FFT values/proc = 1400 225
Generated 21 of 21 mixed pair_coeff terms from arithmetic mixing rule
Total wall time: 0:00:36
