LAMMPS (22 Jul 2025 - Update 4)
# Restart continuation NPT chunk for composition tag=ec_dmc_3_7_libob_0p8m_298K
# Generated by scripts/curate_ff_md_data.py

read_restart    ${input_restart}
read_restart    ec_dmc_3_7_libob_0p8m_298K.npt.3.restart
Reading restart file ...
  restart file = 22 Jul 2025, LAMMPS = 22 Jul 2025
  restoring atom style full from restart
  orthogonal box = (-0.30659515 -0.30959516 -0.36059516) to (23.528807 23.525807 23.474807)
  1 by 1 by 1 MPI processor grid
  restoring pair style lj/cut/coul/long from restart
  restoring bond style harmonic from restart
  restoring angle style harmonic from restart
  restoring dihedral style opls from restart
  restoring improper style cvff from restart
  1078 atoms
  1021 bonds
  1628 angles
  1658 dihedrals
  336 impropers
Finding 1-2 1-3 1-4 neighbors ...
  special bond factors lj:    0        0        0.5     
  special bond factors coul:  0        0        0.5     
     4 = max # of 1-2 neighbors
     5 = max # of 1-3 neighbors
    12 = max # of 1-4 neighbors
    12 = max # of special neighbors
  special bonds CPU = 0.002 seconds
  read_restart CPU = 0.007 seconds
kspace_style    pppm 1.0e-4
neighbor        2.0 bin
neigh_modify    every 1 delay 0 check yes
timestep        1.0

thermo_style    custom step time temp press vol density pe ke etotal
thermo          100
variable        tracked_temperature_K equal temp
variable        tracked_density_g_cm3 equal density
variable        tracked_volume_A3 equal vol
variable        tracked_pressure_atm equal press
fix             NPT_EQ all npt temp 298.15 298.15 100.0 iso 1.0 1.0 1000.0
fix             NPT_TRACE all ave/time 100 1 100 v_tracked_temperature_K v_tracked_density_g_cm3 v_tracked_volume_A3 v_tracked_pressure_atm file ${thermo_trace}
fix             NPT_TRACE all ave/time 100 1 100 v_tracked_temperature_K v_tracked_density_g_cm3 v_tracked_volume_A3 v_tracked_pressure_atm file npt_thermo.4.dat
run             5000
PPPM initialization ...
  using 12-bit tables for long-range coulomb
  G vector (1/distance) = 0.21032474
  grid = 9 9 9
  stencil order = 5
  estimated absolute RMS force accuracy = 0.018666064
  estimated relative force accuracy = 5.6212298e-05
  using double precision FFTW3
  3d grid and FFT values/proc = 2744 729
Generated 21 of 21 mixed pair_coeff terms from arithmetic mixing rule
Neighbor list info ...
  update: every = 1 steps, delay = 0 steps, check = yes
  max neighbors/atom: 2000, page size: 100000
  master list distance cutoff = 14
  ghost atom cutoff = 14
  binsize = 7, bins = 4 4 4
  1 neighbor lists, perpetual/occasional/extra = 1 0 0
  (1) pair lj/cut/coul/long, perpetual
      attributes: half, newton on
      pair build: half/bin/newton
      stencil: half/bin/3d
      bin: standard
Per MPI rank memory allocation (min/avg/max) = 15.35 | 15.35 | 15.35 Mbytes
   Step          Time           Temp          Press          Volume        Density         PotEng         KinEng         TotEng    
     15447   15447          311.15567     -1938.8702      13541.522      1.1069605      991.27684      998.91313      1990.19      
     15500   15500          306.48625     -1845.9799      13537.787      1.1072659      1003.0173      983.92275      1986.9401    
     15600   15600          297.90376     -1107.6519      13508.05       1.1097034      981.09112      956.37011      1937.4612    
     15700   15700          290.04678      1417.2346      13436.255      1.115633       977.91772      931.14659      1909.0643    
     15800   15800          303.19084      711.04863      13340.004      1.1236826      942.41091      973.34339      1915.7543    
     15900   15900          298.75274     -1819.9884      13276.041      1.1290964      965.58421      959.09562      1924.6798    
     16000   16000          302.04722      1126.7083      13220.075      1.1338763      938.76931      969.67198      1908.4413    
     16100   16100          300.3402       1329.8446      13199.516      1.1356424      891.96623      964.19188      1856.1581    
     16200   16200          295.86454      447.51208      13210.217      1.1347225      887.25886      949.82351      1837.0824    
     16300   16300          300.98404      599.83051      13216.096      1.1342177      906.18139      966.25883      1872.4402    
     16400   16400          297.65814      246.89872      13285.628      1.1282816      955.40512      955.58158      1910.9867    
     16500   16500          308.97614     -1147.9582      13313.997      1.1258775      911.08104      991.91611      1902.9971    
     16600   16600          301.04914     -232.09163      13301.287      1.1269533      930.57984      966.46783      1897.0477    
     16700   16700          292.08947      153.03757      13281.07       1.1286688      983.19279      937.70431      1920.8971    
     16800   16800          308.83263     -65.471792      13257.184      1.1307024      963.46578      991.45541      1954.9212    
     16900   16900          316.6103      -245.13551      13181.967      1.1371543      931.50074      1016.4243      1947.925     
     17000   17000          295.00708     -517.52023      13142.084      1.1406052      946.95031      947.07079      1894.0211    
     17100   17100          292.1272      -1294.2854      13136.548      1.1410859      930.70389      937.82542      1868.5293    
     17200   17200          292.82013     -2282.6394      13108.046      1.1435671      951.73012      940.04996      1891.7801    
     17300   17300          303.72734      1458.6027      13036.059      1.1498821      963.45869      975.06571      1938.5244    
     17400   17400          299.37378      1654.2668      12982.206      1.154652       969.55363      961.08935      1930.643     
     17500   17500          295.03022     -717.84505      13036.222      1.1498676      959.41871      947.14509      1906.5638    
     17600   17600          293.64114     -1916.9331      13131.238      1.1415473      951.04006      942.68568      1893.7257    
     17700   17700          303.75963      1336.0407      13207.274      1.1349753      917.68133      975.16938      1892.8507    
     17800   17800          303.72547     -106.69987      13268.839      1.1297092      919.38301      975.05972      1894.4427    
     17900   17900          299.49312      273.56893      13267.295      1.1298407      944.2795       961.47248      1905.752     
     18000   18000          310.42253     -743.08151      13193.753      1.1361385      939.69952      996.55951      1936.259     
     18100   18100          304.02194     -1728.5504      13102.256      1.1440724      961.63179      976.0115       1937.6433    
     18200   18200          294.02985     -1046.7517      12959.394      1.1566845      931.68084      943.93357      1875.6144    
     18300   18300          301.15933      2375.6389      12854.173      1.1661528      898.58938      966.82156      1865.4109    
     18400   18400          288.18185      2211.6955      12866.158      1.1650665      942.05188      925.15953      1867.2114    
     18500   18500          306.69376     -466.8059       12953.997      1.1571664      912.4574       984.58894      1897.0463    
     18600   18600          305.16799     -2716.9592      13005.038      1.1526248      968.82236      979.69071      1948.5131    
     18700   18700          297.8023      -132.43223      13054.491      1.1482584      984.23783      956.04437      1940.2822    
     18800   18800          299.02184     -1061.1113      13142.432      1.140575       955.25071      959.95952      1915.2102    
     18900   18900          276.8927       1771.0049      13243.887      1.1318376      984.06308      888.91761      1872.9807    
     19000   19000          283.71466     -444.15791      13296.981      1.1273183      904.82968      910.81838      1815.6481    
     19100   19100          293.98729      13.721093      13196.43       1.1359079      896.67438      943.79691      1840.4713    
     19200   19200          291.37399      2106.7223      13057.491      1.1479946      944.4994       935.40736      1879.9068    
     19300   19300          307.35419      578.72334      12986.202      1.1542966      921.83391      986.70913      1908.543     
     19400   19400          303.44113     -529.88488      13005.177      1.1526125      931.53885      974.14691      1905.6858    
     19500   19500          291.40386     -313.9622       13071.789      1.146739       936.36642      935.50327      1871.8697    
     19600   19600          285.34634      69.933888      13129.052      1.1417374      913.90246      916.0566       1829.9591    
     19700   19700          302.02538      217.19849      13153.452      1.1396195      897.28358      969.60188      1866.8855    
     19800   19800          299.48983      2020.3237      13122.397      1.1423164      943.12915      961.46192      1904.5911    
     19900   19900          298.66742      631.0868       13065.226      1.147315       944.31838      958.82169      1903.1401    
     20000   20000          293.0125       1592.9667      12957.702      1.1568355      952.83518      940.66752      1893.5027    
     20100   20100          292.44212      302.06105      12875.87       1.1641878      953.69909      938.83644      1892.5355    
     20200   20200          300.97957      1159.0463      12822.754      1.1690102      969.42034      966.24449      1935.6648    
     20300   20300          302.81549     -977.12685      12927.776      1.1595134      996.7187       972.13837      1968.8571    
     20400   20400          303.41612     -1064.8294      13083.836      1.1456831      953.03524      974.06662      1927.1019    
     20447   20447          293.15741      1209.8589      13162.847      1.138806       961.45852      941.13272      1902.5912    
Loop time of 84.2504 on 1 procs for 5000 steps with 1078 atoms

Performance: 5.128 ns/day, 4.681 hours/ns, 59.347 timesteps/s, 63.976 katom-step/s
85.9% CPU use with 1 MPI tasks x no OpenMP threads

MPI task timing breakdown:
Section |  min time  |  avg time  |  max time  |%varavg| %total
---------------------------------------------------------------
Pair    | 72.046     | 72.046     | 72.046     |   0.0 | 85.51
Bond    | 3.647      | 3.647      | 3.647      |   0.0 |  4.33
Kspace  | 3.5621     | 3.5621     | 3.5621     |   0.0 |  4.23
Neigh   | 3.0609     | 3.0609     | 3.0609     |   0.0 |  3.63
Comm    | 0.47493    | 0.47493    | 0.47493    |   0.0 |  0.56
Output  | 0.0031711  | 0.0031711  | 0.0031711  |   0.0 |  0.00
Modify  | 1.3068     | 1.3068     | 1.3068     |   0.0 |  1.55
Other   |            | 0.1498     |            |       |  0.18

Nlocal:           1078 ave        1078 max        1078 min
Histogram: 1 0 0 0 0 0 0 0 0 0
Nghost:          10309 ave       10309 max       10309 min
Histogram: 1 0 0 0 0 0 0 0 0 0
Neighs:         508414 ave      508414 max      508414 min
Histogram: 1 0 0 0 0 0 0 0 0 0

Total # of neighbors = 508414
Ave neighs/atom = 471.62709
Ave special neighs/atom = 6.9777365
Neighbor list builds = 111
Dangerous builds = 0
unfix           NPT_TRACE
unfix           NPT_EQ
write_restart   ${output_restart}
write_restart   ec_dmc_3_7_libob_0p8m_298K.npt.4.restart
System init for write_restart ...
PPPM initialization ...
  using 12-bit tables for long-range coulomb
  G vector (1/distance) = 0.2110169
  grid = 9 9 9
  stencil order = 5
  estimated absolute RMS force accuracy = 0.018153916
  estimated relative force accuracy = 5.4669978e-05
  using double precision FFTW3
  3d grid and FFT values/proc = 2744 729
Generated 21 of 21 mixed pair_coeff terms from arithmetic mixing rule
Total wall time: 0:01:24
