LAMMPS (22 Jul 2025 - Update 4)
# Restart continuation NPT chunk for composition tag=ec_dmc_3_7_libob_0p8m_298K
# Generated by scripts/curate_ff_md_data.py

read_restart    ${input_restart}
read_restart    ec_dmc_3_7_libob_0p8m_298K.npt.2.restart
Reading restart file ...
  restart file = 22 Jul 2025, LAMMPS = 22 Jul 2025
  restoring atom style full from restart
  orthogonal box = (-0.4931955 -0.4961955 -0.54719551) to (23.715408 23.712408 23.661408)
  1 by 1 by 1 MPI processor grid
  restoring pair style lj/cut/coul/long from restart
  restoring bond style harmonic from restart
  restoring angle style harmonic from restart
  restoring dihedral style opls from restart
  restoring improper style cvff from restart
  1078 atoms
  1021 bonds
  1628 angles
  1658 dihedrals
  336 impropers
Finding 1-2 1-3 1-4 neighbors ...
  special bond factors lj:    0        0        0.5     
  special bond factors coul:  0        0        0.5     
     4 = max # of 1-2 neighbors
     5 = max # of 1-3 neighbors
    12 = max # of 1-4 neighbors
    12 = max # of special neighbors
  special bonds CPU = 0.002 seconds
  read_restart CPU = 0.006 seconds
kspace_style    pppm 1.0e-4
neighbor        2.0 bin
neigh_modify    every 1 delay 0 check yes
timestep        1.0

thermo_style    custom step time temp press vol density pe ke etotal
thermo          100
variable        tracked_temperature_K equal temp
variable        tracked_density_g_cm3 equal density
variable        tracked_volume_A3 equal vol
variable        tracked_pressure_atm equal press
fix             NPT_EQ all npt temp 298.15 298.15 100.0 iso 1.0 1.0 1000.0
fix             NPT_TRACE all ave/time 100 1 100 v_tracked_temperature_K v_tracked_density_g_cm3 v_tracked_volume_A3 v_tracked_pressure_atm file ${thermo_trace}
fix             NPT_TRACE all ave/time 100 1 100 v_tracked_temperature_K v_tracked_density_g_cm3 v_tracked_volume_A3 v_tracked_pressure_atm file npt_thermo.3.dat
run             5000
PPPM initialization ...
  using 12-bit tables for long-range coulomb
  G vector (1/distance) = 0.20918381
  grid = 9 9 9
  stencil order = 5
  estimated absolute RMS force accuracy = 0.019537453
  estimated relative force accuracy = 5.8836459e-05
  using double precision FFTW3
  3d grid and FFT values/proc = 2744 729
Generated 21 of 21 mixed pair_coeff terms from arithmetic mixing rule
Neighbor list info ...
  update: every = 1 steps, delay = 0 steps, check = yes
  max neighbors/atom: 2000, page size: 100000
  master list distance cutoff = 14
  ghost atom cutoff = 14
  binsize = 7, bins = 4 4 4
  1 neighbor lists, perpetual/occasional/extra = 1 0 0
  (1) pair lj/cut/coul/long, perpetual
      attributes: half, newton on
      pair build: half/bin/newton
      stencil: half/bin/3d
      bin: standard
Per MPI rank memory allocation (min/avg/max) = 14.95 | 14.95 | 14.95 Mbytes
   Step          Time           Temp          Press          Volume        Density         PotEng         KinEng         TotEng    
     10447   10447          291.02528      537.14267      14187.609      1.0565508      1039.0127      934.2879       1973.3006    
     10500   10500          292.57411      952.65549      14207.553      1.0550677      1034.2503      939.26016      1973.5104    
     10600   10600          302.66469     -1140.9533      14311.836      1.0473799      1026.2964      971.65426      1997.9506    
     10700   10700          309.30684     -2088.8103      14342.106      1.0451693      1050.6543      992.97778      2043.6321    
     10800   10800          307.95687      407.33415      14243.962      1.0523708      1068.0364      988.64392      2056.6803    
     10900   10900          308.43902     -1105.8174      14146.298      1.0596362      1010.8909      990.19178      2001.0827    
     11000   11000          299.30155     -422.24957      14040.714      1.0676045      1003.3408      960.85747      1964.1983    
     11100   11100          287.69433      545.18083      13896.515      1.0786827      1040.6471      923.59444      1964.2415    
     11200   11200          294.35371     -1719.0862      13763.818      1.0890822      1034.589       944.97327      1979.5623    
     11300   11300          302.18164      315.73483      13684.139      1.0954236      1026.6832      970.10351      1996.7867    
     11400   11400          303.02707      2450.8423      13632.971      1.0995351      1006.6248      972.81762      1979.4424    
     11500   11500          295.66716      703.64235      13658.346      1.0974923      981.18865      949.18988      1930.3785    
     11600   11600          287.87392     -239.54281      13721.224      1.092463       996.5557       924.17097      1920.7267    
     11700   11700          298.51375      1647.353       13772.084      1.0884286      997.46781      958.32838      1955.7962    
     11800   11800          304.3824       809.08829      13839.306      1.0831417      1031.6242      977.16869      2008.7928    
     11900   11900          303.00652     -1954.8881      13914.669      1.0772754      1038.2032      972.75164      2010.9548    
     12000   12000          295.33639     -1174.8129      13930.225      1.0760723      1046.8251      948.12799      1994.9531    
     12100   12100          300.27559      2632.6831      13929.909      1.0760968      1009.6893      963.98446      1973.6738    
     12200   12200          291.91402     -805.67123      14024.714      1.0688225      1017.4078      937.14105      1954.5489    
     12300   12300          292.29517      873.85487      14094.223      1.0635514      1013.0902      938.36466      1951.4549    
     12400   12400          300.79758      1262.9817      14146.414      1.0596276      1004.4178      965.66024      1970.0781    
     12500   12500          304.08878     -189.47271      14221.66       1.0540211      1038.7135      976.22606      2014.9396    
     12600   12600          307.5549       1193.3795      14287.922      1.0491329      1046.7374      987.35347      2034.0908    
     12700   12700          305.56252      807.23478      14251.905      1.0517843      1019.4492      980.95726      2000.4064    
     12800   12800          285.96917      2353.1292      14147.736      1.0595285      1039.5158      918.05611      1957.5719    
     12900   12900          296.90894     -778.01082      13990.292      1.0714523      998.84294      953.1764       1952.0193    
     13000   13000          298.67989      2700.8863      13842.97       1.082855       1004.4817      958.86172      1963.3434    
     13100   13100          299.99701      770.52035      13769.115      1.0886632      1000.2044      963.09011      1963.2945    
     13200   13200          293.6388       626.16924      13724.639      1.0921912      1009.6243      942.67817      1952.3025    
     13300   13300          286.73099     -1004.5159      13670.526      1.0965145      986.65173      920.50178      1907.1535    
     13400   13400          278.43414     -615.41842      13633.478      1.0994942      968.9379       893.86614      1862.804     
     13500   13500          289.27539     -2219.1842      13571.048      1.1045521      960.25904      928.67017      1888.9292    
     13600   13600          299.07373      559.32206      13506.305      1.1098469      962.60308      960.12608      1922.7292    
     13700   13700          310.17221      1602.9022      13475.707      1.1123668      947.42427      995.7559       1943.1802    
     13800   13800          300.55831      840.45987      13483.39       1.111733       983.3015       964.89209      1948.1936    
     13900   13900          300.49654     -1322.4152      13491.672      1.1110505      979.11102      964.69378      1943.8048    
     14000   14000          293.26328     -1482.1145      13429.084      1.1162288      974.53364      941.47263      1916.0063    
     14100   14100          286.5796      -617.83288      13397.258      1.1188804      990.3647       920.01578      1910.3805    
     14200   14200          307.45881     -1751.6031      13392.109      1.1193106      947.35179      987.045        1934.3968    
     14300   14300          301.99563     -1172.2642      13372.883      1.1209199      983.25793      969.50638      1952.7643    
     14400   14400          306.57159     -714.31841      13370.975      1.1210797      948.24547      984.19671      1932.4422    
     14500   14500          297.66808      456.49346      13382.598      1.1201061      919.58837      955.61347      1875.2018    
     14600   14600          285.77794      1086.0713      13345.554      1.1232152      940.42081      917.44218      1857.863     
     14700   14700          294.38783      208.10032      13329.942      1.1245308      940.3782       945.0828       1885.461     
     14800   14800          301.59248     -1298.9287      13318.781      1.1254731      952.36215      968.21211      1920.5743    
     14900   14900          297.27226     -37.375808      13302.083      1.1268859      972.00773      954.34277      1926.3505    
     15000   15000          313.01049     -568.34006      13322.658      1.1251456      918.37115      1004.8677      1923.2389    
     15100   15100          297.67883      1575.6383      13387.778      1.1196727      959.83584      955.64801      1915.4839    
     15200   15200          306.49687     -972.83219      13465.759      1.1131886      951.88057      983.95683      1935.8374    
     15300   15300          304.09142     -1902.968       13523.966      1.1083975      991.71276      976.23453      1967.9473    
     15400   15400          308.42878     -47.249422      13536.506      1.1073706      1000.9914      990.15893      1991.1503    
     15447   15447          311.15567     -1939.2333      13541.522      1.1069605      991.26313      998.91313      1990.1763    
Loop time of 79.6737 on 1 procs for 5000 steps with 1078 atoms

Performance: 5.422 ns/day, 4.426 hours/ns, 62.756 timesteps/s, 67.651 katom-step/s
87.0% CPU use with 1 MPI tasks x no OpenMP threads

MPI task timing breakdown:
Section |  min time  |  avg time  |  max time  |%varavg| %total
---------------------------------------------------------------
Pair    | 68.075     | 68.075     | 68.075     |   0.0 | 85.44
Bond    | 3.4197     | 3.4197     | 3.4197     |   0.0 |  4.29
Kspace  | 3.2192     | 3.2192     | 3.2192     |   0.0 |  4.04
Neigh   | 3.3125     | 3.3125     | 3.3125     |   0.0 |  4.16
Comm    | 0.41508    | 0.41508    | 0.41508    |   0.0 |  0.52
Output  | 0.003323   | 0.003323   | 0.003323   |   0.0 |  0.00
Modify  | 1.093      | 1.093      | 1.093      |   0.0 |  1.37
Other   |            | 0.1356     |            |       |  0.17

Nlocal:           1078 ave        1078 max        1078 min
Histogram: 1 0 0 0 0 0 0 0 0 0
Nghost:          10021 ave       10021 max       10021 min
Histogram: 1 0 0 0 0 0 0 0 0 0
Neighs:         492569 ave      492569 max      492569 min
Histogram: 1 0 0 0 0 0 0 0 0 0

Total # of neighbors = 492569
Ave neighs/atom = 456.92857
Ave special neighs/atom = 6.9777365
Neighbor list builds = 123
Dangerous builds = 0
unfix           NPT_TRACE
unfix           NPT_EQ
write_restart   ${output_restart}
write_restart   ec_dmc_3_7_libob_0p8m_298K.npt.3.restart
System init for write_restart ...
PPPM initialization ...
  using 12-bit tables for long-range coulomb
  G vector (1/distance) = 0.21032474
  grid = 9 9 9
  stencil order = 5
  estimated absolute RMS force accuracy = 0.018666064
  estimated relative force accuracy = 5.6212298e-05
  using double precision FFTW3
  3d grid and FFT values/proc = 2744 729
Generated 21 of 21 mixed pair_coeff terms from arithmetic mixing rule
Total wall time: 0:01:19
