LAMMPS data file via write_data, version 22 Jul 2025, timestep = 15844, units = real

1014 atoms
8 atom types
944 bonds
6 bond types
1504 angles
7 angle types
1452 dihedrals
12 dihedral types
258 impropers
1 improper types

-0.24151924593762075 22.836810856937824 xlo xhi
-0.209519236974387 22.868810866944724 ylo yhi
-0.25051924197790143 22.827810866977657 zlo zhi

Masses

1 12.01078
2 15.99943
3 12.01078
4 15.99943
5 1.007947
6 6.9412
7 18.998403
8 10.8117

Pair Coeffs # lj/cut/coul/long

1 0.108841 3.37953
2 0.168465 3.02511
3 0.0868793 3.48065
4 0.210206 3.03981
5 0.0164092 2.58323
6 0.0279896 1.82634
7 0.061 3.11993
8 0.095 3.42105

Bond Coeffs # harmonic

1 215.301 1.53363
2 227.037 1.43632
3 357.819 1.09421
4 291.342 1.35606
5 762.039 1.225
6 386.59 1.394

Angle Coeffs # harmonic

1 91.5186 108.173
2 66.7563 109.938
3 63.31 123.606
4 36.7766 108.354
5 119.896 112.874
6 84.5477 120.105
7 80.005 109.5

Dihedral Coeffs # opls

1 1 0.111303 3 0
2 1 0.438911 1 180
3 1 1.76361 2 180
4 1 -0.0153377 3 0
5 1 0.41915 2 0
6 1 0.131135 3 0
7 1 0.436547 1 0
8 1 0.263111 3 0
9 1 0.227995 3 0
10 1 0.302195 2 180
11 1 1.35005 1 180
12 1 3.48187 2 180

Improper Coeffs # cvff

1 4.30523 -1 2

Atoms # full

81 9 1 0.0955 6.062374991318043 2.485591886791869 2.1513542950141296 0 0 0
82 9 1 0.0955 5.433419404802801 1.1070067901204161 2.4157122768225463 0 0 0
83 9 2 -0.4048 5.165132359373833 1.0144863345236936 3.8243443531579224 0 0 0
84 9 3 0.8478 5.619836442469168 2.1956922666708043 4.330646990550335 0 0 0
85 9 4 -0.5484 5.51932969073046 2.415776259292415 5.536679662735496 0 0 0
86 9 2 -0.4048 6.1507648400531405 3.130974887410355 3.3921861511951366 0 0 0
88 9 5 0.0798 7.081018389495897 2.3344741703126823 1.8760475180393414 0 0 0
89 9 5 0.0798 4.46662416243519 1.008632271712347 1.9009506398115072 0 0 0
90 9 5 0.0798 5.916077031228851 0.20295662657049102 1.993716342028911 0 0 0
672 61 5 0.0582835 3.199401663801482 4.373615137620202 6.734912506772894 0 0 0
988 95 7 -0.5 1.4072098533885515 4.065432830538908 3.7045167426591603 0 0 0
720 65 5 0.0582835 4.661176461918951 7.174306652537356 5.360592944219924 0 0 0
985 95 7 -0.5 2.3239523198044614 5.829864363760654 2.5781723866482134 0 0 0
986 95 8 1 2.4174706054300126 5.074334763700115 3.755814661604666 0 0 0
973 87 6 1 1.0327907461864962 7.003003775335956 5.984862114907704 0 0 0
718 65 5 0.0582835 3.8170754937369624 7.563180994569692 3.8089255980160885 0 0 0
989 95 7 -0.5 3.6044907003202122 4.4611911509583635 4.0067459524393065 0 0 0
873 78 5 0.0582835 2.346217561439162 1.8664281191842558 5.46027367974448 0 1 0
865 78 1 0.1266165 1.5055694431245026 1.9590333900303953 6.041089316864368 0 1 0
871 78 5 0.0582835 0.6809866981666498 1.5321670833858532 5.538593856980843 0 1 0
541 51 1 0.1266165 0.1612211183890221 7.541266033311233 1.1392719883533866 0 0 1
424 41 4 -0.5800835 3.3921273429146437 1.6952471623708365 -0.17258702919125568 0 0 0
432 41 5 0.0582835 1.5932426334706569 3.0042741705348472 1.2772851983126436 0 0 0
549 51 5 0.0582835 -0.05189075281456823 6.450835920446896 1.031777095637978 0 0 1
987 95 7 -0.5 2.1142480495421077 5.866370633274341 4.8713543607408605 0 0 0
714 65 1 0.1266165 4.589088505141965 7.902517680888675 4.539665759808214 0 0 0
719 65 5 0.0582835 5.465000395990001 8.000666045770297 3.888239960338751 0 0 0
1007 99 7 -0.5 22.122473343593562 7.4791331807224735 6.931032640336598 -1 0 0
87 9 5 0.0798 5.456209241015046 3.0636738546223055 1.4620826242109601 0 0 0
548 51 5 0.0582835 -0.1311851590300561 7.880730164487463 2.1430318087495785 0 0 1
872 78 5 0.0582835 1.2382441951486938 3.037143660360758 6.006257577468882 0 1 0
547 51 5 0.0582835 1.2683948148258963 7.500007818700821 1.0221140863213396 0 0 1
866 78 2 -0.3889835 1.6582972594403846 1.438326599558895 7.440601588769059 0 1 0
664 61 4 -0.5800835 1.0307473764047141 5.637619285528773 7.476438193523158 0 0 0
731 66 5 0.0582835 7.635830373760635 5.034581952678798 2.267380093211072 0 0 0
969 86 5 0.0582835 7.024973975736328 6.016342956917483 6.182423543683856 0 0 0
961 86 1 0.1266165 7.56906906580972 5.2112483460142105 5.837295117431882 0 0 0
725 66 2 -0.3889835 9.565192838408576 4.447107527093274 2.746539069976798 0 0 0
723 66 3 0.7551165 10.928215486831299 4.544357242112593 2.556373397324196 0 0 0
65 7 4 -0.5484 13.03063840708141 7.645517165834042 1.7963332489710848 0 0 0
967 86 5 0.0582835 7.507201938176947 4.9714389481046934 4.7764874234672625 0 0 0
724 66 4 -0.5800835 11.479818457992728 5.14263807911705 1.6558773115629386 0 0 0
962 86 2 -0.3889835 8.955842971154008 5.204940941574104 6.244747957766224 0 0 0
963 86 3 0.7551165 9.783947263282458 6.13415664326607 5.678195601392728 0 0 0
722 66 2 -0.3889835 11.746173528433182 3.863856240428272 3.4833746887383508 0 0 0
721 66 1 0.1266165 13.174906334226325 3.966353249700811 3.2554801657753116 0 0 0
729 66 5 0.0582835 13.395638225546945 3.7504903435711547 2.219206184206642 0 0 0
964 86 4 -0.5800835 9.330426981482885 6.953197222189837 4.858544807261371 0 0 0
727 66 5 0.0582835 13.483331569640438 5.05619946716654 3.454167389754623 0 0 0
728 66 5 0.0582835 13.729617417126722 3.260595180417207 3.880563282191109 0 0 0
726 66 1 0.1266165 8.68527260464108 5.104549193082895 1.8326373119409634 0 0 0
965 86 2 -0.3889835 11.088293850282572 6.109459861426669 6.076711227249241 0 0 0
972 86 5 0.0582835 11.795635700903722 7.05679102869353 4.3465520620694225 0 0 0
966 86 1 0.1266165 11.900159424255314 7.154267581375708 5.431506157980915 0 0 0
971 86 5 0.0582835 12.931624530331668 6.988425177374499 5.787126071127374 0 0 0
970 86 5 0.0582835 11.528486986654423 8.110041868779284 5.739182575511977 0 0 0
732 66 5 0.0582835 8.971104455854924 6.13690839695088 1.7198284860703283 0 0 0
968 86 5 0.0582835 7.081803318101454 4.403417662841251 6.248686470979575 0 0 0
837 75 5 0.0582835 13.940628116770437 1.6519935451233083 5.60315666087613 0 1 0
977 91 6 1 12.396087413347628 6.296638204083266 0.3264885955104463 0 0 1
730 66 5 0.0582835 8.731743010406465 4.558253778044999 0.887531215472851 0 0 0
808 73 4 -0.5800835 14.840266994193023 1.1209535764967538 2.0585721143914513 0 0 0
832 75 4 -0.5800835 15.24229770177219 -0.11668133568735027 6.799121999511332 0 1 0
917 82 2 -0.3889835 10.099793015150087 0.8128271447450013 2.0596017645396802 0 0 0
836 75 5 0.0582835 12.485322527541898 2.274726272157862 6.43058795227818 0 1 0
829 75 1 0.1266165 13.305863002271664 1.4741477107611705 6.461264053048375 0 1 0
440 42 5 0.0582835 9.872988333036554 1.9354783956681456 5.803577077049659 0 0 0
922 82 5 0.0582835 9.45230289031671 1.6708197496557196 0.26617044667165934 0 0 0
918 82 1 0.1266165 10.283962670909654 1.2189175113353419 0.7100209225516992 0 0 0
415 40 5 0.0582835 21.82277005969685 0.6082580251392686 3.0657142368168504 -1 0 0
811 73 5 0.0582835 17.213836356238094 2.403446044007389 2.494102548005894 0 0 0
807 73 3 0.7551165 15.640315833269561 0.18330405387569582 2.119044994394822 0 0 0
813 73 5 0.0582835 17.015265558318074 2.1566549973632574 0.7508737606040647 0 0 0
805 73 1 0.1266165 17.49399014778015 1.6937987808297865 1.6949540901138902 0 0 0
416 40 5 0.0582835 22.162820699522673 2.4118574317945862 3.078231065079097 -1 0 0
417 40 5 0.0582835 20.632065301311577 1.9072713448081746 2.5376842590258777 -1 0 0
806 73 2 -0.3889835 17.04489475046967 0.33776291664535296 1.9537363872197724 0 0 0
812 73 5 0.0582835 18.6028295891286 1.718758147436358 1.5677754843333789 0 0 0
409 40 1 0.1266165 21.689712684740236 1.5942598501629357 2.604062061441019 -1 0 0
410 40 2 -0.3889835 22.38706252842536 1.5869627453493131 1.3513067282202278 -1 0 0
411 40 3 0.7551165 21.935583280869455 0.6580653102853805 0.41291600170701914 -1 0 0
78 8 5 0.0798 17.16524303951516 5.719963267987373 2.535969373044715 0 0 0
71 8 1 0.0955 16.759019675670313 6.577193506141412 2.8983242089521526 0 0 0
77 8 5 0.0798 15.880388869065825 6.21837975247054 3.42865734032392 0 0 0
412 40 4 -0.5800835 21.04248323394633 -0.15774991494589044 0.5184307107416855 -1 0 0
80 8 5 0.0798 18.683726901313783 7.025418811187312 3.8756935901014975 0 0 0
910 81 5 0.0582835 16.491912359079166 2.0076485148753864 5.542107889108842 0 0 0
904 81 4 -0.5800835 18.863379630594125 2.6842685056934843 4.450465668853862 0 0 0
909 81 5 0.0582835 21.417166180679548 2.7627148873238 5.3973175108401055 0 0 0
906 81 1 0.1266165 16.473609735740105 3.0588904539553416 5.485179117316067 0 0 0
911 81 5 0.0582835 15.582161551842043 3.335009871734964 6.004630926857844 0 0 0
1003 98 7 -0.5 15.784201383832677 6.068423873990446 6.7462434930659105 0 0 0
905 81 2 -0.3889835 17.668777999647467 3.742146728160621 6.033073503093411 0 0 0
902 81 2 -0.3889835 20.005840985378033 4.098107243889914 5.859470826877321 0 0 0
908 81 5 0.0582835 22.02083951240035 4.53232832120524 5.498079915434692 0 0 0
912 81 5 0.0582835 16.269536371193336 3.2539660527772627 4.4134694071450555 0 0 0
903 81 3 0.7551165 18.86085936965281 3.478812744020161 5.406166587693151 0 0 0
901 81 1 0.1266165 21.218896390889583 3.7984388756672534 5.190313339195809 0 0 0
907 81 5 0.0582835 21.024324129447916 4.08557032889667 4.059593263475742 0 0 0
573 53 5 0.0582835 15.94890788095054 4.741535793357127 -0.23534161198640646 0 0 1
72 8 1 0.0955 17.675354147717552 7.3962238996135135 3.8254950064000024 0 0 0
79 8 5 0.0798 17.292252443781283 7.405806652984091 4.860421790464438 0 0 0
558 52 1 0.1266165 21.31195058665735 1.3877350516899443 7.823327502624412 0 0 0
564 52 5 0.0582835 21.59624471862769 2.446678935815494 7.689690939108489 0 0 0
563 52 5 0.0582835 20.86282264414437 1.125053235254086 6.866033176276582 0 0 0
160 16 5 0.0798 18.948729504834294 6.629549130851853 8.486759721407815 0 0 0
712 65 4 -0.5800835 2.3951442648485126 8.502094678377395 6.038925874386668 0 0 0
711 65 3 0.7551165 3.238232094374864 9.372016217487527 5.827120205873798 0 0 0
713 65 2 -0.3889835 4.3616329874694735 9.191651188973438 5.108640519780781 0 0 0
147 15 5 0.0798 22.227312281606245 10.496319915873604 1.6616811458647796 -1 0 0
402 39 1 0.1266165 2.600814818429741 11.132417133604537 2.808586130317043 0 0 0
406 39 5 0.0582835 2.214854335003216 10.097439504754211 2.7377469017191873 0 0 0
148 15 5 0.0798 22.47039019614196 9.684517112944159 3.14318943777869 -1 0 0
710 65 2 -0.3889835 3.0324425379082545 10.604835640566334 6.347209231175858 0 0 0
717 65 5 0.0582835 0.8769464393304454 10.687767199989027 6.51448551388194 0 0 0
542 51 2 -0.3889835 22.568122008842515 8.299212399407512 0.10256092033432945 -1 0 1
786 71 1 0.1266165 4.814127477549825 8.31605336967613 0.6042573402742247 0 0 1
785 71 2 -0.3889835 3.4610363651814278 8.4090460602647 -0.07906279369944894 0 0 1
401 39 2 -0.3889835 4.053910415150349 11.210957026985069 2.7534267201848732 0 0 0
791 71 5 0.0582835 4.9768444858012755 7.351514030507819 1.0348065886800102 0 0 1
792 71 5 0.0582835 5.639342532314755 8.600244584031858 -0.1328538330271103 0 0 1
790 71 5 0.0582835 4.870835392437666 9.051511397348051 1.4279454011394541 0 0 1
864 77 5 0.0582835 6.051193750700554 7.572114890889034 7.493739404879939 0 0 0
1009 99 7 -0.5 22.531114790650644 7.567242731223198 4.840538526580166 -1 0 0
512 48 5 0.0582835 8.034502727181108 8.181543357586852 1.7928734888425324 0 0 0
195 20 4 -0.5484 10.701084126920788 7.578501956020896 -0.19501239218399796 0 0 1
513 48 5 0.0582835 9.705862347558588 8.670980121904382 2.089445953460708 0 0 0
511 48 5 0.0582835 8.347125329944054 9.217358144554119 3.173442213394283 0 0 0
505 48 1 0.1266165 8.660620412566542 8.990200610790001 2.159807576480327 0 0 0
66 7 2 -0.4048 13.450969203365974 9.530165125569706 3.1570571037981225 0 0 0
506 48 2 -0.3889835 8.458673811638896 10.2094591505524 1.348954329884244 0 0 0
64 7 3 0.8478 13.071982580946244 8.864198566411002 1.9875077858182477 0 0 0
63 7 2 -0.4048 12.756891741562931 9.79798917502189 1.0399493642807862 0 0 0
62 7 1 0.0955 12.936065273156798 11.139598815685291 1.573155171513975 0 0 0
61 7 1 0.0955 13.394222096524599 10.93486159218821 3.001924579482795 0 0 0
508 48 4 -0.5800835 9.970976918425388 11.310911864803884 2.5880497771644695 0 0 0
67 7 5 0.0798 12.675217274378456 11.32680365875665 3.757398822393693 0 0 0
1000 98 7 -0.5 14.373495266141015 7.628311396705319 7.705563475339918 0 0 0
76 8 2 -0.4048 16.314131287156254 7.358054194441594 1.89122090278453 0 0 0
141 15 1 0.0955 21.952063670367362 10.587179419636179 2.6896735505228344 -1 0 0
1005 99 7 -0.5 21.910365227927677 9.384062153655039 5.866329713644983 -1 0 0
1006 99 8 1 21.683910668584193 8.025407399288497 5.770891879944814 -1 0 0
74 8 3 0.8478 16.830265635044235 8.570158573586522 2.0464419090965276 0 0 0
73 8 2 -0.4048 17.650723089906247 8.68632851060361 3.1527857116459987 0 0 0
150 15 5 0.0798 20.285496905495158 9.498722324590751 3.333195124132273 -1 0 0
142 15 1 0.0955 20.523386007871036 10.553467709298477 3.0880178076959384 -1 0 0
149 15 5 0.0798 19.825757103251597 10.799698410350127 2.2917816089276695 -1 0 0
75 8 4 -0.5484 16.512827263041373 9.445629216093433 1.2144577265776009 0 0 0
491 46 5 0.0582835 17.51629395309936 9.883773778649646 6.0765927958256425 0 0 0
486 46 1 0.1266165 17.946142162980514 10.90428855105194 6.009520969741488 0 0 0
490 46 5 0.0582835 18.96496021704916 10.64254454074695 6.036587462965311 0 0 0
1008 99 7 -0.5 20.331308934078535 7.657178532310017 5.622628700957164 -1 0 0
158 16 5 0.0798 20.045653563783063 8.57495873085321 7.7029320731145745 0 0 0
40 4 5 0.0798 2.421224144600761 0.6900388900152185 2.018738595690443 0 0 0
915 82 3 0.7551165 9.088319568130387 -0.056023863414702335 2.3007515497972157 0 0 0
835 75 5 0.0582835 12.796565397348044 0.5539417732293033 6.310596683390318 0 1 0
439 42 5 0.0582835 8.167840301808335 1.2451981007271564 5.63646695644834 0 0 0
50 5 5 0.0798 19.56540484160885 -0.03255209720385335 3.5929704868897288 0 0 0
867 78 3 0.7551165 2.1558965134430323 0.2043591144271421 7.560223643571094 0 1 0
666 61 1 0.1266165 3.493197343568896 4.595317279506662 7.738186128854799 0 0 0
670 61 5 0.0582835 3.683891470681903 5.678918869226192 7.716949574940108 0 0 0
671 61 5 0.0582835 4.454078358542619 4.127050983507872 8.069295807907787 0 0 0
665 61 2 -0.3889835 2.377720707139412 4.218477915309446 8.575103928837677 0 0 0
663 61 3 0.7551165 1.2179004806410474 4.788749975968474 8.364630267284625 0 0 0
435 42 3 0.7551165 7.411072678645176 1.7863363115379303 7.958920874883715 0 0 0
437 42 2 -0.3889835 6.862128758083927 2.5769396153107977 8.971318768363208 0 0 0
438 42 1 0.1266165 5.693236232371679 2.0295207896411225 9.594070111046227 0 0 0
443 42 5 0.0582835 5.362909817611372 2.6854302162382577 10.464646209230235 0 0 0
444 42 5 0.0582835 4.889844745167293 1.954348779500934 8.806892688421895 0 0 0
662 61 2 -0.3889835 0.298667901038848 4.312044269321524 9.22667796126229 0 0 0
120 12 5 0.0798 1.5454777681958765 2.619017152907623 10.77393024847624 1 0 0
442 42 5 0.0582835 5.8796686782467305 1.0197994212264316 10.007039490790783 0 0 0
225 23 4 -0.5484 3.977442896588924 5.557029836248547 10.926351942197417 0 0 0
436 42 4 -0.5800835 6.86681834863732 0.6872045620714712 7.660149150275067 0 0 0
118 12 5 0.0798 0.7868355042617003 0.48429309398955867 10.597837559406043 1 0 0
223 23 2 -0.4048 1.8421857230143481 6.231580531858982 11.201569588406166 0 0 0
830 75 2 -0.3889835 14.082715350137782 1.5256721197387122 7.679854320181624 0 1 0
433 42 1 0.1266165 9.031997513444303 1.4270907122990508 6.314506567871267 0 0 0
380 37 5 0.0582835 10.289994839889157 3.539044366306714 8.477363729717547 0 0 0
861 77 5 0.0582835 10.810674776760953 7.6227397314936844 9.99238839328049 0 0 0
831 75 3 0.7551165 15.075143163047114 0.6274027406218358 7.740886720287179 0 1 0
434 42 2 -0.3889835 8.499908368115555 2.266668012202652 7.362799921854438 0 0 0
108 11 5 0.0798 6.483435522342904 5.446164916671308 11.139384891560608 0 0 0
102 11 1 0.0955 8.386094763674395 4.389090253002251 11.052140001575784 0 0 0
379 37 5 0.0582835 12.13472507779673 3.432186641953644 8.231051654829674 0 0 0
974 88 6 1 14.734364744162677 5.070933468492039 10.092018190183845 0 0 0
373 37 1 0.1266165 11.264203901546045 3.6505835108595504 8.96056708422159 0 0 0
375 37 3 0.7551165 12.606125387377048 2.842363806794843 10.707435999110666 0 0 0
376 37 4 -0.5800835 13.474951689615887 3.6079176648212443 10.282780534464376 0 0 0
381 37 5 0.0582835 11.366446786449874 4.6985707628221745 9.311335540111134 0 0 0
374 37 2 -0.3889835 11.404173767817065 2.761120428616159 10.106380248107017 0 0 0
931 83 5 0.0582835 8.953355839550596 0.8940715620889688 11.150642976542033 0 1 0
1002 98 7 -0.5 13.885351730955101 5.480515856017446 7.93021940492134 0 0 0
110 11 5 0.0798 8.231487878526249 4.394724580183083 9.978227927635713 0 0 0
109 11 5 0.0798 8.522620642481241 3.315694166539847 11.252098502102674 0 0 0
833 75 2 -0.3889835 15.810431946404673 0.6805240921954042 8.916412863031297 0 1 0
1001 98 8 1 14.927752236428098 6.344041696700863 7.808687721324631 0 0 0
838 75 5 0.0582835 17.590010978435508 -0.13831509835467876 8.227154896507578 0 1 0
839 75 5 0.0582835 17.480176374411325 -0.13296614508179871 10.046202949211505 0 1 0
669 61 5 0.0582835 22.052427565446944 5.922199636374445 9.33565473940623 -1 0 0
661 61 1 0.1266165 21.98830724607445 4.808160266335515 9.143200572133493 -1 0 0
844 76 4 -0.5800835 16.18078691476596 3.9833327105917284 10.888375789455779 0 0 0
667 61 5 0.0582835 21.532522130944976 4.750023961432131 8.14517778678362 -1 0 0
668 61 5 0.0582835 21.380542729286383 4.396401698413393 9.875471646642774 -1 0 0
556 52 4 -0.5800835 21.705379451447055 1.9248170603319643 10.515417243340856 0 0 0
843 76 3 0.7551165 17.383334773577914 4.048780271600403 11.145477610315163 0 0 0
847 76 5 0.0582835 17.40142363663062 4.600873324700742 8.576644716956576 0 0 0
841 76 1 0.1266165 17.996590727429084 3.83082036518691 8.95543824668822 0 0 0
849 76 5 0.0582835 17.507594491539844 2.915714452288524 8.82046251630211 0 0 0
842 76 2 -0.3889835 18.341999894151407 3.999074535559636 10.282502541678978 0 0 0
848 76 5 0.0582835 18.88347915068353 3.885125320978351 8.34503018807979 0 0 0
555 52 3 0.7551165 20.59066146366623 1.6008597181642374 10.114709120818697 0 0 0
554 52 2 -0.3889835 19.531414822420075 1.4709716812960747 10.978415131356167 0 0 0
1004 98 7 -0.5 15.65431250736848 6.326412355036678 8.986902731816745 0 0 0
557 52 2 -0.3889835 20.28574127549998 1.3102534511303359 8.8108089448449 0 0 0
562 52 5 0.0582835 22.158219871158256 0.8079763734513494 8.105680875635056 0 0 0
153 16 2 -0.4048 19.62681246946194 7.134382405206366 10.37992151409827 0 0 0
159 16 5 0.0798 17.960767266692468 7.752624514372689 9.3854653708937 0 0 0
709 65 1 0.1266165 1.8059091228539583 10.785976888056846 7.1108264242190105 0 0 0
715 65 5 0.0582835 1.7925568101036347 10.083501733208704 7.958879856376617 0 0 0
863 77 5 0.0582835 5.081370970066479 8.630862752395103 8.394573383767488 0 0 0
446 43 2 -0.3889835 2.4971356875172357 10.14552740620346 10.869672969527306 0 0 0
445 43 1 0.1266165 1.0208753817709706 10.0376048629022 11.098070920770072 0 0 0
453 43 5 0.0582835 0.6201819605963238 9.096705528903666 10.838921869930287 0 0 0
452 43 5 0.0582835 0.526306041849871 10.808698844438293 10.596682658162855 0 0 0
862 77 5 0.0582835 5.867893070955916 7.26648505917338 9.256034898809263 0 0 0
858 77 1 0.1266165 6.035723888922688 8.012612961819892 8.425262366428962 0 0 0
856 77 4 -0.5800835 8.46205143646844 6.8020897403251155 8.806427056871613 0 0 0
860 77 5 0.0582835 11.627219131587804 8.857876732111103 9.238429143183989 0 0 0
854 77 2 -0.3889835 9.57625393122316 8.75321021574464 8.865695735276184 0 0 0
857 77 2 -0.3889835 7.320460397139178 8.781140219252077 8.565754697787382 0 0 0
859 77 5 0.0582835 11.067614899383342 7.558528009878272 8.209207015607294 0 0 0
853 77 1 0.1266165 10.839614153836745 8.149340534294598 9.074826921072086 0 0 0
855 77 3 0.7551165 8.436649464099991 8.015556624863645 8.747109894079367 0 0 0
959 85 5 0.0582835 14.233183987239181 10.072025326703576 9.650180549578645 0 0 0
960 85 5 0.0582835 15.55733187287374 10.759557115714944 8.862688821964788 0 0 0
347 34 5 0.0582835 21.260188010734165 11.210438238937607 9.136400226577964 -1 0 0
154 16 3 0.8478 20.594894975791895 8.105001817764325 10.521632136144198 0 0 0
954 85 1 0.1266165 15.314169283582528 10.164767085920365 9.688742181333485 0 0 0
952 85 4 -0.5800835 17.865486711179326 10.911402371093823 10.266175315575984 0 0 0
151 16 1 0.0955 19.645652875041453 8.705750631886396 8.663975865318713 0 0 0
152 16 1 0.0955 18.947954852566955 7.459733944412156 9.15927237971846 0 0 0
156 16 2 -0.4048 20.628469940245342 8.99679384881192 9.546992069228377 0 0 0
157 16 5 0.0798 18.931697865818546 9.547159873133475 8.572365663916907 0 0 0
953 85 2 -0.3889835 15.681073711412028 10.929400380765244 10.875274981865621 0 0 0
958 85 5 0.0582835 15.744325638325979 9.119259260883505 9.654115861617736 0 0 0
951 85 3 0.7551165 17.01793236088666 11.253738641003327 11.07059354787157 0 0 0
441 42 5 0.0582835 9.401077172180482 0.4700019954432747 6.718047343812042 0 0 0
426 41 1 0.1266165 1.7138525761896635 3.7040351748588836 0.4576785592309798 0 0 0
430 41 5 0.0582835 2.76335462043442 4.051797848450174 0.6370550640467406 0 0 0
431 41 5 0.0582835 0.8952129372466819 4.371559595151206 0.46789091951827133 0 0 0
923 82 5 0.0582835 11.15854189649199 1.9189817004674454 0.6174295905271192 0 0 0
924 82 5 0.0582835 10.513840514729653 0.3177414534910795 0.08374039891169544 0 0 0
135 14 4 -0.5484 18.77432210388853 4.739723239087869 1.0023468692217452 0 0 1
136 14 2 -0.4048 20.704599847504365 4.73422068994547 -0.20719431281363965 0 0 1
134 14 3 0.8478 19.420753125278868 4.349053874738624 0.03944587240040598 0 0 1
783 71 3 0.7551165 3.2380193053187223 9.713295578141404 22.49773359163907 0 0 0
782 71 2 -0.3889835 2.046585385299188 9.953121106594173 21.813337689878527 0 0 0
221 23 1 0.0955 1.5987230926670586 5.609790760950769 13.423802883359038 0 0 0
226 23 2 -0.4048 2.934671047050533 5.2571031398401304 12.96871144647328 0 0 0
227 23 5 0.0798 1.0536778160115674 4.740847431083572 13.815460991391944 0 0 0
229 23 5 0.0798 -0.03744151889021671 5.765943113777283 11.96669085161443 0 0 0
993 96 7 -0.5 5.330062749891997 1.3722826291316204 13.002486314487966 0 1 0
991 96 8 1 4.844514648061822 0.3988319960480896 13.841544056976565 0 1 0
117 12 5 0.0798 2.2345916641673416 0.08715621277802449 11.592395275511725 1 0 0
392 38 5 0.0582835 4.226502078475854 5.067898330583481 15.105204322363816 0 0 0
119 12 5 0.0798 2.4917132448257613 2.052148772865999 11.97490459863352 1 0 0
224 23 3 0.8478 2.9785847896404265 5.66939679998643 11.685928963673403 0 0 0
111 12 1 0.0955 1.2906275190278054 0.6556658703611594 11.5714327457289 1 0 0
112 12 1 0.0955 1.4501074512575083 2.0836119664249737 11.68228903263335 1 0 0
113 12 2 -0.4048 0.5200728300098575 2.5561266862607384 12.775336628796408 1 0 0
107 11 5 0.0798 6.921245775808724 4.657210488822214 12.625514849128137 0 0 0
385 38 1 0.1266165 4.849285982305868 5.95221267953062 15.157974539595324 0 0 0
393 38 5 0.0582835 4.348647308974146 6.5655516270529555 15.905291798449362 0 0 0
391 38 5 0.0582835 4.932430971878253 6.496051262450773 14.153875104430744 0 0 0
222 23 1 0.0955 0.8210768319787483 6.279326546595094 12.238952622565408 0 0 0
388 38 4 -0.5800835 6.881382927817621 7.732907494605826 15.401875261488561 0 0 0
116 12 2 -0.4048 0.34402489889277854 0.30341878742710204 12.587466146896869 1 0 0
114 12 3 0.8478 -0.11783420588597211 1.465438850773443 13.307240873076658 1 0 0
228 23 5 0.0798 1.5404059317886813 6.3330929120452035 14.207928596793288 0 0 0
230 23 5 0.0798 0.6626131500730488 7.381020128279441 12.34109879350486 0 0 0
386 38 2 -0.3889835 6.224248476247384 5.543332687605505 15.461596022842052 0 0 0
387 38 3 0.7551165 7.197318975378787 6.534155132152975 15.560665577340517 0 0 0
932 83 5 0.0582835 8.671458061692158 0.7598983456490455 12.965978024531942 0 1 0
101 11 1 0.0955 7.324401749829666 5.182006159748646 11.727634828879758 0 0 0
103 11 2 -0.4048 9.565947739702555 5.1490552730198464 11.378166558724205 0 0 0
104 11 3 0.8478 9.293438874489127 6.246238106763368 12.092349082759387 0 0 0
245 25 4 -0.5484 13.99117101792396 6.656818974263451 11.516232174684596 0 0 0
377 37 2 -0.3889835 12.745223644407828 2.0196936655400326 11.774717847952006 0 0 0
106 11 2 -0.4048 7.935173001752267 6.362463019092913 12.342622649239106 0 0 0
382 37 5 0.0582835 14.257698078070032 3.1460515824090582 12.632992540050015 0 0 0
378 37 1 0.1266165 14.086493209730346 2.127832308206425 12.396508276527337 0 0 0
383 37 5 0.0582835 14.099765692208354 1.5330917474851338 13.314336841450684 0 0 0
243 25 2 -0.4048 13.248063811194571 7.025323230926022 13.594023349716844 0 0 0
925 83 1 0.1266165 8.838657587874795 0.22599260645412744 11.999152923278434 0 1 0
883 79 5 0.0582835 11.852563503443077 2.9458481919729262 14.58344452270907 0 0 0
884 79 5 0.0582835 10.38173109096838 3.8111974672237494 14.385781371180572 0 0 0
885 79 5 0.0582835 11.936410447079837 4.3276666463277005 13.516212437471706 0 0 0
877 79 1 0.1266165 11.495088017141214 3.9117044453933216 14.409445754386693 0 0 0
244 25 3 0.8478 13.683395445626218 7.4504102443794356 12.369122783090953 0 0 0
384 37 5 0.0582835 14.918239091006033 1.9637362469139936 11.755720877769642 0 0 0
389 38 2 -0.3889835 8.509349431253577 6.132284013543719 15.834620248791545 0 0 0
850 76 5 0.0582835 16.388833989256458 3.3324232040951256 13.67800011402781 0 0 0
852 76 5 0.0582835 16.07523504266095 5.073525395288654 13.246262573169586 0 0 0
846 76 1 0.1266165 16.8678838969637 4.324584511842153 13.480079690541306 0 0 0
845 76 2 -0.3889835 17.909705438476585 4.228527166698068 12.419551474060102 0 0 0
553 52 1 0.1266165 19.755083084783085 1.7162881355431383 12.365352232990661 0 0 0
559 52 5 0.0582835 20.144640716064227 2.7423825164647506 12.461738644158354 0 0 0
561 52 5 0.0582835 20.48658582430242 0.9612221507361702 12.689570029782315 0 0 0
560 52 5 0.0582835 18.88104654688595 1.48739694970077 13.038585617718342 0 0 0
851 76 5 0.0582835 17.43720218794705 4.691235278510151 14.360259834169288 0 0 0
115 12 4 -0.5484 22.154362645858605 1.4682408339070643 14.222018395286018 0 0 0
650 60 2 -0.3889835 16.640271626598825 0.8401447063243068 14.487043135766271 0 1 0
751 68 5 0.0582835 20.0162933218266 3.739782688631644 15.717185356832083 0 0 0
752 68 5 0.0582835 20.982304866476646 4.17897140008684 14.337733971147573 0 0 0
447 43 3 0.7551165 3.2888035944803633 9.386120224364749 11.614294426597102 0 0 0
448 43 4 -0.5800835 2.860400981554251 8.610080028272996 12.467867799323646 0 0 0
449 43 2 -0.3889835 4.621490339236167 9.469959669727812 11.387136665221629 0 0 0
450 43 1 0.1266165 5.489901116107275 8.613555181001399 12.22019036920691 0 0 0
455 43 5 0.0582835 5.347407777553469 8.801090510294546 13.332715565078402 0 0 0
456 43 5 0.0582835 5.16640315105477 7.547589022715957 12.070671702446418 0 0 0
260 26 5 0.0798 1.554436077175838 9.32475855269984 16.464978942502608 0 0 0
259 26 5 0.0798 1.8380797380028606 10.655487456944408 15.360315785836184 0 0 0
451 43 5 0.0582835 0.7275105233498386 10.188669924145204 12.143253678429089 0 0 0
258 26 5 0.0798 3.3560555257119233 8.231467036445135 15.429868519300937 0 0 0
257 26 5 0.0798 3.9221739846418124 9.727237979304377 14.637552103838743 0 0 0
454 43 5 0.0582835 6.554405818344713 8.610800751318278 11.946310621974016 0 0 0
252 26 1 0.0955 2.278933826619485 10.086713741699182 16.125876588350604 0 0 0
105 11 4 -0.5484 10.133748174818301 7.066278488485008 12.455598359396093 0 0 0
246 25 2 -0.4048 13.696593754386688 8.810368082098694 12.29771849702593 0 0 0
241 25 1 0.0955 13.221303193914762 9.292476517340718 13.601289477889031 0 0 0
248 25 5 0.0798 12.378979857952121 9.953554293317984 13.595027759278354 0 0 0
247 25 5 0.0798 14.170656966702753 9.701470354539246 13.944960627737476 0 0 0
242 25 1 0.0955 12.916660172627527 8.037688783903496 14.431794857506075 0 0 0
249 25 5 0.0798 13.229364307790963 8.00316132987322 15.482357334261637 0 0 0
250 25 5 0.0798 11.827448135579516 8.035351287161307 14.459020541116145 0 0 0
179 18 5 0.0798 7.794055709700162 11.327840931912272 14.180030042913177 0 0 0
396 38 5 0.0582835 9.49555961829136 7.713384788537344 14.92948234094095 0 0 0
824 74 5 0.0582835 22.39803052699486 7.73448630650231 15.20438717475682 -1 0 0
155 16 4 -0.5484 21.418673345640418 8.223493519848082 11.38455180429484 0 0 0
371 36 5 0.0582835 18.191007193641788 7.7747050014415615 12.502629837885415 0 0 0
372 36 5 0.0582835 17.285829915566318 9.29141736677043 12.670320913516148 0 0 0
370 36 5 0.0582835 18.902706954314414 9.106297824085393 13.510146493433956 0 0 0
366 36 1 0.1266165 17.964347456001754 8.593115138821029 13.234335463138228 0 0 0
823 74 5 0.0582835 22.35063664929688 9.15969660774713 14.087836741605532 -1 0 0
825 74 5 0.0582835 20.898900776553404 8.200403224098515 14.709967394943435 -1 0 0
820 74 4 -0.5800835 20.475493968552463 11.01594494026707 14.879891412457397 -1 0 0
364 36 4 -0.5800835 16.86313895862334 10.198663982717955 15.133531112445773 0 0 0
817 74 1 0.1266165 21.839257015771835 8.653761130563348 14.903811612516249 -1 0 0
365 36 2 -0.3889835 17.28349762567709 8.109305682718857 14.405509450456615 0 0 0
363 36 3 0.7551165 16.77685181644393 8.977211304844037 15.289555607743143 0 0 0
518 49 2 -0.3889835 12.257362984545662 0.16961857523491264 14.600265452271989 0 0 0
990 96 7 -0.5 3.7486351985623743 0.8568827736326816 14.576814247332642 0 1 0
285 29 4 -0.5484 2.0964658688651996 6.751909458300602 17.07736380319354 0 0 0
284 29 3 0.8478 2.0729627082629727 5.887546209778098 17.92986966200091 0 0 0
286 29 2 -0.4048 3.112309250767423 5.0526784357850545 18.17818515300713 0 0 0
55 6 4 -0.5484 7.912685945470352 5.091354198916196 20.55131438488459 0 0 0
634 58 5 0.0582835 1.521664168705191 0.6528500265082444 15.943856751771825 0 0 0
53 6 2 -0.4048 6.287475052500963 6.736666900383929 20.889530469433993 0 0 0
54 6 3 0.8478 7.107212957426489 5.938062666052317 20.08693274278137 0 0 0
56 6 2 -0.4048 6.895854129201702 6.260227921592076 18.762193773580545 0 0 0
58 6 5 0.0798 5.072009647471864 6.972485424245605 17.99317474269297 0 0 0
60 6 5 0.0798 4.480299884604334 7.269626770599666 20.15045685019568 0 0 0
629 58 2 -0.3889835 0.5418318766457182 1.4664128002966719 17.52894165843935 0 0 0
691 63 5 0.0582835 6.939645083267416 0.5866726821757704 21.108227842784316 0 0 0
630 58 1 0.1266165 1.7281548552387493 0.8346767354451567 16.987718525485207 0 0 0
635 58 5 0.0582835 2.549956050259208 1.5061822752080078 16.92980610511305 0 0 0
687 63 3 0.7551165 6.730666585101068 2.054692055611403 18.97098568932663 0 0 0
689 63 2 -0.3889835 6.8391642351455335 2.3314536498251406 17.62712412714243 0 0 0
688 63 4 -0.5800835 5.683033920042639 2.2269412487715177 19.549402933595033 0 0 0
690 63 1 0.1266165 5.630960537860443 2.8382421506875746 17.003297878476612 0 0 0
695 63 5 0.0582835 4.785159497678001 2.0633360993300904 17.03107023966898 0 0 0
686 63 2 -0.3889835 7.844314783259012 1.5674061170704332 19.63645404545095 0 0 0
685 63 1 0.1266165 7.684516111761917 1.2871854133348488 21.0040569232194 0 0 0
281 29 1 0.0955 2.7085035898877483 4.15702883115803 19.297708708165914 0 0 0
693 63 5 0.0582835 7.390987874347622 2.183959529381 21.55593140780146 0 0 0
692 63 5 0.0582835 8.608719499000394 0.9021984794835469 21.378371628484338 0 0 0
694 63 5 0.0582835 5.825978072693942 2.9062435291280897 15.93396029152262 0 0 0
696 63 5 0.0582835 5.2646932173476655 3.7522803406539964 17.458573022639982 0 0 0
425 41 2 -0.3889835 1.5849360080969501 2.954215348049879 22.34978871511722 0 0 -1
423 41 3 0.7551165 2.4967863132092583 1.9494242897270944 22.10246332258447 0 0 -1
288 29 5 0.0798 3.3451652605007363 4.15496100279059 20.175622281653528 0 0 0
287 29 5 0.0798 2.699490064195138 3.140338496663754 18.996361391153297 0 0 0
422 41 2 -0.3889835 2.2752678596849716 1.2770387935381278 20.959079543220636 0 0 -1
283 29 2 -0.4048 0.9585242374585017 5.685389492193359 18.757590718662062 0 0 0
282 29 1 0.0955 1.284632845548858 4.572886127530746 19.635544861369713 0 0 0
289 29 5 0.0798 0.5063959650229015 3.868032418600235 19.57076114163149 0 0 0
290 29 5 0.0798 1.2942642126475572 5.082443201009074 20.613102979627197 0 0 0
544 51 4 -0.5800835 0.566202959319548 7.134015209124369 21.51938400994328 0 0 0
52 6 1 0.0955 5.500933089940759 7.586769650352797 20.067528313760228 0 0 0
880 79 4 -0.5800835 14.061733033172693 4.337328208645961 15.00063945852111 0 0 0
568 53 4 -0.5800835 14.166055711746546 6.734299994742243 22.443747563615705 0 0 0
239 24 5 0.0798 13.657517095827588 1.71453980664864 21.59907076556553 0 0 -1
237 24 5 0.0798 12.475548205019397 1.7570775840748762 19.736530634767725 0 0 -1
878 79 2 -0.3889835 11.89666013351845 4.602316134947221 15.651120013185798 0 0 0
2 1 1 0.0955 10.75646509315821 6.265271385613653 19.108606091530657 0 0 0
7 1 5 0.0798 11.31684328320588 4.643709127611466 17.961114529871253 0 0 0
9 1 5 0.0798 11.216246180600733 6.812800747189181 18.222056712069378 0 0 0
1 1 1 0.0955 10.612133501359905 4.7978932289828045 18.760330824970932 0 0 0
3 1 2 -0.4048 11.416420947796341 6.328419435072249 20.39080134345402 0 0 0
4 1 3 0.8478 11.649046797882233 5.06359756796913 20.84560453712148 0 0 0
5 1 4 -0.5484 12.205165595799633 4.783703467849376 21.905408898335917 0 0 0
231 24 1 0.0955 13.440931254118299 1.1938077871639619 19.622138679748 0 0 -1
879 79 3 0.7551165 13.255065693121647 4.745715762730504 15.83533375124167 0 0 0
6 1 2 -0.4048 11.193370527471028 4.13392258694654 19.891113733944685 0 0 0
8 1 5 0.0798 9.62620126752793 4.406746861562548 18.389019960602816 0 0 0
881 79 2 -0.3889835 13.630931716237479 5.362817925409628 16.985115709555135 0 0 0
232 24 1 0.0955 14.118140794973105 0.9914239984356112 20.94704385890863 0 0 -1
238 24 5 0.0798 13.121314661595166 0.19728165969576716 19.37344874289348 0 0 -1
528 49 5 0.0582835 9.328660461307177 1.4469054278478586 17.064184699009328 0 0 0
567 53 3 0.7551165 15.014403470435289 6.911544284899228 21.562081067197408 0 0 0
571 53 5 0.0582835 14.78563184425145 4.343589657589172 21.510722372101945 0 0 0
882 79 1 0.1266165 15.06085524195975 5.480496556956343 17.070014140909176 0 0 0
888 79 5 0.0582835 15.451576565810585 4.540828742699736 17.130642722347464 0 0 0
886 79 5 0.0582835 15.453495218860313 6.042707499633787 16.21715041342243 0 0 0
887 79 5 0.0582835 15.34161878137619 6.032395913515911 18.004588721756395 0 0 0
236 24 2 -0.4048 14.409760724481991 1.817077705659647 18.779237515772024 0 0 -1
395 38 5 0.0582835 10.415018490091217 6.909964885748979 16.18681761616474 0 0 0
390 38 1 0.1266165 9.443155868326803 7.267173731107164 15.911925864018162 0 0 0
519 49 3 0.7551165 11.35008493535139 0.11517578034911846 15.639611834432726 0 0 0
526 49 5 0.0582835 10.397234327651905 0.39589535210746263 18.006109556565125 0 0 0
521 49 2 -0.3889835 11.255446827871772 1.2628378294093392 16.31203137114872 0 0 0
522 49 1 0.1266165 10.334605837272065 1.2728743379056529 17.40925241049774 0 0 0
527 49 5 0.0582835 10.495001759331473 2.2179785715878744 17.96407038035796 0 0 0
565 53 1 0.1266165 15.744983320774987 4.7090245511889535 21.76090913917031 0 0 0
572 53 5 0.0582835 16.468640704621055 4.021295461146371 21.25164233739335 0 0 0
413 40 2 -0.3889835 22.623660728001617 0.7023880718341556 22.325778898223053 -1 0 -1
627 58 3 0.7551165 22.506062111655016 0.6972672746571434 17.485839249357817 -1 0 0
655 60 5 0.0582835 17.391112424971464 0.5543898375270391 16.45689434086332 0 1 0
753 68 5 0.0582835 21.55349363815615 4.432629826428611 16.03037810755383 0 0 0
140 14 5 0.0798 20.069408687068506 2.1610967878917884 21.34016883793562 0 0 0
132 14 1 0.0955 19.885185273809185 3.218146267595984 21.192094201923215 0 0 0
133 14 2 -0.4048 18.95911340524505 3.4864735616794005 22.185508124532547 0 0 0
745 68 1 0.1266165 20.677153193432332 4.434958414470226 15.368512150384996 0 0 0
233 24 2 -0.4048 15.425913650500336 1.5158732012535727 20.72352478987378 0 0 -1
234 24 3 0.8478 15.515819087288115 2.008213907300275 19.443697417936555 0 0 -1
235 24 4 -0.5484 16.523829698846665 2.549663458389794 18.969065504626716 0 0 -1
139 14 5 0.0798 19.63118303475757 3.519148189624329 20.164223225648417 0 0 0
625 58 1 0.1266165 20.133914892327986 0.5758919382292506 18.020892033624456 -1 0 0
632 58 5 0.0582835 19.456832648721573 1.2082501006240056 18.61035384228294 -1 0 0
626 58 2 -0.3889835 21.418731373114216 1.3149275727901413 18.005571988776463 -1 0 0
566 53 2 -0.3889835 15.900948291258743 6.001700188284495 21.103222050353633 0 0 0
138 14 5 0.0798 21.913406235163635 3.3073157602120706 21.90529579683349 0 0 0
137 14 5 0.0798 21.420728732530005 4.7805542927409705 20.950009904500178 0 0 0
131 14 1 0.0955 21.072019979655938 4.044044749222216 21.66641795530534 0 0 0
656 60 5 0.0582835 17.072103230005105 2.196757296870554 16.07428434515074 0 1 0
746 68 2 -0.3889835 20.048290352445235 5.7789254263590575 15.403925086008632 0 0 0
747 68 3 0.7551165 19.682034501173412 6.191525404308251 16.64657326419583 0 0 0
749 68 2 -0.3889835 19.095069327651665 7.448055764471312 16.780254251988065 0 0 0
748 68 4 -0.5800835 19.888771174978675 5.445933074998509 17.625782686777953 0 0 0
649 60 1 0.1266165 16.659313672758504 1.196044983774405 15.918180282867311 0 1 0
657 60 5 0.0582835 15.665532217511274 1.0414165384977556 16.437466545347355 0 1 0
754 68 5 0.0582835 19.569231203545332 7.78812583874875 18.783918967007594 0 0 0
750 68 1 0.1266165 18.74462143411138 7.816143606095821 18.106438641631865 0 0 0
755 68 5 0.0582835 18.309974721842558 8.826164549555454 18.135217181427276 0 0 0
756 68 5 0.0582835 18.01639439812437 7.071358809030988 18.462162411240556 0 0 0
543 51 3 0.7551165 -0.2039100273085136 7.982486735958712 21.84473203049478 0 0 0
251 26 1 0.0955 3.529454489744328 9.27648833111991 15.612534348452868 0 0 0
51 6 1 0.0955 5.921341983780765 7.279376879762617 18.6263574236715 0 0 0
57 6 5 0.0798 6.454444757936749 8.219833028069779 18.337284648542294 0 0 0
59 6 5 0.0798 5.412242581926358 8.606186996719076 20.479508126561115 0 0 0
180 18 5 0.0798 7.35595034745788 9.985171028667006 15.244203488797593 0 0 0
256 26 2 -0.4048 4.4540663953964685 9.532240134126136 16.608225505576875 0 0 0
172 18 1 0.0955 7.311037401627489 11.071029738817472 15.112461198630955 0 0 0
253 26 2 -0.4048 2.6565654599484465 10.720125321575326 17.32395226101786 0 0 0
254 26 3 0.8478 3.9440503138355147 10.349214148825972 17.56008109849628 0 0 0
552 51 5 0.0582835 0.4557454829173798 8.606066009143209 19.31922825294365 0 0 0
255 26 4 -0.5484 4.59409543198125 10.684745752661438 18.503816730757016 0 0 0
784 71 4 -0.5800835 4.02437881151754 10.634262476707358 22.596571280653176 0 0 0
781 71 1 0.1266165 1.8775049265089359 11.305616866265257 21.303977910395744 0 0 0
788 71 5 0.0582835 0.8791411476357005 11.293463520838726 20.82156988706318 0 0 0
10 1 5 0.0798 9.768826144124247 6.696491162320909 19.379016077956233 0 0 0
569 53 2 -0.3889835 15.139735883272127 8.128881429739156 20.948831587873993 0 0 0
576 53 5 0.0582835 13.144359825683562 8.929495134862332 21.216574042149873 0 0 0
178 18 5 0.0798 8.239560784936463 10.983046250258786 16.92718010037067 0 0 0
394 38 5 0.0582835 9.090990293894787 7.970790331024505 16.687279399431628 0 0 0
570 53 1 0.1266165 14.19092083950638 9.208787568507255 21.359716888665854 0 0 0
198 20 5 0.0798 7.8464394050774295 9.968461671210454 21.567189737129723 0 0 0
575 53 5 0.0582835 14.269175303177201 10.136146658624897 20.79541331755879 0 0 0
995 97 7 -0.5 12.217977507582747 9.869824241116602 18.702268342776755 0 0 0
194 20 3 0.8478 10.1397215923259 8.453537100048008 22.252355427540866 0 0 0
196 20 2 -0.4048 8.95207967712479 8.298679920793298 21.593407137246558 0 0 0
191 20 1 0.0955 8.673180138837713 9.54788894457695 20.982290318007806 0 0 0
197 20 5 0.0798 8.33358161648133 9.524968735073946 19.93599279462418 0 0 0
192 20 1 0.0955 9.75655578656929 10.500025476475061 21.31558854119272 0 0 0
193 20 2 -0.4048 10.644027104248472 9.674771733697247 22.124906591967108 0 0 0
199 20 5 0.0798 10.441555974413605 10.725321509438979 20.441647779031037 0 0 0
996 97 8 1 11.362690677015083 10.33864925178263 17.720163588926535 0 0 0
574 53 5 0.0582835 14.490274141343104 9.55524995780779 22.378317413079955 0 0 0
997 97 7 -0.5 10.04591518693069 9.885495432187474 17.96381288100692 0 0 0
999 97 7 -0.5 11.735872870440328 9.799646665572913 16.5191648866883 0 0 0
818 74 2 -0.3889835 21.72686066207446 9.448386135329155 16.078496966776193 -1 0 0
546 51 1 0.1266165 22.440416558055933 8.511201564098242 19.45008455623762 -1 0 0
550 51 5 0.0582835 22.016365771787665 7.549508073985691 19.201217917139658 -1 0 0
367 36 5 0.0582835 14.969969558837024 10.138323612489305 16.98815909146994 0 0 0
361 36 1 0.1266165 15.613469978219012 9.34779116564069 17.400635733451402 0 0 0
368 36 5 0.0582835 14.983359156459603 8.795042352218436 18.06572003013729 0 0 0
551 51 5 0.0582835 21.885091696474785 9.275403967432892 18.89584375832138 -1 0 0
545 51 2 -0.3889835 22.20116460195346 8.736775045776069 20.88401678490144 -1 0 0
707 64 5 0.0582835 18.395839273327816 10.638414924562449 22.186547325185263 0 0 0
369 36 5 0.0582835 16.473198279376767 9.850301872816443 17.915954286004897 0 0 0
706 64 5 0.0582835 18.66940270096293 9.176733842485765 21.21756935927512 0 0 0
702 64 1 0.1266165 17.9728575431465 10.041874249145224 21.35800853314212 0 0 0
708 64 5 0.0582835 17.070869188069288 9.653009378396144 21.842863496863153 0 0 0
819 74 3 0.7551165 21.000971297000053 10.646881172929616 15.93994613463439 -1 0 0
701 64 2 -0.3889835 17.70552900126901 10.84142516677396 20.111728136869175 0 0 0
362 36 2 -0.3889835 16.13355300344416 8.418688745152501 16.432647334464747 0 0 0
636 58 5 0.0582835 2.0744094698974975 -0.039890385013453766 17.628324140392465 0 0 0
421 41 1 0.1266165 3.177017752060874 0.17355075140265108 20.685047982236394 0 0 -1
429 41 5 0.0582835 4.223810585657656 0.4838750462675434 20.667894792904963 0 0 -1
240 24 5 0.0798 14.134966923800745 -0.0926752823802533 21.311462849543815 0 0 -1
633 58 5 0.0582835 19.741115271682812 0.4492512098612873 17.044648752509065 -1 0 0
418 40 5 0.0582835 21.28285226144444 -0.1337158053704931 20.93987957870651 -1 0 -1
419 40 5 0.0582835 22.83014507353069 0.09056089976475529 20.264105689565675 -1 0 -1
802 72 5 0.0582835 18.113670577485316 0.08141713130027911 21.27807517612373 0 1 0
916 82 4 -0.5800835 8.315683589804744 22.552852078499654 1.4691918950822194 0 -1 0
407 39 5 0.0582835 2.203678132176632 11.590680213605761 3.708859939319081 0 0 0
408 39 5 0.0582835 2.227499632474892 11.66597326483374 1.9359328229208033 0 0 0
400 39 4 -0.5800835 3.9217907384443382 13.422648738452299 2.9815814940573886 0 0 0
778 70 5 0.0582835 1.0211163297400891 13.656882155080135 4.714444080230581 1 0 0
399 39 3 0.7551165 4.594000492998822 12.423600559858452 2.8635537726094573 0 0 0
779 70 5 0.0582835 2.2712936056062785 13.91258185966187 5.695381021008366 1 0 0
780 70 5 0.0582835 0.7734732313254646 14.196026412347571 6.473354922902354 1 0 0
774 70 1 0.1266165 1.3035578784409818 14.328409595099474 5.5385490979646645 1 0 0
757 69 1 0.1266165 0.3417327821067798 14.709605708503249 0.7576209300165975 0 0 0
764 69 5 0.0582835 1.1251973289145076 14.410287859132373 1.425802177920669 0 0 0
398 39 2 -0.3889835 5.979373548274686 12.49647304921989 2.8597566959238003 0 0 0
765 69 5 0.0582835 0.7421067998294155 15.338190047199369 -0.04437775970736965 0 0 0
403 39 5 0.0582835 6.344490831234244 14.34570058232882 3.933549272075534 0 0 0
68 7 5 0.0798 14.22930430370955 11.529778055290876 3.2783885428058266 0 0 0
507 48 3 0.7551165 9.18079937486746 11.335644271504751 1.667688736410583 0 0 0
326 33 2 -0.3889835 12.05312219213349 15.021713253587743 2.2606202908990625 0 0 0
327 33 3 0.7551165 13.094741611165075 14.551783142420582 1.5137212030590894 0 0 0
509 48 2 -0.3889835 8.919130340882573 12.447005672443494 0.9008543409429826 0 0 0
510 48 1 0.1266165 9.599070869612271 13.69258675363932 1.1573013783329003 0 0 0
516 48 5 0.0582835 9.5304568509324 14.104253354870668 2.115154433890053 0 0 0
515 48 5 0.0582835 9.292865556231922 14.48756227024748 0.46579706509696084 0 0 0
514 48 5 0.0582835 10.687704948498176 13.516451184324884 0.9019865251152428 0 0 0
329 33 2 -0.3889835 12.823603458676402 14.628133271972692 0.18634851076577802 0 0 0
325 33 1 0.1266165 12.162781364678601 15.014670905882381 3.6710075433797043 0 0 0
332 33 5 0.0582835 11.308112251958644 15.564995416783288 4.1002453835281365 0 0 0
331 33 5 0.0582835 13.07873642022298 15.561152370477977 3.984356342323937 0 0 0
69 7 5 0.0798 12.124825422211314 11.858608908554233 1.4305989734626228 0 0 0
328 33 4 -0.5800835 14.090350326585844 14.12126311812455 2.0668589833236304 0 0 0
333 33 5 0.0582835 12.216206961920124 13.997787549893603 4.0700489206747665 0 0 0
13 2 2 -0.4048 13.996082563497795 14.159149595418508 6.542973034382989 0 0 0
20 2 5 0.0798 13.212588765669201 12.545560894228593 7.657034820035109 0 0 0
12 2 1 0.0955 14.158523113857187 13.141359029155833 7.586719378798767 0 0 0
19 2 5 0.0798 15.105447996092805 12.557914264508126 7.390846899742134 0 0 0
397 39 1 0.1266165 6.590181090979937 13.851838014969008 2.988119029348761 0 0 0
404 39 5 0.0582835 7.6679212029308195 13.759105499872023 2.863460131889384 0 0 0
405 39 5 0.0582835 6.347354967230507 14.461118740789624 2.0900142599918206 0 0 0
146 15 2 -0.4048 22.508604860216867 11.638805374274412 3.52768033403008 -1 0 0
758 69 2 -0.3889835 22.763587482997064 13.431317646387628 0.19086731775383864 -1 0 0
70 7 5 0.0798 13.780912145453236 11.464414747720506 0.9018456567444322 0 0 0
144 15 3 0.8478 21.508873261981652 12.126534973123116 4.260006162108985 -1 0 0
145 15 4 -0.5484 21.627061062083797 13.049868209159087 5.085865937233882 -1 0 0
143 15 2 -0.4048 20.32062744306233 11.539814567002026 4.0602100785171436 -1 0 0
296 30 2 -0.4048 19.05509173559818 15.228870081804065 1.7605036869552482 0 0 0
297 30 5 0.0798 17.639310144257472 15.013311777950952 0.2986216233175456 0 0 0
298 30 5 0.0798 19.166011206952476 14.150532012141857 0.05201210527674305 0 0 0
975 89 6 1 20.556100620388932 14.504785920996403 5.857327917329692 0 0 0
295 30 4 -0.5484 19.340846622982863 14.928255906617697 4.078427304170255 0 0 0
291 30 1 0.0955 18.39107013144261 14.494567714642391 0.8027047415680488 0 0 0
293 30 2 -0.4048 18.143757055825606 13.462122902014377 2.8089526326276566 0 0 0
294 30 3 0.8478 18.896872653571503 14.603366913350019 2.9729912915234697 0 0 0
292 30 1 0.0955 17.813761600959747 13.295091350294358 1.4913961824272217 0 0 0
300 30 5 0.0798 18.261759007329978 12.387841421917715 1.0913287472836446 0 0 0
485 46 2 -0.3889835 17.51940972903386 11.665450933152071 7.155598926763561 0 0 0
492 46 5 0.0582835 17.811200633949063 11.351888790978666 5.038858329219533 0 0 0
483 46 3 0.7551165 17.999064827183524 12.88323146971509 7.422013388313497 0 0 0
484 46 4 -0.5800835 18.85066477295816 13.40873109650277 6.689925289716964 0 0 0
763 69 5 0.0582835 22.65369756903673 15.230855587691964 1.3560991848824329 -1 0 0
37 4 5 0.0798 0.35146097659240105 21.996479155437868 2.8411094307917497 0 -1 0
39 4 5 0.0798 1.41343902531246 22.769178048458514 0.9083110970080939 0 -1 0
32 4 1 0.0955 2.0990862780537194 22.73949386482458 1.758410628747368 0 -1 0
33 4 2 -0.4048 3.197485588838351 21.85932727028739 1.4556971060031372 0 -1 0
31 4 1 0.0955 1.4262271730837641 22.106656152694168 2.973041664000734 0 -1 0
38 4 5 0.0798 1.6128084678535588 22.773829288192108 3.8437227541173327 0 -1 0
189 19 5 0.0798 3.834970119768559 15.86357968176204 1.4583881125079878 0 0 0
182 19 1 0.0955 4.178566227594371 16.840704532244693 1.7895857236363453 0 0 0
183 19 2 -0.4048 5.47109432112984 17.15335733567528 1.2500565820145217 0 0 0
190 19 5 0.0798 3.5826988456418145 17.6909688150072 1.4306295779012248 0 0 0
181 19 1 0.0955 4.421973496773292 16.974620092984043 3.2637834189861255 0 0 0
188 19 5 0.0798 3.62672303783446 17.605735141501494 3.7409895186848603 0 0 0
187 19 5 0.0798 4.388416810094738 15.992508964026694 3.7846252705046846 0 0 0
184 19 3 0.8478 6.337638338375842 17.457947650802517 2.260122372515838 0 0 0
186 19 2 -0.4048 5.753060155798606 17.36354308423378 3.4434093123160254 0 0 0
773 70 2 -0.3889835 1.296889762856373 15.818208962127052 5.123131948214349 1 0 0
36 4 2 -0.4048 2.22121552892652 20.92859705545779 3.2393632966068706 0 -1 0
34 4 3 0.8478 3.2331534475038715 20.84547955893389 2.3149147251079123 0 -1 0
35 4 4 -0.5484 4.1098951488704545 19.989889952967612 2.2479719380457865 0 -1 0
740 67 5 0.0582835 1.0673774336860924 18.67370176333735 1.6229045378154032 1 0 0
185 19 4 -0.5484 7.478520559464831 17.75715060077385 2.0274800507767354 0 0 0
741 67 5 0.0582835 0.445549522175794 17.29577106531059 0.8716718168079058 1 0 0
603 56 3 0.7551165 5.335113488422349 17.56806870672859 6.398945333767283 0 -1 0
733 67 1 0.1266165 0.3061887275234043 18.360279057833623 0.9316305915733722 1 0 0
612 56 5 0.0582835 4.016300796389703 19.48921869460506 4.901077921606297 0 -1 0
538 50 5 0.0582835 6.947396050116018 20.245850566595642 0.235510948325937 0 0 1
868 78 4 -0.5800835 2.466522233873063 22.589987133596757 6.595953631747282 0 0 0
611 56 5 0.0582835 5.071709562950726 20.82404286139186 5.635342916572921 0 -1 0
605 56 2 -0.3889835 5.560818969422225 18.916991729398394 6.228207488896128 0 -1 0
606 56 1 0.1266165 4.486497235991893 19.869077673072653 5.786084984799952 0 -1 0
610 56 5 0.0582835 3.7251946364183173 20.08907082329831 6.540652463881269 0 -1 0
356 35 5 0.0582835 10.006055109929674 18.078181782189876 0.360698788636996 0 0 0
919 82 5 0.0582835 8.142910713405278 20.918925523381308 3.4547767512434517 0 -1 0
921 82 5 0.0582835 7.027149188991051 22.284194686716855 3.8503153526298153 0 -1 0
623 57 5 0.0582835 9.912891663949917 17.240731372843616 3.133144163174766 0 0 0
624 57 5 0.0582835 10.10475410377507 17.156489782542277 4.849533323853134 0 0 0
913 82 1 0.1266165 8.01465157338126 21.820008173048862 4.052180325812607 0 -1 0
920 82 5 0.0582835 8.05951278192332 21.480152173291653 5.0817597400193995 0 -1 0
914 82 2 -0.3889835 9.034812066068715 22.73320511428682 3.632433388709221 0 -1 0
608 56 5 0.0582835 7.273715618053986 15.082780139203642 7.493267897566963 0 -1 0
615 57 3 0.7551165 11.885344587954663 19.186695337880987 4.835379423207654 0 0 0
616 57 4 -0.5800835 11.24073099077405 19.351628617356187 5.853115796792791 0 0 0
617 57 2 -0.3889835 11.427871522686361 18.41383148598925 3.807748363132063 0 0 0
618 57 1 0.1266165 10.17678585548437 17.841031619654082 4.012610590545893 0 0 0
622 57 5 0.0582835 9.401595724142977 18.570703381414198 4.253286232963897 0 0 0
614 57 2 -0.3889835 13.086848416005992 19.7364596012924 4.641555422313638 0 0 0
602 56 2 -0.3889835 6.46877754026286 16.882467231978985 6.84787988970194 0 -1 0
816 73 5 0.0582835 13.418170204380399 22.22054697576677 3.470981664140372 0 -1 0
814 73 5 0.0582835 13.266415426098954 22.33818988971539 1.6358743175480883 0 -1 0
810 73 1 0.1266165 13.772385464615162 21.834680608270215 2.5095910143735445 0 -1 0
215 22 4 -0.5484 15.497213977188464 16.931028057677345 1.0639875259132117 0 0 1
815 73 5 0.0582835 13.547862305288294 20.789069945409093 2.415216831680652 0 -1 0
128 13 5 0.0798 15.336832197729855 17.16662687464709 4.102140644518243 0 0 0
49 5 5 0.0798 19.398785025835863 21.457499032950654 2.8283544154011664 0 -1 0
42 5 1 0.0955 19.508519262072113 21.97613840037606 3.7616290185851 0 -1 0
43 5 2 -0.4048 20.70842242551949 21.798455307697356 4.464373459860332 0 -1 0
299 30 5 0.0798 16.792437386444718 13.261063816916153 1.3857333114752997 0 0 0
771 70 3 0.7551165 0.09300464132466629 16.404748280915555 5.086576336183141 1 0 0
770 70 2 -0.3889835 0.1736597325675175 17.66347462879108 4.71535106500701 1 0 0
127 13 5 0.0798 16.39644055365519 15.962557824604517 3.296454086317566 0 0 0
772 70 4 -0.5800835 22.074661126855318 15.849832783620197 5.3313304228639105 0 0 0
776 70 5 0.0582835 22.127924007614062 19.44997010050484 4.466069733843351 0 0 0
47 5 5 0.0798 17.843813737206748 20.797239990435877 4.6037173171549695 0 -1 0
129 13 5 0.0798 17.4825704842574 17.81456578443828 2.6064819958355785 0 0 0
121 13 1 0.0955 16.261397761884098 16.82177525168497 4.0078110325645815 0 0 0
126 13 2 -0.4048 16.8746871374412 16.37261741842526 5.257014934764664 0 0 0
777 70 5 0.0582835 21.27935966609491 17.98413903515657 3.9733478141136054 0 0 0
769 70 1 0.1266165 22.003092523906854 18.376514427472806 4.6407017917330675 0 0 0
809 73 2 -0.3889835 15.236617652532885 22.012287003354842 2.3366246224106395 0 -1 0
130 13 5 0.0798 16.496009775894436 18.872654153042504 3.4429823997230935 0 0 0
123 13 2 -0.4048 18.168134217195657 18.140560937550376 4.606664531157337 0 0 0
122 13 1 0.0955 17.10236222562012 17.96539339055793 3.5897423530698758 0 0 0
124 13 3 0.8478 17.979214079049793 17.178310216991928 5.56855740719936 0 0 0
125 13 4 -0.5484 18.668077266225772 17.028304471274907 6.521702669163943 0 0 0
45 5 4 -0.5484 21.276482060390016 21.292185385148873 6.642695788394106 0 -1 0
48 5 5 0.0798 17.674661140868682 22.500578407739578 4.85806460103767 0 -1 0
44 5 3 0.8478 20.380592157246493 21.4887563172346 5.763493810029085 0 -1 0
46 5 2 -0.4048 19.054047865959706 21.420979385434794 6.022891802937324 0 -1 0
41 5 1 0.0955 18.40612140876173 21.703210086615673 4.794353145991073 0 -1 0
775 70 5 0.0582835 21.55670299130775 18.290323881051194 5.586063043854007 0 0 0
737 67 2 -0.3889835 19.65990012012085 18.566764139191218 0.7466175805147928 0 0 0
734 67 2 -0.3889835 21.979227744188016 18.692653459556873 1.2089647354361572 0 0 0
735 67 3 0.7551165 20.963254761997206 18.207781661484685 0.3890602006512558 0 0 0
345 34 5 0.0582835 0.6840396353135274 16.42832659838548 7.707052169623852 0 0 0
742 67 5 0.0582835 18.60691588214726 16.997645378466853 -0.21799625683446905 0 0 0
680 62 5 0.0582835 19.816019147292792 18.69801010554709 8.343284466956145 0 0 0
743 67 5 0.0582835 17.684993595627397 18.501809986757404 0.32649020878990953 0 0 0
738 67 1 0.1266165 18.58114151007622 18.09164655096545 -0.11728077805415266 0 0 0
869 78 2 -0.3889835 2.273843578324534 22.81043495402959 8.872607903980033 0 0 0
323 32 5 0.0582835 12.161408565614577 22.227787227610754 8.810873291199663 0 0 0
928 83 4 -0.5800835 8.657648241535412 21.89537194495883 9.688878188801194 0 0 0
834 75 1 0.1266165 16.95530195216178 22.75963741186188 9.06405761107044 0 0 0
840 75 5 0.0582835 16.476606323144733 21.74869596904778 8.938348139050612 0 0 0
716 65 5 0.0582835 1.9103586004012127 11.802997612181029 7.468892923694186 0 0 0
944 84 5 0.0582835 8.38044566459158 11.711132818691675 10.16577927074055 0 0 0
945 84 5 0.0582835 9.476253853249995 11.786282091412529 8.740984086648746 0 0 0
938 84 2 -0.3889835 8.8617816235049 13.630117417222369 9.46089711283646 0 0 0
937 84 1 0.1266165 9.216099349333845 12.248767546743021 9.718756922527557 0 0 0
943 84 5 0.0582835 10.126896941430754 12.258495022110264 10.336298342594636 0 0 0
940 84 4 -0.5800835 11.007998046728755 14.08217742668116 8.874760155813659 0 0 0
939 84 3 0.7551165 9.835231376157344 14.463842511412684 9.033755448830476 0 0 0
14 2 3 0.8478 13.917062956140498 15.43672761578936 7.06276972270145 0 0 0
11 2 1 0.0955 14.160345627285666 14.000608059908426 8.841650079771474 0 0 0
18 2 5 0.0798 13.40136978828876 13.65798832147049 9.553725130010928 0 0 0
17 2 5 0.0798 15.097718717044396 13.814794153485899 9.438310245213744 0 0 0
16 2 2 -0.4048 14.018161327817781 15.392809072659517 8.460920867552172 0 0 0
482 46 2 -0.3889835 17.501904180271143 13.466332142583306 8.52754836052114 0 0 0
340 34 4 -0.5800835 21.489025818885608 14.723364956854693 7.813116385556775 -1 0 0
481 46 1 0.1266165 17.941557153336145 14.756597359219914 8.920587703689643 0 0 0
346 34 5 0.0582835 21.481010372263732 11.962571817294597 7.5998507116367096 -1 0 0
348 34 5 0.0582835 20.27171582409718 12.454794877219971 8.82347858034581 -1 0 0
342 34 1 0.1266165 21.283382510628442 12.11299974598368 8.62303741167487 -1 0 0
341 34 2 -0.3889835 22.32802632538164 13.00931273674807 9.19045508721029 -1 0 0
489 46 5 0.0582835 18.985926410167306 14.618490184950454 9.18861409073978 0 0 0
339 34 3 0.7551165 22.277472579035695 14.262328856125377 8.679016158616427 -1 0 0
488 46 5 0.0582835 17.420531135504323 15.100134442863657 9.809428044458423 0 0 0
604 56 4 -0.5800835 4.229225025655246 17.052743599859014 6.193199660392234 0 -1 0
874 78 5 0.0582835 3.651476905240541 21.422239301630125 8.457413971870118 0 0 0
875 78 5 0.0582835 3.020627217890124 21.324893707458447 10.142245928784057 0 0 0
870 78 1 0.1266165 2.7762910461143133 21.471431047429594 9.075980653948811 0 0 0
876 78 5 0.0582835 2.0958727150971175 20.670278020004037 8.717656729195832 0 0 0
267 27 5 0.0798 3.186112921086361 17.429629046107205 9.346477553227821 0 0 0
261 27 1 0.0955 4.114576186074261 17.298972123787 9.89271993303923 0 0 0
266 27 2 -0.4048 4.588898275059605 18.480932499808382 10.477250473804096 0 0 0
268 27 5 0.0798 4.903180901086488 16.807250477344137 9.349163836818143 0 0 0
269 27 5 0.0798 2.7275937669799575 16.055631529999843 11.105323199054943 0 0 0
270 27 5 0.0798 4.441443287869321 15.532697446442025 11.08116256791363 0 0 0
262 27 1 0.0955 3.77209719318732 16.40793779444745 11.099870740684798 0 0 0
344 34 5 0.0582835 0.8430001033344094 17.11810264521854 9.433101335365333 0 0 0
601 56 1 0.1266165 6.348614489726666 15.467147874115215 7.111639465182372 0 -1 0
607 56 5 0.0582835 6.0687094005841296 15.019417792502935 6.162298446723513 0 -1 0
613 57 1 0.1266165 13.57113004787609 20.567115241024325 5.734568230930363 0 0 0
619 57 5 0.0582835 13.458178097419196 20.002061883339973 6.697568201850248 0 0 0
621 57 5 0.0582835 12.89275145911315 21.484299644349008 5.833067091795861 0 0 0
620 57 5 0.0582835 14.625259366996687 20.913457956504313 5.584414927636217 0 0 0
15 2 4 -0.5484 13.791098154092197 16.44839096865895 6.3750282455581955 0 0 0
947 84 5 0.0582835 11.290705239678427 16.571553976557688 9.201218426338908 0 0 0
929 83 2 -0.3889835 6.621980707007281 21.079833138704778 10.041654269401247 0 0 0
935 83 5 0.0582835 5.704950453672087 19.8937725092929 8.522064998315946 0 0 0
609 56 5 0.0582835 5.515772948372005 15.244934378598 7.788718058270247 0 -1 0
324 32 5 0.0582835 11.209716569383493 20.74385297021386 8.603069593958255 0 0 0
322 32 5 0.0582835 11.396469553375947 21.4421769411763 10.258661339504751 0 0 0
318 32 1 0.1266165 11.875640446511236 21.311973287389872 9.30797472069817 0 0 0
948 84 5 0.0582835 10.926283761390408 16.28647607724944 7.402537866893021 0 0 0
941 84 2 -0.3889835 9.419578594660173 15.78001012176668 8.814156039452923 0 0 0
942 84 1 0.1266165 10.475847258789397 16.614254742999318 8.394566790522763 0 0 0
946 84 5 0.0582835 10.088788873345392 17.644468456188317 8.333754351966908 0 0 0
936 83 5 0.0582835 6.909154775302738 21.219148291781693 8.009685183123958 0 0 0
927 83 3 0.7551165 7.6922986458476075 21.817866856019137 10.417968682866917 0 0 0
930 83 1 0.1266165 6.649929907706343 20.420440157568237 8.792393868305398 0 0 0
934 83 5 0.0582835 7.463519439860734 19.68604480981635 8.785299353060843 0 0 0
315 32 3 0.7551165 12.954291705481815 19.419341593621084 10.235567547029595 0 0 0
317 32 2 -0.3889835 13.07033707324775 20.61812004417919 9.602786308432188 0 0 0
320 32 5 0.0582835 14.932069412923015 16.882886033885324 11.20835956140999 0 0 0
313 32 1 0.1266165 14.001827383823475 17.44805099934953 11.178764540640536 0 0 0
314 32 2 -0.3889835 14.103556688326087 18.751995882628282 10.528457850421518 0 0 0
316 32 4 -0.5800835 11.807533931244398 19.047582081273738 10.491702302690651 0 0 0
319 32 5 0.0582835 13.22191447238044 16.850102928961952 10.677573174519756 0 0 0
487 46 5 0.0582835 17.696494073403155 15.500768046468695 8.12679670908938 0 0 0
343 34 5 0.0582835 22.389149409030615 16.972401816747826 8.585420078961935 -1 0 0
466 44 5 0.0582835 0.15920617080793514 20.745945519101987 9.226397390783589 0 -1 0
679 62 5 0.0582835 19.042812427015335 19.650277793062042 9.803300697722053 0 0 0
673 62 1 0.1266165 19.038635609211696 18.70101869285728 9.20675120046416 0 0 0
675 62 3 0.7551165 18.629851464492262 17.407543077488775 11.27461305801121 0 0 0
681 62 5 0.0582835 18.00205160609333 18.52029918128462 8.901427750599831 0 0 0
674 62 2 -0.3889835 19.35189202084684 17.565694272567868 10.095884907072486 0 0 0
337 34 1 0.1266165 0.2560796606339233 16.436736198155643 8.700152341524715 0 0 0
468 44 5 0.0582835 22.687124473304568 21.653919101313253 10.63300486623993 -1 -1 0
462 44 1 0.1266165 22.3354176421133 21.0167722544708 9.825491353006544 -1 -1 0
467 44 5 0.0582835 21.6831394872434 21.62680965422433 9.24501692476298 -1 -1 0
338 34 2 -0.3889835 0.1634212479127663 15.043583895879857 9.176068653552823 0 0 0
461 44 2 -0.3889835 21.74370189798193 19.872308820098578 10.390120577015736 -1 -1 0
459 44 3 0.7551165 22.553946560303764 19.117574463931213 11.262111258700209 -1 -1 0
739 67 5 0.0582835 0.524279203840781 18.77493878944031 -0.07642003558753346 1 0 0
214 22 3 0.8478 15.07734646484649 17.44734888413328 0.058681763757391814 0 0 1
213 22 2 -0.4048 14.181380341443308 18.483237426618217 -0.01897821680438455 0 0 1
427 41 5 0.0582835 3.0230584237425093 22.421332106519937 21.46053525024982 0 -1 -1
539 50 5 0.0582835 5.975496578972713 21.598616607487617 22.63881893789973 0 0 0
534 50 1 0.1266165 6.243281400307866 20.519478682178732 22.49699666951647 0 0 0
540 50 5 0.0582835 5.3267693028419885 19.928557283215024 22.67252968010444 0 0 0
598 55 5 0.0582835 2.84024278670422 17.518356491141073 22.406252833870838 0 0 -1
933 83 5 0.0582835 9.801914688884022 22.75381312242198 12.179547723706522 0 0 0
926 83 2 -0.3889835 7.615286311106653 22.49416788562234 11.664171835168322 0 0 0
651 60 3 0.7551165 16.272878617929884 22.695577373857482 14.139211741650579 0 0 0
653 60 2 -0.3889835 16.353784864900394 22.54743144296659 12.782398408108259 0 0 0
889 80 1 0.1266165 3.8769791932294 13.056071155188826 12.207521809328007 0 0 0
895 80 5 0.0582835 3.7042971413025794 12.012432747367399 12.062339101805016 0 0 0
892 80 4 -0.5800835 1.6311287968861203 12.293057774884538 13.496468595814306 0 0 0
890 80 2 -0.3889835 2.5952979846930675 13.657705935690739 11.910904770406022 0 0 0
891 80 3 0.7551165 1.5183157658065873 13.188169507265322 12.653587243656085 0 0 0
897 80 5 0.0582835 4.055944338513788 13.306079758076411 13.289516824169008 0 0 0
494 47 2 -0.3889835 7.857837948117254 13.966013098776717 13.469642025364742 0 0 0
893 80 2 -0.3889835 0.3378552082621883 13.76703569813169 12.38331821957558 0 0 0
896 80 5 0.0582835 4.687371216909036 13.432585099694919 11.568603110045597 0 0 0
173 18 2 -0.4048 6.113888641188974 11.811014901845773 15.112098527329168 0 0 0
496 47 4 -0.5800835 9.461377156882413 15.003081571546653 12.192805332733768 0 0 0
502 47 5 0.0582835 11.924278375251202 14.293936043070198 13.201333691641928 0 0 0
497 47 2 -0.3889835 10.108682619992168 13.237406225212734 13.340703023867146 0 0 0
495 47 3 0.7551165 9.148803444307875 14.122919152857383 12.959515196483768 0 0 0
202 21 1 0.0955 14.807292953154592 13.331144238291806 15.675077549357587 0 0 0
203 21 2 -0.4048 14.343481772683436 13.499810818396504 14.290749455644809 0 0 0
209 21 5 0.0798 14.728935086482524 12.251875993482455 15.94657801003191 0 0 0
498 47 1 0.1266165 11.459574054538072 13.395259152254072 12.82169850061049 0 0 0
503 47 5 0.0582835 12.137814868225062 12.562279007379907 13.014259944382474 0 0 0
204 21 3 0.8478 15.445003094658137 13.793060784795514 13.510398454967127 0 0 0
504 47 5 0.0582835 11.366311011125015 13.384286342854315 11.715107455438217 0 0 0
201 21 1 0.0955 16.32151710189774 13.586877804900647 15.593584741810742 0 0 0
206 21 2 -0.4048 16.607613573138767 13.843098034747355 14.277504962421448 0 0 0
207 21 5 0.0798 16.901812521417533 12.871961944368246 16.17827251161351 0 0 0
900 80 5 0.0582835 22.146488806754704 12.192962851056844 13.025590080095382 -1 0 0
894 80 1 0.1266165 22.299225658787403 13.234246285305817 13.139867591601341 -1 0 0
899 80 5 0.0582835 21.323259443541424 13.71288464133412 12.92789720540945 -1 0 0
898 80 5 0.0582835 22.38478444966598 13.351428565058553 14.192779283399032 -1 0 0
955 85 5 0.0582835 18.924810128306113 12.971487508370767 11.540278179538994 0 0 0
950 85 2 -0.3889835 17.293742331979555 11.964192401218027 12.174879544390375 0 0 0
949 85 1 0.1266165 18.676192425812577 12.310139492687389 12.35928748668682 0 0 0
957 85 5 0.0582835 19.38651133664213 11.469468714879273 12.238595884279219 0 0 0
956 85 5 0.0582835 18.775724297864592 12.87510739266298 13.256062935237301 0 0 0
992 96 7 -0.5 4.312344102543239 22.505045024149744 12.959902999176327 0 0 0
643 59 5 0.0582835 1.6829595214118673 21.693787476523678 14.2059702796173 0 0 0
644 59 5 0.0582835 2.272453230669385 20.753475491127638 12.898671195831584 0 0 0
460 44 4 -0.5800835 0.642764231018172 19.496241561081565 11.487955422272035 0 -1 0
265 27 4 -0.5484 4.909712860697059 19.32948082156016 12.545152141615333 0 0 0
979 93 6 1 5.701351171934284 21.178110870544753 13.23386665751005 0 0 0
638 59 2 -0.3889835 2.600915425811466 19.779682160232547 14.776076132188104 0 0 0
264 27 3 0.8478 4.545383800483765 18.38894304842137 11.800259043561153 0 0 0
637 59 1 0.1266165 1.7739638201088357 20.616736114669116 13.915497740490096 0 0 0
645 59 5 0.0582835 0.7800160924083133 20.171209437592207 13.822786388293302 0 0 0
263 27 2 -0.4048 4.077987781601909 17.202058290026468 12.225696151346945 0 0 0
465 44 5 0.0582835 0.5833152205888663 16.827197276792145 12.233112397228647 0 -1 0
463 44 5 0.0582835 -0.16711566009119655 17.8623909135154 13.578714125529642 0 -1 0
308 31 5 0.0582835 3.60854053261139 15.20753828719093 14.69985715331389 0 0 0
457 44 1 0.1266165 22.74289039036103 17.221606800544905 12.685270022261955 -1 -1 0
500 47 5 0.0582835 5.965642974264788 14.730659544575452 13.587442058453314 0 0 0
493 47 1 0.1266165 6.888109387724337 14.922095158588286 13.039441970551506 0 0 0
165 17 4 -0.5484 7.199875796126687 20.164927170289282 14.099017992894812 0 0 0
499 47 5 0.0582835 6.774224169421571 14.78807001120616 11.981818592716628 0 0 0
501 47 5 0.0582835 7.2151089221341485 15.914034276615698 13.219246465704206 0 0 0
301 31 1 0.1266165 2.730814067431351 15.855836824281287 14.92170814552296 0 0 0
994 96 7 -0.5 5.80954193946719 22.74310134262351 14.536252933987374 0 0 0
309 31 5 0.0582835 2.5451383900666746 16.58804820382987 14.18031924183957 0 0 0
517 49 1 0.1266165 12.463731070379323 22.060250163617866 13.788157869111096 0 -1 0
525 49 5 0.0582835 12.925717725178503 21.245599245168734 14.480185756543303 0 -1 0
524 49 5 0.0582835 13.094886462445848 22.263088874948835 12.883066555169632 0 -1 0
166 17 2 -0.4048 8.185866636051479 18.182272309533985 13.547588850889703 0 0 0
168 17 5 0.0798 9.596745704310006 17.41420064435446 12.36020267281147 0 0 0
205 21 4 -0.5484 15.406878103088653 14.001130323778682 12.310289304343014 0 0 0
164 17 3 0.8478 8.25136926441179 19.500193324837714 13.928290282148785 0 0 0
161 17 1 0.0955 9.539951375538335 17.615657899517807 13.429894381691135 0 0 0
167 17 5 0.0798 9.711027795610738 16.72795759061776 14.026067922064128 0 0 0
321 32 5 0.0582835 13.649284246238482 17.542844532672806 12.235339482413297 0 0 0
170 17 5 0.0798 11.254933406783723 19.064085091744563 13.07292938746234 0 0 0
162 17 1 0.0955 10.429786746041023 18.8234457807193 13.805227915553719 0 0 0
163 17 2 -0.4048 9.55104835622062 19.900295326715185 14.082568895615301 0 0 0
464 44 5 0.0582835 22.12888463251789 16.32105706728216 12.95625557744791 -1 -1 0
658 60 5 0.0582835 14.849951226309733 21.113945567135275 12.552540448204132 0 0 0
676 62 4 -0.5800835 17.72475796199152 18.18939213360682 11.585124913802023 0 0 0
677 62 2 -0.3889835 19.019026953654123 16.303080689887846 12.069908456216078 0 0 0
652 60 4 -0.5800835 15.910422153685822 21.760813388756922 14.901706034443889 0 0 0
659 60 5 0.0582835 16.17147982165945 21.050017764317904 11.298736762241404 0 0 0
654 60 1 0.1266165 15.939157887678654 21.177114840818728 12.38147436165406 0 0 0
660 60 5 0.0582835 16.470576877147764 20.40043124452979 12.931378818190586 0 0 0
682 62 5 0.0582835 17.237208162313877 15.927702866612698 12.921483491918842 0 0 0
678 62 1 0.1266165 18.293740518932267 16.144544617037152 13.263812949323333 0 0 0
684 62 5 0.0582835 18.30747270604121 17.06399674258397 13.923368779026692 0 0 0
683 62 5 0.0582835 18.7377571905402 15.315448760138901 13.802672020917434 0 0 0
458 44 2 -0.3889835 21.952812212647384 17.997385391356605 11.789979852817774 -1 -1 0
480 45 5 0.0582835 20.165595657104305 21.929086543239904 13.54227124477569 0 0 0
479 45 5 0.0582835 19.876355278304146 21.037213189498654 12.105297887921044 0 0 0
474 45 1 0.1266165 20.20705559844629 20.914562709286006 13.12012661660759 0 0 0
478 45 5 0.0582835 21.262874925646187 20.599081839211298 13.25991687774562 0 0 0
473 45 2 -0.3889835 19.216198631588046 20.1308217181022 13.816030195969672 0 0 0
520 49 4 -0.5800835 10.696567594939996 22.19645684209062 15.930395648206407 0 -1 0
596 55 5 0.0582835 5.9465556473367815 12.865375440252155 20.950172251249995 0 0 -1
595 55 5 0.0582835 4.141104230160565 13.067082764415604 20.784122674265866 0 0 -1
589 55 1 0.1266165 5.018849843451839 13.480696892980776 21.21436693197092 0 0 -1
597 55 5 0.0582835 4.988166148899148 13.339283593838108 22.289534250134142 0 0 -1
592 55 4 -0.5800835 3.1072745750004915 15.093504827189891 21.919766331235227 0 0 -1
590 55 2 -0.3889835 5.126051426381362 14.837905544269828 20.832858880209965 0 0 -1
175 18 4 -0.5484 5.439907139529493 13.68804596001401 16.296803399652884 0 0 0
174 18 3 0.8478 6.278702627988133 12.837626214102968 16.0281278030968 0 0 0
176 18 2 -0.4048 7.515171008303304 12.842845048332647 16.665117374788952 0 0 0
787 71 5 0.0582835 2.6444535028408414 11.547320037758176 20.55998595976969 0 0 0
272 28 1 0.0955 2.0547292501068384 13.61374576710079 18.264592126706063 0 0 0
279 28 5 0.0798 2.697973516455451 12.874276731461388 18.811979613992293 0 0 0
280 28 5 0.0798 2.468967373383867 13.89349283857984 17.27072542751988 0 0 0
789 71 5 0.0582835 1.951374257536739 12.101866940789524 22.10375693014184 0 0 0
273 28 2 -0.4048 1.8902709375099382 14.792116950302493 18.971087751118546 0 0 0
271 28 1 0.0955 0.6303664966881023 13.092526641420783 18.013097205919394 0 0 0
278 28 5 0.0798 0.5412122374638041 12.837235328945932 16.942346056385468 0 0 0
276 28 2 -0.4048 22.817794367016315 14.130340577050012 18.641517951963692 -1 0 0
274 28 3 0.8478 0.6124135422685586 15.072396251704333 19.177052053976478 0 0 0
277 28 5 0.0798 0.45318538633538963 12.182621796775882 18.636880565312406 0 0 0
591 55 3 0.7551165 4.061568853063839 15.575138210425477 21.2734915915016 0 0 -1
210 21 5 0.0798 14.316660195941136 13.882065034476213 16.405673696644946 0 0 0
171 18 1 0.0955 8.26599766938156 11.692684800164184 16.139788036762816 0 0 0
177 18 5 0.0798 9.335843450275119 11.692253713765759 15.816558144488393 0 0 0
330 33 1 0.1266165 13.878127940352718 14.153896673655373 22.3836726716804 0 0 -1
336 33 5 0.0582835 14.76246638146161 14.803090816409707 22.43868113079393 0 0 -1
334 33 5 0.0582835 14.177463874625472 13.065331630187218 22.503690924347627 0 0 -1
335 33 5 0.0582835 13.497109461171993 14.315851593099545 21.367333677820856 0 0 -1
200 20 5 0.0798 9.310133658599947 11.394452391189578 21.82129108138005 0 0 0
998 97 7 -0.5 11.291142976627892 11.712952677050934 17.701484268474946 0 0 0
353 35 2 -0.3889835 9.345182412201298 14.679363950734318 20.67020530442117 0 0 -1
354 35 1 0.1266165 9.859666295331417 14.013079599844978 19.447202234109554 0 0 -1
359 35 5 0.0582835 9.156278432884104 13.216907462692516 19.17059464146858 0 0 -1
358 35 5 0.0582835 10.812722702364438 13.685296967743202 19.719921286575854 0 0 -1
588 54 5 0.0582835 12.201197582015023 14.848199578659807 17.240294648052075 0 0 0
586 54 5 0.0582835 11.842335019858357 16.50216229035199 17.909277681497034 0 0 0
705 64 5 0.0582835 14.47677939421377 13.343243126638418 19.47272625508688 0 0 0
360 35 5 0.0582835 9.926364762563024 14.725905014009761 18.673318749349306 0 0 -1
582 54 1 0.1266165 11.708752414169982 15.805736223629328 17.0082552024155 0 0 0
587 54 5 0.0582835 10.641855435889298 15.584078728484762 16.866046487333495 0 0 0
759 69 3 0.7551165 21.862717927149966 13.690756142911834 22.24613655218483 -1 0 -1
208 21 5 0.0798 16.420224792358507 14.611906526268648 16.081747455496075 0 0 0
311 31 5 0.0582835 20.266528129128897 15.803688248955126 16.21557530007008 -1 0 0
704 64 5 0.0582835 15.442530875031824 14.34792525106937 18.424496388073347 0 0 0
760 69 4 -0.5800835 21.67955300736987 14.878526949765194 21.88478140480379 -1 0 -1
768 69 5 0.0582835 19.37709165265106 13.07599392150239 21.022558389802324 -1 0 -1
766 69 5 0.0582835 20.728757340778984 13.082524206425036 19.789514851215028 -1 0 -1
828 74 5 0.0582835 20.590839805380828 13.331444438642482 16.173926457573714 -1 0 0
826 74 5 0.0582835 19.094428184129804 12.385665127762701 16.533692747989218 -1 0 0
822 74 1 0.1266165 20.13235377038153 12.656022647960281 16.920893301210505 -1 0 0
821 74 2 -0.3889835 20.88591171539255 11.4480411619868 17.101275937728236 -1 0 0
761 69 2 -0.3889835 21.27321388324636 12.55116752325465 21.703857472515605 -1 0 -1
767 69 5 0.0582835 20.088134096030117 11.542405441614722 20.51393234109952 -1 0 -1
762 69 1 0.1266165 20.358168448478896 12.596059990348595 20.66551523724232 -1 0 -1
698 64 2 -0.3889835 16.51626759280235 12.6242594828671 19.127814026841286 0 0 0
697 64 1 0.1266165 15.512770396202951 13.766916670006633 19.368042743308038 0 0 0
703 64 5 0.0582835 15.890922557832354 14.435224934803395 20.147219079228464 0 0 0
699 64 3 0.7551165 16.83256390042815 11.866672210209309 20.28159844302098 0 0 0
700 64 4 -0.5800835 16.286570141299094 12.145078368926479 21.37174814717071 0 0 0
827 74 5 0.0582835 20.065930156576883 13.258724141599927 17.82405570369337 -1 0 0
1010 100 7 -0.5 18.576439549415134 14.81694794037864 18.58870208877705 0 0 0
302 31 2 -0.3889835 1.464761525229381 15.146642965517676 15.120009124553794 0 0 0
305 31 2 -0.3889835 22.260442587807596 15.307377860272604 15.827720791494695 -1 0 0
275 28 4 -0.5484 0.29933203451888946 16.087025881883434 19.779972544021273 0 0 0
307 31 5 0.0582835 2.9302760142373856 16.35319827294474 15.868833977682648 0 0 0
535 50 5 0.0582835 5.083219608424833 21.31626037037153 17.675177614899493 0 0 0
303 31 3 0.7551165 0.4395396582567831 15.93043398210538 15.557470704370852 0 0 0
639 59 3 0.7551165 1.9870808453866502 19.64673058703721 16.03144567523925 0 0 0
536 50 5 0.0582835 6.29363392028588 20.365218706042796 16.867946458329957 0 0 0
530 50 2 -0.3889835 6.536328639724757 20.304030523235358 18.993278244204948 0 0 0
593 55 2 -0.3889835 4.0884123873911244 16.86882410304863 20.93387197442202 0 0 -1
599 55 5 0.0582835 3.146856596692215 18.685688249612937 21.145143363390627 0 0 -1
641 59 2 -0.3889835 2.6947189339721254 18.89568852652962 16.921893988701555 0 0 0
304 31 4 -0.5800835 0.6473829588239783 17.126514375132555 15.733341592614872 0 0 0
594 55 1 0.1266165 2.943121050117354 17.685901037731227 21.37213972677938 0 0 -1
600 55 5 0.0582835 2.0212030990752905 17.280203657147236 20.873801361662384 0 0 -1
642 59 1 0.1266165 2.098011545149184 18.754735444083153 18.183859179296917 0 0 0
646 59 5 0.0582835 1.1087949735411242 18.335634657042565 18.078317688083033 0 0 0
648 59 5 0.0582835 1.9730616081971655 19.689284916283246 18.682224144031974 0 0 0
647 59 5 0.0582835 2.6682647194718547 18.04651875350085 18.783082380242014 0 0 0
28 3 5 0.0798 6.6701505306917905 17.73085360258533 19.51627634722465 0 0 0
532 50 4 -0.5800835 4.688312067319026 20.65282125827941 20.23519928265976 0 0 0
640 59 4 -0.5800835 0.9051564326198798 20.159147524236072 16.361325637043375 0 0 0
29 3 5 0.0798 6.999705003543593 15.31400976830561 17.926737297152293 0 0 0
30 3 5 0.0798 5.778810629448238 16.657730161174158 17.871453131740296 0 0 0
22 3 1 0.0955 6.798458780931956 16.38913976734298 17.924638512261385 0 0 0
21 3 1 0.0955 7.396067805117494 17.01277883751862 19.180390402367895 0 0 0
27 3 5 0.0798 7.591463609368165 16.283356302526087 19.915008718437115 0 0 0
529 50 1 0.1266165 5.651952218455162 20.364381264270506 17.762470577965374 0 0 0
537 50 5 0.0582835 4.898015454714706 19.53457697556448 17.647866346590764 0 0 0
531 50 3 0.7551165 5.909322134539272 20.46284285055702 20.167549269495964 0 0 0
23 3 2 -0.4048 7.566185493048013 16.776614415236523 16.83414151512748 0 0 0
428 41 5 0.0582835 2.9424290281989376 22.845040495403353 19.705986249423013 0 -1 -1
983 94 7 -0.5 22.55804855255089 20.71731503782014 19.28671710446046 0 0 0
533 50 2 -0.3889835 6.790934951087919 20.36717317765574 21.176749320194496 0 0 0
24 3 3 0.8478 8.571344854258012 17.539651155528247 17.330411936010304 0 0 0
420 40 5 0.0582835 22.54397389342547 21.806085597563452 21.52053793940195 -1 -1 -1
357 35 5 0.0582835 11.430605828755098 17.470254509568026 22.551602445955055 0 0 -1
349 35 1 0.1266165 10.35955560808194 17.674883963069682 22.53754367834142 0 0 -1
523 49 5 0.0582835 11.510930438954295 21.663114366421812 13.483252283708563 0 -1 0
350 35 2 -0.3889835 9.639574029580745 16.47527734532771 22.122296579779217 0 0 -1
351 35 3 0.7551165 10.090673308054786 15.81595094036026 21.03672261931423 0 0 -1
355 35 5 0.0582835 10.254204708887338 18.44611115464263 21.731637810905152 0 0 -1
580 54 4 -0.5800835 13.956825216567163 16.95401263176385 17.159763740173474 0 0 0
26 3 2 -0.4048 8.475153005867279 17.655881621811474 18.666544334410208 0 0 0
169 17 5 0.0798 10.97540942026627 18.642276122907703 14.742035044410779 0 0 0
93 10 2 -0.4048 9.891872826026347 21.55761110715551 20.663875216146554 0 0 -1
100 10 5 0.0798 8.94363370494895 19.997171194003407 19.884909706031067 0 0 -1
95 10 4 -0.5484 11.867421353082262 21.790407293150558 21.873015917720608 0 0 -1
94 10 3 0.8478 11.222461410188636 21.36338821940186 20.885771737804042 0 0 -1
92 10 1 0.0955 9.573914798222226 20.907340106058363 19.465580073609345 0 0 -1
578 54 2 -0.3889835 14.083008664685924 17.615215056840174 14.9873030261673 0 0 0
99 10 5 0.0798 8.9182469362158 21.43826072138475 18.727819431470405 0 0 -1
98 10 5 0.0798 10.860227850081351 19.324307433907347 18.434650893945737 0 0 -1
352 35 4 -0.5800835 11.061485828098396 16.22849258647881 20.416012976342778 0 0 -1
581 54 2 -0.3889835 12.218236155153855 16.394716770230453 15.858199281726183 0 0 0
579 54 3 0.7551165 13.452648938822747 16.98139478690205 16.05429242980438 0 0 0
91 10 1 0.0955 10.891286069811178 20.3004503896886 18.911367767827123 0 0 -1
96 10 2 -0.4048 11.883143392342735 20.652677594515414 19.90780916833594 0 0 -1
97 10 5 0.0798 11.205086207792283 21.015823078300556 18.158480555922427 0 0 -1
25 3 4 -0.5484 9.481840120357372 18.08187149825839 16.694841536848763 0 0 0
800 72 5 0.0582835 14.090192932022488 20.275069823697628 17.707785989071237 0 0 0
801 72 5 0.0582835 14.682446342008044 21.92847034964673 17.74920182551516 0 0 0
793 72 1 0.1266165 14.894610940426556 20.907914834544645 18.047507659506053 0 0 0
212 22 1 0.0955 13.926081422601346 18.801155179164873 21.634324706999823 0 0 0
219 22 5 0.0798 13.816786392523255 19.759736155904942 21.2733062436435 0 0 0
220 22 5 0.0798 12.910559888133012 18.428127389367525 21.500837026023056 0 0 0
211 22 1 0.0955 14.831850899774977 17.837011271981048 20.880251367269054 0 0 0
218 22 5 0.0798 14.417727422813424 17.38249753544565 20.03210178858901 0 0 0
736 67 4 -0.5800835 21.138250616507367 17.493374391509345 22.457549506448874 0 0 -1
631 58 5 0.0582835 20.312957802092097 22.67425626517504 18.389986897330232 -1 -1 0
1011 100 8 1 18.58665055543746 15.767501992337845 19.59983428902945 0 0 0
414 40 1 0.1266165 22.309869125087232 22.82882421805207 21.20414348960963 -1 -1 -1
1013 100 7 -0.5 18.318924857619145 15.232366160477993 20.86581474830339 0 0 0
306 31 1 0.1266165 21.261942502466674 16.212638064602576 16.28958680169209 -1 0 0
310 31 5 0.0582835 21.195258114496845 17.142658991526407 15.775639847599741 -1 0 0
216 22 2 -0.4048 15.483290495528736 17.01886641261272 21.902451152915372 0 0 0
794 72 2 -0.3889835 15.08306823677552 20.938599720532018 19.420276496156607 0 0 0
584 54 5 0.0582835 15.759592994440865 18.750633991704564 14.404065920616414 0 0 0
471 45 3 0.7551165 19.430791496567004 19.915420064424925 15.172150431062851 0 0 0
583 54 5 0.0582835 16.18129419825996 17.516693599973802 15.588653515605518 0 0 0
628 58 4 -0.5800835 22.392311110095623 22.628933695663743 17.04548076957675 -1 -1 0
217 22 5 0.0798 15.648365037544783 18.528718407286387 20.4976863298101 0 0 0
799 72 5 0.0582835 15.791099572682096 20.507234569432743 17.558746205856675 0 0 0
577 54 1 0.1266165 15.41470947209388 18.238458466896496 15.284883865505929 0 0 0
312 31 5 0.0582835 21.432559255571505 16.497896966423998 17.349817688389322 -1 0 0
744 67 5 0.0582835 18.692374990797706 18.598757711226387 21.981257937828712 0 0 -1
470 45 2 -0.3889835 18.44497532775309 19.16175535752771 15.780129148598636 0 0 0
472 45 4 -0.5800835 20.375865639605184 20.330650187440657 15.849924877502772 0 0 0
1014 100 7 -0.5 19.913707311970906 16.2405613541797 19.546743031289033 0 0 0
585 54 5 0.0582835 15.26402428087314 18.834613076156057 16.16893122979816 0 0 0
795 72 3 0.7551165 16.31236642788785 21.510641951434224 19.887936051992423 0 0 0
475 45 5 0.0582835 18.54862852796249 19.79592934319123 17.769016237763775 0 0 0
980 94 7 -0.5 20.496603934203794 20.148603157533643 19.9241186309007 0 0 0
476 45 5 0.0582835 17.6928275462046 18.22747496305022 17.355779502970034 0 0 0
469 45 1 0.1266165 18.564177548071303 18.882040191191248 17.15593525812516 0 0 0
803 72 5 0.0582835 17.890321825652745 22.22655119956705 22.803172209705046 0 0 0
978 92 6 1 22.115776541233867 20.751649905545413 16.96262032132578 0 0 0
477 45 5 0.0582835 19.41953081236525 18.269357817178527 17.3195720223414 0 0 0
1012 100 7 -0.5 17.710795934415838 16.829595431493154 19.247155433414196 0 0 0
982 94 7 -0.5 21.576012341679448 19.169183873691168 18.191717839598184 0 0 0
797 72 2 -0.3889835 16.576994488434334 21.57599497910178 21.25047602844057 0 0 0
798 72 1 0.1266165 17.864855958105643 22.171476178899844 21.68179431806581 0 0 0
804 72 5 0.0582835 18.678650558136866 21.505917088700425 21.256578661508136 0 0 0
796 72 4 -0.5800835 17.12033135927564 21.92083980510726 19.06088124550569 0 0 0
976 90 6 1 21.614280152641314 16.77154294977972 20.468762967735806 -1 0 0
981 94 8 1 21.67257009824871 19.64773345485097 19.49607731958632 0 0 0
984 94 7 -0.5 22.186305259916875 18.72321120812984 20.336727691577774 0 0 0

Velocities

81 -0.003515363587668521 -0.006618859238255845 0.004853259102413515
82 -0.0011899559936327643 0.00021845182475349536 0.009166701752194757
83 -0.0020630425405167093 0.0051743916722958565 0.002447353465819968
84 -0.005576819201033034 -0.0019179997561200425 0.0018521343995762175
85 0.006670695166228888 -0.00538072574640851 -0.0008386812356622401
86 -0.0007653677399309099 -0.00590057827669851 -0.0029866187580819183
88 0.025899968499938947 -0.007600282680353988 -0.018563838304532027
89 0.027147710672694645 0.010903348009499002 -0.01768531220423973
90 0.018954606999777666 0.002649039753580791 0.006761837762047612
672 -0.015587240404891697 0.007078241561431595 0.022419778480729548
988 3.5633057390268105e-05 0.004029692989588102 0.007087442265895567
720 -0.007114058435715881 0.026878510065978193 0.007470865047370292
985 0.001956971132750838 -0.006331803977646401 -0.0007091850365246743
986 0.0010330458580648598 0.0022551254435732647 -0.008406326629553068
973 -0.006167004674230105 0.017268139017940744 -0.004998594596343313
718 0.018631466878286682 -0.004123640792826023 -0.021210165002812878
989 -0.0016702414988159343 -0.0028963361729411954 0.00904027545168411
873 -0.007819881270681958 -0.0022829300727826214 0.013812371055518798
865 0.00614519629116844 -0.005435077267321498 0.0007379540468723144
871 0.010458561041029097 0.012661189019511122 0.00864267325665605
541 0.002386326962112224 0.008365049064770482 0.00430572734003875
424 -0.0038457232616427696 -0.00026457260887413706 0.004820816968124274
432 -0.03377916945517301 -0.013332347253193547 -0.016605851464264507
549 -0.005649477675769314 0.0018217252725933415 0.0030394919739528707
987 0.003647017730012316 -0.0004987857847159946 0.006528922930082377
714 0.0005276881871794738 0.0035549871911288397 -0.008970963839035546
719 0.01666634890479359 -0.01687295486394049 0.016566948252901226
1007 -0.002763429291220804 0.006104877603892878 0.0042228962374960665
87 -0.011303164565273026 0.016747798432143943 0.019390953725606883
548 0.0011210030217951676 0.002473069515025247 -0.0075593100990417805
872 0.017701954993830975 -0.014754735485703493 0.005490923222543491
547 -0.019788223971338885 0.011406045606744807 0.014658969483569555
866 0.0016196026445526681 0.0010325317647539097 0.0048921655945295345
664 0.004720862359675263 0.0014654379205076742 0.004007422340453787
731 -0.01649182101296046 0.019321578283218094 0.024143342349278132
969 0.03519477529250594 0.011199221428521535 -0.0017205071520640988
961 -0.002187345872907905 0.0034781732845938747 0.002330045482336186
725 0.00010778218891992931 0.0008884061703255688 -0.0027446328502326546
723 0.00045218686416295336 -0.010328420190092634 0.006429427068803823
65 0.0009071886745895373 0.00011206117498317558 -0.005267668095724579
967 0.02723746602601906 0.016159907408945736 0.00694618775674253
724 0.007291512584100068 -0.005239113159325084 0.005618824186387066
962 -0.0024356657633361413 0.004210424766970794 -0.004146982978590853
963 -0.003862042359494454 0.005037016778935316 0.001352092890844598
722 -0.0020104720025118294 0.0062102471814787594 -0.0026018193398602745
721 0.0013021354141739016 -0.00045680080050902435 0.0035895348635265733
729 -0.001364978967971363 -0.004086465127372952 -0.02194008294969402
964 -0.0009506235542767738 -0.0028702291143511732 0.0016335455109365532
727 -0.011928867725324995 0.0051017769810196584 0.015195662255730184
728 -0.006613578123811668 0.006215229714593693 -0.001857734643315831
726 0.004795910008588926 -0.013706696534924023 0.0006125373871738009
965 -0.0006061940383379401 -0.0030868338438811895 0.0008423234097852604
972 0.029465859481757325 -0.024609119173181752 -0.009074529147919435
966 0.0038374065062862753 0.005955739894489891 -0.0031773456998922004
971 -0.02386094987731093 -0.007943434733741652 0.003622618822532269
970 0.013269327482001013 0.00011025349629291146 0.0003380456553337505
732 -0.0031305196736061236 -0.010293045881697709 0.009980770917343056
968 -0.027524207304042137 -0.01564068190658727 0.005449505897691895
837 -0.002471613771622613 0.008240104454511264 0.023189361099173002
977 0.003303162987163831 0.013850990993844148 0.0035114484540152025
730 -0.020073114841622854 0.0005701702855231441 0.003526102680778427
808 0.001306206460332877 0.001996318963977576 -0.00241202020729279
832 -0.0022660359805991097 0.00023122851748156643 -0.003802617943845025
917 -0.0011711006248852367 0.0015363151277679053 -0.003430979378837051
836 0.0010680638450656357 -0.0019019084982991033 0.0037872344867271664
829 -0.0026084284938773586 -0.009978525995145354 0.0010735084193274713
440 -0.014174452746020888 -0.003658852171796102 0.008197149866838721
922 0.01030357887745823 0.017046457368416718 -0.002275702236136109
918 0.0016694038898150364 0.0048523496836537115 0.0022956738250745983
415 -0.022428859407756938 -0.026108849390367346 -0.030799533286537693
811 -0.004854400407755356 0.005496987243646829 0.003491698273859808
807 -0.0025145126315087064 0.0036476715660233154 -0.001777992117460852
813 -0.005911628640491453 -0.019667538008014476 0.006217359885778231
805 0.001710091306595882 -0.0006779007692820349 0.006299545455146205
416 -0.011237124913314068 -0.0215263625028268 -0.014083648221999064
417 -0.008323678543570117 0.0369855511961979 -0.005220932784636026
806 0.001978197174732327 0.005153150291403568 0.0022492392822364925
812 -0.01445687395725766 -0.012182036822640567 -0.024578448300152593
409 0.0020763746783381437 0.003328444538093374 -0.00556834859984745
410 0.001167506525773799 0.0005736651815490677 0.0019007172285153086
411 0.007434462249910982 -0.002972541876259924 -0.004142104797881583
78 0.004795647336760951 -0.012076340327381503 -0.012908143378576518
71 0.0024997488720698347 -0.0005358433035032723 -0.006619164898109421
77 -0.012980212235555212 0.008485329846496529 -0.008906293417950012
412 -0.001159085070333943 0.0005580404134233517 -0.00011465321009016867
80 -0.0034266750353788345 -0.006685337561020652 -0.016732507554057387
910 -0.01440584881245508 0.008664316117577625 -0.0069912862837616056
904 0.004114232668054876 -0.005159252141831641 0.005588301170245597
909 0.003670235590204649 -0.009367608201814981 -0.01891212171118463
906 -0.0018753111819612219 -0.007092745601339085 0.0008033721311401922
911 -0.0033024966252825864 -0.013553916195341688 -0.007067279182633079
1003 0.004323645243417032 0.004821393444944422 -0.004429950068476984
905 -0.007732459431266329 0.0006576174968171032 -0.0010759516522849226
902 -0.0006616866871347826 -0.004743671345073057 -0.00514866363129124
908 0.0021223236518344317 -0.009062895355149175 0.02831471196926208
912 0.00633789718801617 -0.008034347335236587 -0.00199021762310993
903 -0.0002453545968078525 -0.0025765274838565042 0.005987619896866067
901 -0.002385451711425837 -0.000745869203595432 -0.0046724452794555445
907 -0.004269291915819108 0.007451168114109325 0.019245057471076212
573 -0.00861541154627024 -0.0027816333268548647 -0.018270318717655522
72 0.009281599595712169 -0.0042091602812324444 0.0006671028737996319
79 0.03353091649382724 0.010257621852350508 0.015793253018368855
558 -0.0017067120948247702 -0.000551634837430988 -0.004537747308823327
564 -0.0216831763150081 -0.024631190007935615 0.021364467060636844
563 -0.010742973218491315 0.0008150871892347428 0.013380015026840079
160 -0.011253438786530661 -0.019229868876778067 0.027906205995518067
712 -0.004662563528313569 0.005066814885450671 0.0019292849455187216
711 0.005306295227085546 0.0017397484616829826 -0.0028205603175303446
713 -0.0010240038430883172 -0.0014136676558132407 0.003034174017851597
147 -0.008692425293584573 0.001619336044383408 -0.01450085731903094
402 -0.005893297822032451 -0.009350534132311563 -0.001356096501789399
406 -0.0027698853560496305 -0.015468508902647969 0.0008709490446663758
148 0.005480405580198632 0.013845075699573892 -0.0013416315846368886
710 -0.005495776346196465 0.0013539755474954284 -0.002225994557356339
717 -0.028504688418537254 0.0012023575206252719 0.024508086167423577
542 -0.001733707933867452 0.0025350841349649727 0.0017853366160678957
786 -0.0007853734637071102 -0.004107791893150594 -0.0016750210312879278
785 0.0017436300372334088 0.008403325368708458 -0.004652359383980966
401 0.001504608219668401 -0.0005417082862541354 -0.0014328711920676633
791 0.008428824724398942 0.002329776238339424 -0.029519238371062777
792 -0.0022132662368050874 0.002669480988378415 -0.007067556130679943
790 -0.006302950832967836 -0.008498395026246027 0.011374348736253984
864 8.239315044441532e-05 -0.013499316908270168 0.04923456875901999
1009 0.0042486253663450435 -0.002133230253944038 -0.0008941880077531172
512 -0.012314891800515095 -0.0026646457351476166 -0.017517480237663523
195 0.0005488611868637072 0.0004510799197814388 0.001980282184766031
513 0.0009294059781319305 -0.013987004768375761 0.01090721031220567
511 0.003768169168634204 0.0024342132716151134 0.03965839731991816
505 0.0012092303074922835 0.00459576828274743 -6.311997308295856e-05
66 -0.0032973764605197685 0.0028948936608630253 -0.004841644942028383
506 -0.00822414401897892 -0.0006190843073401533 0.01018600476228328
64 0.005603584558754376 0.0030567103108285454 0.0018812732422119284
63 0.002399605722239852 -0.0019166096576804096 -0.003939139271967574
62 0.007945348937837033 0.0008557459283355056 -0.009094485776631012
61 0.002632003352604592 0.005321296665742541 0.0013672606020525787
508 -0.005035302511150528 -0.003958142704875947 -0.006287485326131402
67 -0.009939758777654484 0.025071925876995863 0.0003139380312944454
1000 -0.0009320476714251894 0.0012338309604738534 0.0015445322495066182
76 -0.0011485223214553213 0.002339638011374454 0.003381283829997975
141 -0.0031983722263464838 -0.000748662084843352 -0.0035107837657006244
1005 -0.0010435862763424682 -0.0018138698548452155 0.0027567402083883224
1006 0.004579138345103501 -0.00162478583351027 -0.00022671885038349693
74 -0.005854035688944883 0.008624220104333126 -0.005964131813226976
73 0.0032885939071776666 -0.0021145485797652193 0.0019225389454330824
150 -0.0011268858384248066 -0.013155024832137215 -0.010415183367476467
142 0.0006798539141716409 0.0022522302214753247 0.0036335160613511605
149 0.006136821686983622 -0.0008450128237792093 -0.007602756797728569
75 -0.0012721709583766968 0.003088325530258047 0.002012209824109242
491 0.0005808349810666432 -0.001615115325157184 -0.019253244998334473
486 -0.010517605733035373 0.006212378698862083 -0.006030314985878736
490 0.014391966634580389 -0.0042419213778356795 0.008649679433489108
1008 0.0015991353009555803 0.0018751953677636085 0.003083199431816473
158 0.019219221063336126 0.008111882787464737 -0.037520227872689015
40 0.002923854995676728 -0.00797498062870775 0.016531088687943018
915 -0.005818984233987549 -0.0006125764187806626 -0.005507013281592791
835 0.004484548221959848 -0.0006585522734241305 0.011920781141669156
439 0.007529855162627324 0.0170591112605958 0.014323754592358946
50 0.017595278028334587 -0.01459220203568711 0.009355397479920247
867 -0.008426131901254852 -0.002832703114074972 -1.8766910438557934e-05
666 0.004474073929969872 0.0011286675900996264 -0.004722127454732891
670 0.008371719035072736 -0.0055585067491097625 -0.015265269273319284
671 -0.013149545452252056 -0.002362036668652022 0.0032524345984475344
665 -0.0006332002991935411 -0.0022339600156498426 0.0011932301106199177
663 0.004398051587588732 0.003526765021246109 -0.002655476355974311
435 0.0005042921778383043 0.008894629346420806 -0.012094663347502378
437 0.002991166835413864 -0.007309895991171132 0.004435018317270539
438 -0.006267844543952035 -0.00022816818287458202 -0.005255474574544354
443 -0.005105023625185745 0.006864824219922997 -0.01056896727820488
444 0.002795424938298176 0.022356607803874717 0.019825178404625193
662 0.00023871312579809667 0.006347018700463147 -0.0004950489118060816
120 0.0020084613816856774 -0.002211957922018779 0.026736279120621344
442 0.01263896513818872 -0.022568888264662763 0.004560941355374559
225 0.0006570229875514032 0.003557392665953135 -0.0024837435656898596
436 0.005072833306650866 -0.006445109117316075 -0.003030854195509514
118 0.02583075452841991 -0.004873899645940224 0.02699999833179105
223 0.0007701200212960888 -0.0036552564751805906 -0.006072107952501804
830 0.00392696783433526 -0.003072591589783579 -0.006762419082004967
433 0.008492572362509533 0.006569956262835118 0.005576982655490939
380 0.0074204296009714905 0.008186095082748356 -0.008735576638545744
861 -0.01636800449140484 0.012534991953237446 0.0006070034068878841
831 -0.0023695430197287998 -0.0026763479288201587 -0.001519840337047542
434 0.003436744935846945 -0.004056855547627577 0.0014773114748137888
108 -0.020232571754639304 -0.0077153405410142276 0.0022359353459208034
102 -0.0009533113432536088 -0.0016498112007997852 0.003447059823011837
379 -0.019372457804278292 -0.019713364400709112 -0.01665432663354994
974 0.0004697036049657247 0.009721724193868613 -0.0028822200168072652
373 0.0007645399543730383 0.006444440925222827 -0.0025175791322132276
375 -0.0012421916774796914 -0.00035863415070723145 -0.0036835381873915217
376 0.0063195630830337746 -0.0035366612684640413 -0.0010679467740830353
381 0.0032146601346943536 -0.025028485820639476 -0.01922997401975684
374 -0.001606767872921894 2.5154807847408475e-05 0.001965969251330682
931 -0.005246290882365281 -0.007210336948620266 0.011691733317717728
1002 0.0011671222990161567 -0.0025187623006118444 0.003471303383753631
110 -0.006305519409068978 -0.01690958135424178 -0.010350936205820557
109 -0.006446774368405705 -0.008443824728511257 0.012140885935322275
833 0.0006408199799888465 0.0003179934453478151 -0.005789183247463462
1001 0.001498758506259414 0.0037227296395581106 -0.001966375360403749
838 0.019548662181790966 -0.010076103234516666 0.009950152533137637
839 0.012173890116616308 0.010544343957916511 0.011079534721124237
669 -0.008528393915122733 0.004022356335116645 -0.01933482045887367
661 -0.00011625107638160702 0.005851995839638567 0.0008317323935924896
844 -0.0020518876136324227 0.0026882766339024933 0.0006338247534266637
667 0.007905906443678638 -0.001609232076277515 0.0051912141033079295
668 -0.0018314456545241253 0.011668775782183196 -0.009825610146056088
556 -0.0009648060823345883 0.0021441244154439348 0.002461447939102918
843 0.006553362777222715 -0.000446447565190083 0.0007444776012529437
847 -0.007525393451339212 0.0016229745170445629 0.0070217032604997
841 0.007956657864184691 -0.0017583399588808465 0.0018869003100914139
849 -0.01536257981628553 -0.015368617862264832 -0.014271596692889457
842 -0.002676055511479484 0.0015236285990484271 -0.00021508382154450552
848 -0.02125920031645778 0.014597211649424352 -0.0072251068104169985
555 -0.0040131771570348276 0.001028993091803532 -0.0030722250553655967
554 -0.003910154344299318 0.0038797381632136446 0.003983130033098186
1004 0.001371099700777605 -0.0031804328758649964 0.0033526377842160115
557 0.0010461610204158956 -0.0009118935832221946 -0.007373193973631456
562 0.009653609898779844 0.003990848874571139 -0.007075890292037307
153 0.0002238446739888059 0.005572408711309169 0.004216266321384202
159 0.02091965965159611 0.0070616497194723555 -0.0196868306728697
709 -0.0107332300548442 -0.008091001727990115 0.009624603912572218
715 0.005028156993279067 0.023155833393970947 0.03277363302137081
863 -0.00044975254501093264 0.005124943811476234 0.00500364159829053
446 0.007604211328354832 -0.0013049243216828124 0.008709330642210711
445 -0.00653249466073346 -0.000983062914001949 0.00828489042500462
453 0.007876505811318485 -0.0023540613049743537 0.00043545026314884656
452 0.003330340050961965 0.0006486385323816534 0.00499898759939674
862 0.014505160168259966 0.001750182636052355 0.013489432714660876
858 -0.007258841413369115 -0.003561581218479071 0.0029338394941447418
856 -0.007199059282313851 0.007137493591246913 0.003853206604307541
860 0.010566728521819238 -0.028084215362914576 0.013089144109909424
854 -0.00010730139510376058 0.005692564273100807 0.0008550961214869448
857 -0.004314779571967813 0.0002052026723242467 0.004556202119994836
859 -0.01480657986997335 -0.01105394330984533 0.026042114637554976
853 0.00531752725046664 -0.006283719124768243 -0.0004608878222170201
855 -0.00860827856848885 0.007569699034070987 0.004453975378996532
959 0.005255153383909165 0.00947281759277878 0.015634792551552614
960 0.008227340658220674 0.014888416308974408 -0.0072720882892367686
347 -0.0014436972549671313 0.013372276077962925 0.006418216028885911
154 -0.00044290123034251133 -0.0012744040873531165 0.003835319754292045
954 -0.004239224333904816 0.006134783639995473 0.003545939659443295
952 0.00911062800028708 0.005900320168692797 0.0004798902266168919
151 0.004368666312793671 -0.004862032377400306 0.0006711787874305481
152 0.006008942552807793 -0.0036982316278387035 0.005858111117614729
156 0.0007154023187305966 0.004404264101390166 0.004541679214617414
157 -0.017430350836832715 -0.00858862809276155 0.0013567166802368636
953 0.0023503165705850066 -0.004467026217826014 0.0007069152975721575
958 -0.0022542140959167954 0.01487476802501418 -0.008024842089844783
951 -0.006132026906587773 0.003426557819900405 0.004812272146135585
441 -0.0012347015641830722 0.002187016238218877 -0.012106476854549514
426 0.0007207875946933301 -0.00265202245442611 0.0016947332393346846
430 -0.01924636104279637 -0.0051898598860387925 0.010843376448683151
431 0.0130406717317498 -0.0339398760841587 -0.019896239304904997
923 0.0011826966545201718 -0.006799725665970356 0.023503088916512576
924 -0.004274197869967877 -0.024768904813977314 0.004840012318005052
135 0.0030439300214496964 0.000701703078254286 0.002231473413881008
136 0.0033436746724556875 0.001283447020043445 0.0011163091237000045
134 -0.0003783050177200138 -0.00018352380344992025 -0.0008712741945366714
783 0.004029155597367157 0.0005609269255737976 -0.0010227090613613545
782 -0.0028213387900086553 -0.00019914990401883456 -0.0010629391664261029
221 0.00280969999930873 0.00018582599955634883 -0.0009659652789220954
226 -0.009566789171321676 -0.003681395941878118 0.003493396533343456
227 -0.0142419825199154 -0.007630719136969143 -0.012669968948210385
229 0.008365877258760363 0.0013140782020752717 0.002742762703072766
993 -0.0019131456139263301 -0.0046634586552924216 -0.0016026088617511632
991 0.0022615062370652983 -0.0026596685177943313 -0.003947203097611353
117 -0.02132924366294059 0.013411852756015011 0.010340136216847314
392 0.008381184709439195 0.005325106801756777 -0.0007018555632326833
119 0.00038125304259678934 0.00808605362293606 -0.012711061235925124
224 -0.006657680292512299 0.002097833698435291 0.006509754936060149
111 0.005572415021156569 -0.00196495805368613 -0.005438417015157366
112 0.005804627098472501 0.0001373443972221176 0.008122763053736076
113 0.0007151796321746863 0.002291239067155963 -0.0008377418864665891
107 -0.009244601447817276 -0.003632764155028438 0.002863846247870497
385 0.007634109656518381 0.01008691317931158 0.013496137812329265
393 -0.03739310867475579 0.0041239640793216716 -0.01970939478655348
391 0.00998825778570568 -0.0039361218671293005 -0.0012760848889733327
222 0.0008439711602122355 -0.006061548086711034 -0.0028215873523498467
388 0.001486855097181151 -0.006395615963124777 -0.002509099956402018
116 -0.0018930632936057024 -0.006770297748673068 0.003578536377124571
114 -0.006919437074925729 0.0031857774970996855 0.0035737091599509115
228 0.014437285265702007 -0.01230563971058159 0.01762086579142597
230 -0.0200514200093413 -0.0017090548157529895 0.01131133154204731
386 -0.0008034445398716292 -0.0021010992510503254 0.0019243232505896514
387 0.00787432802185266 0.0007322172862030374 -0.0036815333200268772
932 -0.0014443413365885335 -0.011053221073845255 -0.035599808062793455
101 -0.0005298190543429283 -0.00022909390437149586 0.00768558555116933
103 0.00525998847723068 0.0010772243756239656 -0.0012278390706609863
104 0.00831959510411826 -0.008991689627742367 -0.0007203609920129735
245 -0.005594870138967005 0.003127067650280534 0.003831807837972439
377 -0.0003932351496617983 0.00023390640500603216 0.0066632201072460385
106 0.0024283680255109586 -0.001345971286421796 0.003949827590503656
382 0.022121386336671312 0.004644523264042215 2.8126771370379732e-05
378 0.005011967617104679 -0.00014537035215762012 0.0024678824206163007
383 -0.003932614441223577 -0.0009127109811890764 -0.005102692337093009
243 -0.011084909236338225 0.0051683698517022625 -0.006502040912516346
925 -0.0100157815034475 0.007950571955931707 -0.01087144941800033
883 -0.019532820442471857 0.005373390295591764 -0.004348942231930492
884 -0.017707761490269 0.01743100459740134 0.01688360635708854
885 0.005308093561289419 -0.002927362827529649 0.01085708919691742
877 -0.0017055082647994013 -0.0017849549281175078 -0.0013461015785872197
244 0.0037164984854290996 0.0012400873902434462 0.0027871175711414683
384 -0.012436568572402055 0.01518191654500591 -0.008772916628394023
389 0.006858197486235503 0.005385717774016737 -0.0035111985677856406
850 -0.014545073814275849 0.004995151416529611 0.009474896700764181
852 0.00833224119681968 -0.009802035124604428 0.008930697034237123
846 -0.002349016205953777 -0.0009591236256249913 -0.004848830319267565
845 0.0011688122798901113 -0.0092523985112366 -0.006482024652222477
553 0.0002503395770259377 0.0002769648555621803 -0.004557119637080128
559 -0.002194630215683399 -0.0028794780500828055 -0.00454945550802724
561 0.021442910798380864 -0.010023945397332102 0.010916986586483783
560 0.00512740476107798 0.009637376165510378 -0.00279433501334764
851 0.012987458535783928 0.02607732905069544 0.005854482833795045
115 -0.004012269202916441 0.0032606928094029318 -0.0014900159502841592
650 0.0030502418706196644 -0.00046746576372699785 0.005680347863838541
751 0.0011362007531795907 -0.03145543006785623 -0.009768050379310207
752 -0.014541289587601161 -0.011118983523895266 -0.008885870845136553
447 0.0004084337712055013 -0.005984217669053234 -0.0052684563727259485
448 0.006976492786233062 -0.004538212819178805 0.0018161496349989605
449 0.001630985431591666 -0.001517841806934496 -0.00455195790258791
450 -0.005961059895056671 -0.0038359174388261507 0.005774700948660924
455 -0.01678695336816931 0.014805596358867761 -0.0011198831507100257
456 0.008432844387675182 0.037015979699702016 0.01171597959174506
260 0.021018362227821472 -0.022975386673480026 0.02242936512992582
259 0.010906192380928284 0.0286669557405655 0.02351026012498654
451 -0.008342451593242404 0.03000018007152761 0.006101801431993731
258 -0.01546827500991581 0.010578227964852817 -0.004909958887052985
257 0.005762957459780504 -0.01744569842288877 -0.014824294136047174
454 -0.00867462866067527 -0.0006216186467625785 -0.025476907610982046
252 0.00679889077025413 0.005823749266041056 -0.008628281778339287
105 -0.001520022037411336 -0.002141396182639035 -0.002637911243071976
246 0.0037843326016361997 0.008245320739637385 -0.002085191685092456
241 0.001571099065897716 0.0013935026352495607 0.0023020162313072334
248 0.0008734555299044287 -0.027653186093908363 0.008030624676706321
247 -0.005962844882738605 -0.01594666343276959 0.0066801317281895995
242 -0.005129251149567466 -0.004656685794034502 0.005606698110942959
249 0.009509744953716457 0.02086613327453066 -0.0013432827062547512
250 0.011077492869982846 0.024509564677000727 -0.005759360288861214
179 -0.021234162105023408 0.00427180599492638 -0.001382020185699531
396 0.014181964575760372 -0.027138694903295815 0.003449830947508762
824 -0.00041124622769122307 -0.009899993994477533 -0.0028338330959066177
155 0.0024458829611317453 -0.004943172155410946 0.0015054384489885532
371 -0.0009366120161165019 0.008650355243674537 -0.018284193576762264
372 0.013520901181737396 0.003964388492961839 -0.033883860325297485
370 0.02544289082228691 -0.03172680899694427 0.006385772710140414
366 -0.00585378713750043 0.0003576207475039029 -0.002605520529095854
823 0.019115153704724785 0.0027518128579644137 -0.005853662534847628
825 -0.02668223176168401 -0.007219522291317999 -0.0010794031205722198
820 -0.00148739056815262 -0.004991044873743215 -0.0018857608908224995
364 -0.003670338986329848 0.001291748632481163 0.007540881788157585
817 0.003238806056978288 -0.002089910643982006 -0.0027308238940340354
365 0.004511073402931632 0.0017248258838283032 -0.003980170307609856
363 -0.0058545703766117825 0.006607273201979377 -0.0045129065848309394
518 0.004075617714803205 -0.005034548570885643 -0.001486683090820766
990 -0.0013851737067634728 -0.006844225704594634 -0.000577153280180294
285 0.005128055632259737 -0.0013527059314342282 0.0034476413220243347
284 -0.001022635508802319 0.0033091375802465272 -0.011368836767548556
286 0.0028460652150072686 0.002138782146532969 0.014554728455856883
55 0.0002340178227260747 -0.0018212536583317996 -0.003749927842338096
634 0.005634743258551084 -0.02268953314680045 0.008121576581788652
53 -0.0053644057170372135 0.0005005164396579199 -0.0034970646784432094
54 -0.006016663013936717 -0.0032700910951457365 0.0009682731892479817
56 0.004220359426941045 -0.0019503848760891198 0.0027392160257175505
58 -0.031153025753385747 -0.0035927987646182406 -0.007565805704823121
60 0.0060077823479872654 0.003965818719207656 -0.01886335871916617
629 -0.005283399280440725 0.001579670818055815 0.004989809539297887
691 0.04189792516748566 0.010795754899743576 -0.00021954751930102035
630 0.005790653067701055 0.00757025036248475 -0.003915542540007988
635 0.00413756270921953 -0.00983491111657548 0.007184781280815158
687 0.0015620233989829342 -4.222367546191921e-05 -0.001260819857580054
689 -0.007696616491106046 -0.00012835335980897943 0.0031682693794832014
688 -0.0067751558944800306 0.007104967376227158 0.0002820744991457732
690 0.000527255800918773 -0.005954541638978096 -0.0010889861377094074
695 0.005966395088556548 0.02519612804320095 0.022432911854637177
686 0.0054446559614134615 0.002000284301984784 0.005613918788257029
685 0.0070621606680397984 -0.0028406878751765017 0.0021574496369398686
281 -0.001655560511244154 -0.001489895367334092 0.006933985724421952
693 -0.02517955229262549 0.016476806984509238 0.020957201988026565
692 0.014579476711022332 -0.012894670242808324 0.02053271306861616
694 -0.0023562219754318745 0.01757327218772698 0.012051447552776704
696 0.002127099543431032 0.016659072967186595 0.007330187802613242
425 -0.0023256023586541493 -0.0045471874799038825 0.008635914393608586
423 0.0009089736484258543 -0.003903893669024937 0.0001865589725088778
288 0.022976526342993048 -0.004931641118156256 0.013675782981473905
287 -0.005783616581090199 -0.008806072124308895 0.016457365201613176
422 -0.005542764261121056 -0.005023846176598607 -0.0003323007091764234
283 -0.0007935216114806296 0.004965597172377806 -0.0038251501382540747
282 0.001562870648651439 -0.003638104023819808 0.00206156191304621
289 -0.04001036113337835 -0.012411177908090947 0.007973309989687651
290 -0.019504616003817407 0.003830572963851412 0.00637378643079811
544 0.0013445232283543285 -0.0011180999639615902 -0.004191330264635824
52 -0.004075160355330751 -0.012864464923274477 -0.00018743283239670575
880 0.000818197432866939 0.0004446935167335378 -0.00662883200538569
568 -0.0005096262155001531 0.00407959575388778 -0.0007998784691041844
239 0.010632769781862499 -0.0008757749140230423 0.02639065668984956
237 0.02306587877330563 0.008605698407987979 0.01430069928731631
878 -0.007771781051097447 0.009097444474746606 0.00659852544665819
2 0.0033302366753994706 -0.01185766612458552 -0.0009424067318211431
7 0.00355635472403879 0.01428651049689742 0.013352284031490561
9 0.022028061449015302 -0.019471748659977764 0.0127101648668416
1 0.00025461038365520597 -0.0018386693099040488 -0.0020766623088405603
3 -0.0024250153542189432 0.001855405533807577 0.002348781221639342
4 0.0027893478805562097 -0.0041796296624201255 -0.0006423921590127285
5 -0.0059700922619851365 0.0021073541530922425 7.221402096966666e-05
231 -0.004817714278337681 -0.008238261382456164 -0.010205677140176447
879 0.00017782027768639268 0.0005240920768820831 0.006102148389717518
6 -0.0027671832399216254 0.0016119660886621747 -0.0033675564104629274
8 -0.004480994132747762 -0.0024060910804323547 0.007661654744627943
881 -0.0004562880635989829 -0.0037655484427498494 -0.0027850853212443476
232 0.0070551491463468575 0.0006910017457340768 -0.002980815509739485
238 -0.0029756542452474707 0.0076806402261739475 -0.0017809450437691727
528 -0.006277098589239331 0.04288493897209713 -0.01213882104587691
567 -0.0003610033381310156 -0.001977358890396553 -0.0033006604869437787
571 0.014617411184171137 0.00011120598283441546 -0.0005654059145767299
882 0.002587410688703229 0.0012403597613699874 0.006100942908831159
888 0.013518006732240795 0.017275721754251905 -0.02324400522995914
886 -0.004028769980841928 0.0076891578676753026 -0.0150447324124251
887 3.836031506213211e-05 0.007376549000659051 0.01483489652955017
236 0.0036278806468735382 -0.0026842991788395766 0.002738932205001702
395 0.046159608313106844 -0.006876887002474773 0.003784454491004503
390 0.0046879017458289745 -0.0032439651822201558 -0.00943213048996947
519 0.0001765660266539337 0.0028867304956786124 0.002863371625327664
526 -0.017189894267199527 -0.015298974747539483 -0.023622814540652817
521 -0.002884618062747008 0.0008582907747628742 -0.003396535800952645
522 -0.0008116175847309942 -0.010801925514746716 -0.001857571653242244
527 0.01298034574926408 0.012021500185404996 0.003884249603525813
565 -0.004792572575572682 0.004691758615772499 0.005227130393409492
572 0.003549359527508168 0.003676278220158825 0.024695813945602475
413 -0.0001325733293325113 -0.0012549607462367608 0.002995355318521664
627 -0.006246743867967368 -0.0013361635785051158 -0.0017426933699414544
655 -0.00722043223430265 -0.013028385280617465 0.021036874408187838
753 0.0028744331939055934 0.0046078764004248976 0.006922736218401865
140 0.004560231764697099 -0.02649944177282878 0.030405916306997096
132 -0.0012709853958623295 -0.000391594763001995 0.00014231592066896832
133 -0.0012183385965767284 -0.001778119520496771 -0.009922550067800039
745 0.003148183455027799 -0.005270316196238305 -0.002425285079283099
233 0.0063172838988458145 -0.0005386770826190796 0.003425543109115473
234 0.00992242717123987 -0.0075966914131002225 0.005000687872501326
235 -0.0008784306205876794 -0.00018753547972078492 -0.0037839833341805442
139 -0.004407582534280948 -0.017658826411225185 0.01174808433520362
625 -0.0007880984792404821 0.0005613146289279823 -0.005191741703921021
632 0.0009014629207530723 0.0007112065297464027 0.015461381169733317
626 0.004058913888632419 0.001208706484178096 -0.008696835397448798
566 0.001785073286746975 -0.0018428446496789842 -0.0004127876179941985
138 -0.008783050456484625 0.019385082038921964 -0.018670984841663057
137 0.018929181121651706 0.0340739915001627 -0.016181308474273643
131 -0.001426368549364445 0.0037753167735307663 0.00043765890918870826
656 0.006988051269783039 0.009825985064902442 -0.015988034438243575
746 0.0008526899691441137 0.0035430756422515403 0.004472628510129962
747 0.007322125951843896 0.0034807593225587253 -0.007261708082221279
749 -0.0027974820903318154 -0.0015425866078937016 0.006524899477606793
748 0.002964077437138909 0.0007304390662122033 0.0024037443654030062
649 0.0013923654221782407 0.0061761773296893875 0.00466439878702792
657 -0.003477122576354253 -0.002652084175645675 0.019037846294471878
754 -0.01009827636018178 -0.020190378089274943 -0.029506536704894993
750 -0.0036609207070740567 0.004725004399844376 -0.0010997097057691952
755 -0.0001227495800027031 0.01013158693068331 -0.017220561648696578
756 0.015517430098921715 -0.004616832760260781 -0.008023966131126891
543 0.0028769925296707566 0.001651593905376732 0.00033212211350388556
251 0.0015094069252868244 -0.003022688771903047 -0.006226769118246249
51 -6.809003053281072e-05 0.0013733633559148016 0.00034145070035380645
57 0.015161559846744228 0.01152591568410504 0.026251821716524244
59 -0.007368763034276064 0.004037932026602927 0.010592363594031666
180 0.0014136440816036842 0.016973814469975486 0.011107441320872383
256 0.006183399423305485 -0.0025141930429437927 0.003545497724433913
172 -0.0003287935240035155 0.0055757222586996155 -0.0016075184116141593
253 2.29113812042067e-05 0.005877546766733183 -0.0016817015986328122
254 -0.0030282300334127216 0.00363471061405315 0.0002974856191825283
552 0.04348251902541465 0.024628406648555208 -0.024890754492560008
255 0.000804680698999154 -0.004000148561970707 -0.007959440135946756
784 -0.0008470343567458887 -0.005114367102185385 0.0007702010029187899
781 -0.0028316103719990635 -0.004444157610648498 -0.00357354315708835
788 -0.005801416887191061 0.0036299246108178053 0.028219243319461598
10 0.009482888326768163 -0.02144808405543555 0.02685439331165984
569 0.002140358728237151 0.004731645689703548 -0.0012117742273008414
576 0.01224982352619126 -0.004387227460639996 0.006175196013605267
178 0.03700744088379942 -0.007702955705729443 0.008174779292436114
394 0.0041847069366623925 0.02359368919159431 0.014607794693611433
570 0.003268586308873487 0.010433030615805855 0.004242033271759474
198 0.015174298180375152 -0.015905346225845062 -0.0039565100798366745
575 0.0012840338334982049 -0.02042376914193767 0.009053509925789396
995 0.0011623923513380944 0.0037071182384196613 0.0037340837363675533
194 0.013567138295130695 0.0017651584470349136 -0.007819565019540016
196 0.0011807923405214305 -0.0034722679416129827 -0.008564855106807226
191 -0.004204388607771622 0.0029411696119690978 0.007565802269767785
197 0.0056324172395776145 0.02073033121303496 0.0027523318478212505
192 0.006843431952311569 -0.0033374514339110694 0.001051043849193932
193 -0.0020551652007768997 -0.0016531890277926573 0.006049484400809987
199 0.011001662909189878 -0.011163099363822886 0.004020250178358467
996 -0.002583526303930486 -0.005230026198630387 0.0006836738841870825
574 0.004692116690882599 -0.01010381499205476 0.026956048389688382
997 -0.00014269942386828312 0.0046043648680511185 0.0005692672980056521
999 0.0016238645960879705 0.002768459130058087 -0.004587058232619
818 0.0007068481979201098 0.006119209042167245 0.0004062043172622192
546 0.004108537485803683 -0.002458911255026571 -0.007993444764094516
550 0.027608391073042783 -0.0090317906905364 0.026300095384513795
367 -0.013235194559715443 0.002153853701609051 0.00564651059497362
361 -0.005418709872428709 -0.0010819421161729823 0.004489583885153772
368 0.012953899833532522 0.026529976339135345 -0.009475788735844778
551 -0.015541219859917096 0.00745836228994262 -0.030026584185218162
545 -0.009922990460428513 -0.0027641494196291093 0.0016600058994106427
707 -0.019657123238881618 0.01530689823613875 0.007823688796194349
369 -0.022426047501400974 -0.019265224749034443 -0.021111343284652483
706 0.009291027160761887 -0.010183032570719225 -0.009242200116920061
702 -0.01195201239271297 0.005278005201594821 0.006043718961484889
708 -0.006226125423996801 -0.02332413606047457 -0.009124456924484277
819 0.0030070214284944855 0.002340428574617379 -0.00544304479351665
701 -0.004610521789665565 -0.004970182384389926 0.002542407921288073
362 0.0046190857417418895 0.0002268340571244014 0.005402433199477709
636 0.009716056983843124 -0.005782925340641992 0.018640509019521165
421 -0.0007894276824234668 -0.0015787062199501235 -0.0021299593450595103
429 0.0191343769124402 0.013220955801249682 -0.011678765818254201
240 0.0014981707337448503 -0.016514569225378025 0.024549540639581605
633 0.02019217546965784 0.003421431246010349 0.006031762962520583
418 0.019645859626801897 -0.011390732454500634 -0.00029056344499994084
419 -0.0030715361857154436 0.011417270328998915 0.0020628783373359116
802 0.0016068839398313002 0.004486449536630702 0.02049065614307687
916 0.0017353836091893943 -0.003842595834237131 -0.007839349862419557
407 -0.0015340090694257152 0.017468384886108614 0.005027114963164271
408 -0.01757764850806835 -0.023610405053714135 -0.029744948799282207
400 0.0036043360895800726 -0.003762335417744384 -0.001942143120506221
778 0.029346433621141924 0.002651040342735913 0.035529252939209194
399 0.0054132852061517115 -0.0012601223103006003 -0.0038868940727558618
779 -0.022971874013393324 0.004407673089601169 -0.009675337046478567
780 0.01006943452984012 -0.004577583980579396 0.03081260052565725
774 0.004977831172381474 0.001751137937797065 -0.005376611854870611
757 -0.004189426727990037 -0.0020544469925904032 0.0018175582344013223
764 0.008654935185389751 -0.018205778537150046 -0.0361315536814438
398 -0.002219565048693052 -0.00394480835938794 0.0024821646251732615
765 0.020506081506065324 0.0015184545008743405 0.013897122665140628
403 0.004995411505825716 0.011134270684307147 -0.010583326749802759
68 -0.003546576476060109 0.007569752326583478 0.017265121610801445
507 -0.005354775057010059 0.004816376782848628 -0.004245392193052427
326 5.621166865652943e-05 0.0021678678553855328 -0.0005133247345062053
327 0.00515289800503966 0.006112953132492038 -0.0008455817850421158
509 -0.004794722024580083 -0.004070951602216006 -0.005303064633100755
510 -0.004566412622713821 -0.004779830101607937 -0.0011899300019825104
516 -0.020840375538959666 0.008854812260685853 -0.0019054588098792072
515 -0.007953809541451367 0.008046238749489109 0.028948814134216124
514 0.01760494065316002 0.006060946728158853 -0.011560179803905621
329 -0.0013465841747428672 -0.0038660341271595107 -0.0037210461073947055
325 0.004750781425040726 0.0077284181326495805 -0.005508853920307903
332 0.008288667566815048 -0.02159161327123718 0.0058050231771183515
331 -0.0040180972142993075 0.005389480803217384 -0.004552522905811578
69 0.030332618236908034 -0.02926943513455031 0.004568955672468762
328 -0.0016317555027098576 -0.002222019519823687 0.004518909855019218
333 0.0382617038050883 -0.03119307009070985 0.008699949904216601
13 0.0016003786886749174 -0.00022858494310111678 -0.0007481261970431347
20 0.012674460188162713 -0.005138082105766088 0.01960713674494678
12 0.006952889302794415 0.0032307041505194502 -0.006284733766957045
19 0.001754025505573602 0.00953358758042507 -0.00343393835136621
397 0.0021705546797425343 -0.0010839262251738692 -0.0010221819892507445
404 -0.006750394656962803 0.007578931017414156 -0.008728842903654659
405 0.026314170319651768 0.025469943174234094 0.014883227695036999
146 -0.005414014226255714 0.0035247217612570186 0.0009952414683534068
758 0.000917318585210686 0.00012660422458874606 -9.419183066287832e-05
70 0.00210403629285432 -0.005474522763521827 0.018880986347041755
144 -0.0012715028657888203 -0.006943315025163618 0.005032827334424096
145 0.004058748326538494 0.0018862429039821938 0.00021792556924448014
143 -0.0044645776847582735 -0.008112953597779969 -0.004177569562969443
296 -0.0027906293576620256 0.0056228400640976695 0.004892946408577899
297 0.004976422861608336 0.0074416317324521655 0.0002488224592436802
298 -0.0022197673513749774 -0.01794291235308953 0.012743361877968094
975 -0.0012764796011548087 0.0015201456533078844 -0.001325802524652213
295 0.009681421805287131 0.002449187750107214 -0.004316838977601118
291 -0.00022278900880937907 -0.002369009532378472 -0.0002235312305819609
293 0.0061017786342031895 -0.004400522238275127 0.0032045595830411575
294 -0.003723243685288075 0.0033404527085154124 0.0027352612015018444
292 0.001073701278989217 0.007555406879042785 -0.007690923452871249
300 -0.009569945061156493 0.012342218002380499 0.01703188597279598
485 0.003120864696060516 -0.0004293182041005396 0.0019977515862289468
492 -0.012118107242671134 0.0017392930170616698 0.0077416797601203595
483 -0.0004140454560825382 0.0015206604368355114 0.006151319767595005
484 0.0072435709752055885 -0.001805461499231215 -0.0023101744880713445
763 -0.019578678556203204 0.008233775035184259 0.001455265005964304
37 -0.0005061739548851375 0.017861395589840994 -0.030462077281241295
39 0.03105676500375815 -0.021447878126227244 -0.017911921312725315
32 0.0010945145393248567 0.003118081719920887 0.0030086822713704655
33 -0.00471470274533709 -0.009480223003803443 0.005732309077659177
31 -0.001960806971530662 0.002403384752615512 -0.0029412527258499
38 -0.008736003937673998 -0.001821993440523042 0.0021506838922381684
189 0.0026302531882101176 -0.004321215796107319 0.006030669600999849
182 0.002016106775180105 0.00759245095006003 0.001012211183724998
183 0.0007580583137589603 0.004002390953587642 0.00039220479984733805
190 -0.010835786109557693 -0.007836898437036605 0.023236777751411915
181 -0.00025220775012030724 -0.004422136716968245 0.005753683184136778
188 0.01190079300251038 -0.006078223886167962 0.01941826257851454
187 -0.010343876548106447 -0.010328792641828663 -0.004886753109489066
184 -0.00530565460122263 -0.0024589334889512527 -0.007079475489584242
186 -0.003838234866891763 -0.005703750621780848 -0.001938073289866644
773 0.004592217811027604 0.002076508772517807 0.001355638622614072
36 0.0028554745341018766 0.004015707314876202 0.001209457141484262
34 0.009908742696173251 -0.005163883971069469 -0.0012462891699381105
35 -0.00024318577607073056 0.008109208073512503 -0.0010778579867732887
740 0.0044076889273127196 0.011445114047254613 -0.01405058858050699
185 -0.002956618654638569 0.006038878629513313 -0.0003984949387119523
741 -0.006270005175391666 -0.0028504669133024995 -0.012153174252904271
603 -0.0046194094674542234 0.0030095140860140345 -0.004141480083132276
733 -0.0008530083394996477 -0.0014363117893971308 -0.0016693495221376514
612 -0.0262195335004748 -0.011473948876514194 0.006509777024664549
538 -0.013316073248896915 -0.0004216196373577302 -0.007895191654435783
868 0.002629602819896672 -0.005649831781294796 0.00506787679418873
611 0.0011278144399315673 -0.01768988699509014 0.005727566306230147
605 -0.0035793871892453766 -0.003087603241494069 0.0009471858224343561
606 -0.005903475050907799 -0.009282145700495298 0.0047878061668796155
610 0.011902581878695282 -0.01496914563790181 0.0008630054234446948
356 -0.00129761076739666 0.022566978105863222 -0.0011512234928159524
919 0.011781204391390623 0.003345362712509046 0.02609339324535189
921 0.007522024786632529 -0.016000558592734127 0.00024340521502500456
623 -0.06331541542325995 0.016606852664358095 0.023772044786363185
624 -0.011715981956541374 0.01593672886008892 0.00876774857976856
913 0.00019623870528121106 0.0006535200707922209 -0.006056107786131379
920 -0.008393341707683697 -0.017176533089229576 -0.0145541924195444
914 0.005428490355523934 -0.006965602303304554 -0.005107184532533655
608 -0.016519075411390947 -0.0066841075246334885 -0.03191091084837528
615 0.0006618186138321955 0.0009084928723290981 0.0027459154019595184
616 -0.008629188170692515 0.0034524578440627432 -0.008468654790274774
617 -0.004604795903554282 -0.005006813814268934 0.00024225392608868306
618 0.0002958754984290557 0.0066061869767490185 -0.0034077783951649296
622 0.0040178980717368 0.0027041273733063734 -0.014650733527825791
614 -0.00044289300599072666 -0.007500777944621498 0.007406338148313207
602 0.003074691576393589 -0.0007313708703245913 -0.00742011452617917
816 0.018810929591067897 0.029154799521114532 0.004006058236028412
814 0.01471373286335429 -0.0003172867432660561 0.004137052611475723
810 -0.0028882497043569433 -0.0022720279948787087 0.003213144395345731
215 -0.002037329480237563 0.0044068737623518435 -0.004704763405366202
815 0.032371497147479805 0.039862362711484016 -0.009324083015972491
128 -0.004117841893118932 0.004538284734906457 -0.012388882346916234
49 0.015384591888751457 0.022305107707248875 0.0047180283309971515
42 -0.0049108736893827085 -0.0027096603403814388 0.004560772844898173
43 -0.00027760937502295595 -0.0038578035017890634 -0.000653798369801674
299 0.017361111867994737 -0.001410478158245241 0.03752143236908065
771 -0.0021569745408693843 -0.00593567321405298 -0.0007542856654164624
770 -0.0028919500563460467 0.0010337732552559505 0.00608281237679775
127 0.03713429359428861 -0.014912779959443609 -0.03290560300430605
772 0.0013261050918624464 -0.0009323155815372903 -0.0003468277718993398
776 -0.0002694796346716444 0.02244439205442499 0.01298982180765704
47 -0.03802140753049079 -0.016935232148137493 0.0037598059572149438
129 0.013697158585631478 -0.018529392605402196 -0.004109114831463571
121 0.0005199208262028628 -0.003175984558419552 0.00013544175353426415
126 0.00014319631363203853 0.003953530541171261 0.0028101190194879627
777 0.01811878067012395 -0.006875816881431946 0.014698525966881731
769 0.006448468154170887 -0.004221839342110521 -0.00029478232583734316
809 -0.0038849426332901904 -0.0027504232718223737 -0.0011803103165591985
130 -0.016803968533968903 -0.006222721543846595 0.0365684940606643
123 0.0010857785161434241 -0.0007697522716140915 0.006915731365146346
122 -0.002561452472496141 -0.00048131273275605984 -0.006429172996449003
124 -0.0018023365285969714 -0.00972918898003377 0.0016240869715830148
125 -0.004811061528218087 0.005686436410618263 -0.001307358938046029
45 -0.0040132345251001015 -0.004779258948368877 0.003626245487906427
48 0.010206567635687716 0.024629495837986366 0.003133662113590659
44 -0.004843118565883876 0.005047514521228669 0.008275019072038411
46 3.0719382403941566e-06 0.0015648556859146543 -0.0026304029260202865
41 -0.004240722036348172 1.0185118524788515e-05 0.007857570311764818
775 0.0006813041907650306 0.0010328374393282428 0.00435662761594199
737 -0.004103740380464835 0.0024215239940021294 -0.006037441949679483
734 -0.0028929227815436605 -0.0012998383289995722 0.0004184846570825405
735 0.003061187252958251 0.002601441960004386 0.002191209930480507
345 0.003719719512598653 -0.022847757017960973 -0.009032659215809511
742 0.014594140364701186 0.016083312174219704 -0.0030894417925966997
680 0.00883500738128653 -0.021056150142114535 0.023587095024125967
743 0.04799912031532532 0.03392950260111906 0.005626566842358905
738 -0.006095907132784353 0.006202850329073162 -0.00474986415025973
869 0.007858095349055716 0.00011714630846144514 -0.0025287919290139147
323 -0.007364493409124399 0.011474738414675256 -0.005041873755459053
928 -0.006115383694219894 -0.004016660102255155 -0.0012552090675431466
834 -0.0016299639741761383 -0.005253012595813154 0.0015641199834985511
840 0.011812215310664516 0.00452839433330997 -0.011744634755345791
716 0.008413829584333208 0.0019432098021376287 -0.0018643370397504403
944 0.018186902252490367 0.017733386142421304 -0.01022531806115548
945 0.02136387102355373 0.0048463461515544795 -0.020511739814715425
938 0.0015623681010180732 -0.004764465522696584 -0.001079494256575167
937 -0.0030837410340788713 -0.0010135361573473895 -0.0003355575076822938
943 -0.007980102790113165 -0.008634687258261765 0.005307253466093293
940 -0.011616428732199001 0.0017977053526828574 -0.012479823909343279
939 0.00738190821600076 0.002182281770489089 0.00034485718431589735
14 0.0010060487597476396 0.001677803645755529 -0.0007957095717073395
11 -0.006276617886040438 0.004009068033967691 0.00029722422266708487
18 -0.017907507419202114 -0.0001971451831787218 0.002501177391900181
17 -0.014444796600328208 0.021209096335194882 0.01179508472477851
16 -0.002388406203104791 -0.0017535341330790523 0.0014177932281884834
482 -0.0035860456033672385 0.0019217655189500355 0.00044424484943134405
340 0.0014048987214001587 0.005600241728798984 -0.0037426066828412834
481 0.00519486486094092 -0.0040056081099478676 -0.00015932474006322025
346 -0.012765204587569823 0.002473682004905527 0.0006286128555225926
348 -0.010221974433168591 -0.00805379088017283 0.004419497508796886
342 -0.0011859823413576057 -0.0011929537229993152 -0.008066154475345099
341 -0.004213530424210325 0.0015934060323749865 -0.005694255727305097
489 0.002652842258169779 0.01535662131510828 0.019759671802809565
339 -0.0023173322541563206 -0.00011168329542076701 0.00031862380101638183
488 0.0045564653167131 -0.03549051309464715 0.020967803501889114
604 -0.0037002593349408585 -0.0009978931804738923 -0.004889006866653881
874 -0.011338885824159381 0.0006741161698449304 -0.0022364076648637332
875 -0.00531798995185091 0.002165054671032195 0.0009302774302934044
870 5.625029604983845e-05 0.0005939814684250851 0.010722262027480615
876 -0.016448110592375872 0.0033545304749220102 -0.014562851867678533
267 0.004446185334688848 0.004175172922508155 -0.01966351534419458
261 0.002294535434526586 0.00014270042612644335 -0.008606522885992916
266 -0.0015827466199432368 0.010277196615698782 -0.0036259316221305187
268 0.025399096665257876 -0.014677848833995632 -0.008575720165688371
269 0.018462307391469174 -0.013383198409251918 0.0032893967813746525
270 0.00661628890450187 -0.022311415283319817 -0.01611412972893357
262 0.001269187222852064 -0.004863656698520806 0.0008491176440803937
344 -0.01646406835568032 -0.03030696909848603 0.005219563301113193
601 -0.0029756229019865144 0.0005895350855397624 -0.0010757900010334017
607 -0.01535403869552836 0.017738682012275495 0.015619717189912745
613 0.001914473732037632 0.006995413863530576 0.002538038155159159
619 0.00516100404848545 -0.019259809714647212 0.008789266525764
621 -0.0011881813495703349 -0.012388000810423887 0.01153227820273018
620 0.0021361894955701497 -0.025271732936836246 -0.005195361914665604
15 0.007010573440376706 0.0044937322183386365 0.006988459159760255
947 -0.015325286351051784 -0.013026784276363362 0.011356158988306922
929 0.0005280893352245463 0.003925071619869513 0.0060078318710339775
935 0.023878029895461964 -0.009173358492293858 0.024966428481459062
609 -0.0035973330190958103 -0.0008429549438130691 -0.021604799789388163
324 -0.011617699922036406 -0.00016650951479484422 0.005897536518536915
322 -0.015189708395062607 -0.001929423948269889 0.007558636664667887
318 0.004459580465523643 0.0021038330020547308 -0.0023161028109786584
948 0.01188499858483974 -0.02376700873747551 0.004332037408257984
941 0.0038916420189271422 -0.006017692215555086 -0.005080546398443328
942 -0.008930184947286706 0.006194535853712051 0.004454049853981619
946 -0.0031201066484475163 -0.012104882309807018 -0.008123277848840017
936 0.0052176597156192335 0.0039890222925050185 0.012983141239475166
927 0.005723764202645942 -0.006612452636840084 -0.0011618396178501786
930 0.0014784207397832614 0.0036363803047707666 0.00423271773255569
934 0.008683919082381537 0.014698922744723845 0.005859395767364855
315 0.0033635724803492482 0.0013400740628125146 -0.0017028629614896363
317 0.0012869799836637565 0.0008609046977291791 0.0014566924788793833
320 -0.006767882857210311 0.01709041045997985 -0.004506031196384925
313 -0.0009600365384323594 -0.0018203020392668584 -0.00037196780072579097
314 -0.008094575636134102 -0.0018275396427098014 -0.001049076397110704
316 0.004917056774084854 0.00041752800308295985 -0.0007993116439972799
319 -0.007317498431242075 -0.02068478882863741 0.01210468893871671
487 0.010363069851992923 0.026647824079438196 0.023757167374447524
343 0.019217342404228555 -0.01363371759449101 -0.03163790935961011
466 -0.019043078638948496 -0.015301335904915439 0.022632595319240795
679 0.013730190153658376 -0.01388065455401784 0.014094009272274489
673 -0.004926191436187689 0.00841014949438163 0.0020088181422681954
675 -0.0023599483986044057 -0.006093697919098153 0.0061748539925611055
681 0.02409213278261323 -0.00044393167541155763 0.011161874152323774
674 -0.0059458337708751625 -0.005882359542961623 0.0004672167172867481
337 0.005245223821711423 0.0026529648602664096 -0.003357692122616752
468 0.014757065032945276 -0.009504136488728422 -0.014739619819761891
462 0.005486337533421604 0.0004940693109334122 0.0032153965562481206
467 0.017597091019560477 -0.025402967373255314 -0.015620864904126104
338 0.0003851958878306784 -0.0019804793812668634 -0.006786594794680157
461 0.004229988328062897 -0.0037002289224969233 -0.0005066472053980593
459 -0.00012239251113604083 -0.0022127055646518384 0.0017250861518023702
739 -0.00929569318377016 -0.011592317330162498 0.025809389641924262
214 -0.003255830629497582 0.0018468991409643766 0.00781359115755532
213 0.002612997907028661 -0.0013745489974110465 -0.0037237569946749834
427 0.02737890467148886 0.008817900508544849 -0.004252741212124138
539 -0.017157682564882315 0.005748721076187152 0.02137187120938699
534 -0.000778374125928451 -0.009547815838338362 0.001394795380593695
540 0.009539911999483775 0.015107887165448452 -0.00025836617683738783
598 0.004943830060332819 0.004803810861271704 -0.006553837397460952
933 0.008491935284863195 -0.01389128053298881 0.005523041263260777
926 -0.008147970639707125 0.0021773670654899767 -0.0020759363205028972
651 -0.0036097246894905128 -0.014605819677536663 -0.006853695570723923
653 6.865649844754375e-05 0.0034433438224433875 0.002265542677252403
889 0.000531071309377217 0.003981655519713571 -0.0017385988166478798
895 0.026538271039210626 0.001981757237696562 0.024304985768070487
892 -0.0016097346501325381 -0.00449741871705964 -0.0016191200367660075
890 -0.005559108402930438 0.00018496471170207146 0.00020053203356167783
891 -0.003575932164578288 0.002360517396742381 -0.009187243191256885
897 -0.023918664177670454 -0.012988947821014181 -0.016568387448462004
494 0.001603403976469418 -0.006056947285951634 -0.0037576004645523543
893 0.0018852598134416123 0.0073307363042833164 -0.006993637542150219
896 0.005204303082225526 -0.007004279818131383 0.0045771047306751925
173 0.0025689600898762223 -0.0012624884498783026 0.00030230187306827907
496 -0.0053333730753730635 -9.463217150295477e-05 -0.0004077178027690475
502 0.0013638319813957863 -0.014987752490976601 0.004874845444354355
497 0.0042608377494021965 0.0004393360488986087 0.004825595191314051
495 -0.0005480917850175753 0.00708316650667884 0.008587605396335598
202 -0.008589217584664088 0.0014862145843469272 -0.001446840575156832
203 0.0038622254691646676 -0.007297822739183329 -0.0037380756424966292
209 0.022442801121532872 -0.005577142241057701 0.005824589538293144
498 -0.007449625731021873 -0.0029289004574216313 -0.00255776992209154
503 0.012268394892519881 0.014074775066565978 -0.0034572810133117913
204 -0.0034768076785282372 0.005095591199744182 -0.004950413397024066
504 -0.007117128393466195 0.026711004196763644 0.04240945755119317
201 -0.0002454990601822018 0.0067688584588394725 0.004463316424766146
206 0.008017174464305445 0.00606762440318781 -0.0034609372421683052
207 -0.008419603812343248 0.012120918105764779 0.007117683918086967
900 -0.005291748229930329 0.0019417658491159187 -0.022656060140069163
894 0.0008355207913981337 0.0030878920849863032 -0.0006684595455020156
899 0.023194175160965884 0.00599559724578002 0.010923013751731058
898 0.018325147051117874 -0.011035451121466826 -0.0047706847075793335
955 -0.016646207388520087 0.0031348017315991194 -0.0020275716950152443
950 -0.002661529128335747 0.0016008093378066712 -0.00037285142428436486
949 -0.0031011947139479024 -6.406130815040636e-05 0.0014767070679918232
957 -0.016237222637136502 -0.009126835242027318 -0.006169025690406817
956 -0.009118866684506196 -0.019664223298359824 0.005000344429585174
992 -0.001978882646859982 -0.0011651182604701536 0.002588398559284268
643 -0.011586945879837779 0.0072331722608823725 -0.004585730457468303
644 -0.014803900788071067 0.012024199079641876 -0.007039612856944973
460 -0.0032422643515284126 -0.0029947583628669684 0.00177503697469078
265 -0.0016579092200595961 -0.0008053856070965103 0.0017598766749338801
979 -0.0009523823241759044 0.014884015435124713 -0.004182577068918931
638 0.004120742896213423 -0.008500547170608113 0.0008478170271025611
264 -0.010876955236487152 0.0003891535084782916 0.001961793755921425
637 0.002475877954689273 -0.0010150474093927747 0.0015018140523702771
645 -0.004070620197246623 0.008145392627845185 -0.0028661744294825983
263 -0.0009345880335600765 -0.0029573911275652086 0.0002060675608907352
465 0.006809808179145189 0.019516164362546023 -0.002978963904207868
463 -0.0029653458074831904 -0.002903294995129628 0.015847266499380213
308 -0.006126248450079717 0.003272346992771129 -0.03630155372670061
457 -0.0023929879896451823 -0.01196249315923251 -0.0037650981741137717
500 0.0014167993788687383 0.02137467315082161 0.010797324310563901
493 0.00077390287208419 0.00518084285680115 -0.0013289886794423998
165 -0.003636869025551132 0.002318739469660474 -0.004622131823975116
499 0.0018855163383599215 0.015679735139975726 0.007343729850421545
501 0.023306382766901758 -0.01957034850425365 -0.007365902622838208
301 -0.005215701668884306 0.007069899731821506 -7.76508866811241e-05
994 0.0020404694554513117 -0.0019695262181708703 -0.006545383004527011
309 0.0018939535421375231 -0.021657021896274255 -0.029899490755092156
517 0.0023609410882090157 0.0016032075609110502 -0.0011090162725849982
525 0.0021991570469227562 -0.009751284720591143 0.0014180557660991107
524 0.0167259165498917 0.011095139063339697 0.0096127128017145
166 -0.0009818601182137803 -0.00032708496386506903 -0.0007305312981736434
168 -0.0011310376347965934 0.01099582835161072 -0.011060331970109525
205 0.010022221893702537 -0.0038723555958638627 0.0016359467589194597
164 -0.0020664861225580668 -0.00441826492813272 0.001966163111453613
161 -0.006528816319442225 -0.005698006664402379 0.0012817149256346095
167 -0.013454338346178997 -0.0016271533052377343 -0.006326796632851445
321 -0.007382574539440566 0.0075648846883730435 0.015266897991956876
170 -0.01625025957015779 0.0079976747007941 0.03154960792158635
162 -0.002308979820428829 0.0019279510714390459 -0.0054596274143535
163 -0.002104078496988581 0.0020804640684054724 -0.010736316100673755
464 -0.0007736272902853548 -0.007758448823516331 0.005993453982968152
658 -0.009464384321832888 -0.001191069151315817 0.003067776937223585
676 -0.0006941940899036595 0.0005459681445883372 -0.0017025905728705684
677 0.003945910848982913 0.0007544245116170542 -0.0003002008477990128
652 -0.002429286173241246 -0.00812372074549658 -0.0031436964003390285
659 -0.005820979186735553 -0.015479659761226816 -0.008553469779416328
654 0.0033214161655416973 -0.0029385694946351243 -0.002630752671744598
660 -0.0005580454200730031 -0.010464079808626283 -0.003469299994844283
682 0.00813077012527634 0.034680497274931096 -0.014763199369337607
678 -0.003617963041545315 -0.0009570267159888813 0.0012738040136233413
684 -0.004561476220720798 0.01188552837568436 0.0033191801555263914
683 -0.02739559622898085 -0.01376633094652087 -0.017115973163146947
458 0.0069377352975273825 0.0004691204676870938 0.0001693418966212337
480 0.0004980965966211665 -0.02130465316004306 0.0019460691892715517
479 -0.01180782818537565 0.02043449770383424 -0.014959577651927052
474 -0.0004529380483772119 -0.0020976222114093565 0.0006229708487248338
478 -0.023379237264259365 -0.03959517964891294 0.014965682084391732
473 0.001995978161040341 -0.002229375902743478 -0.0006591317204325389
520 0.005274930898254026 0.007272886404519071 0.0031851709998902186
596 -0.00801496524962494 0.014713851009204403 -0.0075147595748688125
595 -0.006370783386326796 0.018146172544384154 0.012285354356693208
589 -0.001335253700600695 -0.0004983286990799334 -0.003076502278050063
597 -0.007223586274500307 -0.0036382661851991293 -0.0071040544275307515
592 -0.0030870032721134776 -0.0008074039250438928 0.0006722721328121165
590 -0.0059065007137814925 -0.0005050499475249506 -0.00021454088368443454
175 -0.00047099567157873033 -0.0011298512291854667 0.0007351260383930162
174 0.001824549870896344 -0.00044429548578768524 -0.0028749741384341125
176 0.002752522835641271 -0.005291235406646808 0.004614727175004237
787 0.02752272036593357 0.01842833862568375 0.005523099353633171
272 -0.006358911110827117 -0.002795829873473668 -0.006036082899499464
279 0.011592218087545144 -0.004736416987254768 -0.016166684347712762
280 -0.0038434227531921185 -0.0004246696779935822 -0.019185466751795638
789 0.018752540948603173 -0.00039745049414830716 0.011076996068738434
273 -0.0030488689127190992 -0.0015284821077091346 -0.006912180257643113
271 -0.0020217079161457853 0.0009782093896740223 -0.005036617728971134
278 0.005534630175010508 -0.010071372720122582 -0.019642790189168483
276 0.010582003420412711 0.004316829891428081 -0.0009439750377364746
274 -0.00012339106179576405 -0.0006859916958640485 -0.00820689305537194
277 -0.021642589932637984 0.009386988352994315 0.011871758269105739
591 0.0010292926532142217 -0.003219131287056147 -0.0001940796757557897
210 0.046313092555703615 -0.008070795504569147 -0.004588019697444456
171 0.0025771370267276125 -0.0004004016971787594 0.0023932407428119665
177 -0.0019012193386585593 -0.017886367267974646 -0.003189204345352286
330 0.001511823262669713 -0.005001418744175784 -0.008167056203282473
336 0.02577810048313943 -0.00595065163790143 -0.013788192163664363
334 0.001096074278466532 0.01718268805328582 -0.024038216554399548
335 -0.024376859728407432 -0.028832362786941054 0.011569002090821241
200 -0.014852658379373024 -0.012121737766591763 -0.010700092072667096
998 -0.005943779583134836 -0.00011632441570099168 -0.004939047055764223
353 0.0024210114347058705 0.0005682205485453982 -0.009306499142630778
354 0.003960209819592419 0.001301201739798199 0.004776602758583124
359 0.03260132839398695 -0.023710324062813065 -0.0071874003515427515
358 0.005218133492804483 0.013287393360300697 0.019342746242891506
588 -0.004309125029209469 0.013330460066640518 0.01682316724547212
586 -0.009528037808997213 0.040009180731341125 0.009977343303648053
705 -0.0032125261374565672 0.003380737396778631 -0.031223954316649757
360 -0.012534347389145802 -0.0001469711117580962 -0.004422425442834443
582 0.0011859738461720266 0.0008004506838636198 0.008658978068894046
587 -0.005068259397563085 0.015517935247725625 0.008473452237208362
759 -0.0022581256135374033 -0.005053086272572522 -0.007984543043838539
208 9.621436767096711e-05 0.0038186055120604714 0.034061865809656366
311 -0.028469593000634306 0.013202351246620107 0.001339106058349022
704 -0.0205760172928468 0.0030138542379797733 -0.006101048634451727
760 0.0015322161185676172 0.002966055382744991 -0.0015900866351982333
768 -0.002629009561523338 0.030203003008910566 -0.0005567500034020186
766 -0.0041811217956032815 -0.012523427293948144 0.006577254154376753
828 0.007258254139663737 0.03252871959396775 0.019127332550069074
826 0.02968458103958047 -0.03128369819609538 0.00548113212119841
822 -0.002304711819593839 -0.0018377807029280968 -0.0014236342543065947
821 0.0028686300361829347 0.006044949552141576 0.002384310362690696
761 0.013099154422654222 -0.0030614108561977183 -0.002824565346403747
767 0.013165146198642353 0.0269400766864282 -0.002012511772226516
762 0.0013648027005017998 0.0028376287483207353 -0.007281551451630256
698 -0.005007888657545975 -0.0003664064856397636 0.006795927708465041
697 0.003148525033332075 0.004853302846209873 -0.0031529093484579758
703 -0.01260561912653243 0.0006113188482103536 0.005907313091146323
699 -0.0012631460761559714 0.001719292025734937 -0.0012930184056544874
700 -0.0015404095721770323 0.0055925558536604305 -0.0008785685666380646
827 0.02612676248559347 0.010353961676728205 0.0021252958432396796
1010 -0.005087098502294527 0.0031269700930397514 -0.002760701338196502
302 -0.0073263021546713155 -0.004751755116390394 0.00552406351589559
305 0.0019310748093956224 0.0035944293857073824 -0.0033772302235123
275 -0.003979163261752685 -0.0032987858250329806 0.0012642805579036996
307 0.025669400986067428 0.01481740711177287 0.013427203907045713
535 -0.007297951902794474 0.008649578322261044 0.03758034638416606
303 -0.007205237461863394 -0.0006516171308149502 -0.003762121428783485
639 0.003560775002995736 -0.004268774356642809 0.001537520995532244
536 0.0426166381191114 -0.0005609896851179758 0.017314738581598033
530 0.0037849575518287036 -0.0045323392428243195 -0.0002197384659622856
593 -0.010144121368921174 0.0028235015387543102 0.002130696038734775
599 -0.0024028979447989493 0.00984124534419889 0.012235837769895919
641 -0.0022453469551758677 -0.0025514990054068213 0.0033389790792399993
304 0.002065744284108059 6.424747584222657e-05 -0.006728901839834617
594 -0.003060015373851712 -0.004409454968689142 0.0002881174173248262
600 -0.0037960474077988883 0.019546673582831048 0.025425666845144662
642 -0.005673360877344251 -0.0016347347356751353 -0.0026813905458031423
646 -0.009597946223190112 -0.0007270247208405407 -0.016244589359889768
648 0.02246098207255956 0.007480093927917443 0.005443562517190686
647 -0.023097922089094246 -0.007648671415756877 0.008783383338103216
28 -0.012852929722922212 -0.006744952047979763 0.007168837459040291
532 0.0007392002615446063 0.0038566270357394527 -0.0004859221902595579
640 0.003961960611215396 0.0010276703258430089 0.0005887997633627471
29 -0.009636361462359615 0.008608311115731081 0.010406586314403275
30 0.0022846773997417876 0.008767971875132143 0.01949596372218593
22 -0.006220057858205519 -0.002966937136325196 0.0060700945908032395
21 -0.0012175930081762606 0.0012549871474411575 0.004801471821394144
27 0.024245524969477423 -0.0048754793498585166 0.0055544426724326215
529 0.0056067993404570774 0.007615826160117622 0.006438490139909191
537 0.0012872985397886904 0.016578108441000605 -0.017608745884261527
531 -0.0019524013875485673 -0.0011828366353284095 -0.004834723534556265
23 -0.0016160582658269875 -0.0005152993936369998 0.0032100723772971076
428 0.035229275489538255 -0.0073573020574094865 0.01227025235915125
983 -0.0002497396392931679 -0.005030981001652234 -0.0004995435687745126
533 0.003634212430668257 -0.00032378571221755733 0.00044032952738711845
24 -0.0017838752606932336 -0.0032268068003415114 -0.002549761718065122
420 0.006165765386718685 -0.014459854030855415 -0.0026137953999628115
357 -0.021749810320281462 0.02687732572076804 -0.023040730669494126
349 0.0074403507196936945 0.007334920374361154 0.0011089221059173372
523 -0.024176477295222917 0.01978612899762752 -0.022346155884014052
350 -0.0029850338326886825 0.003483684801824643 -9.521996418725549e-05
351 0.002060136937405057 0.0032155435223646784 0.00022255676185927044
355 0.0012546001752430373 0.00014653360151557367 0.012930464922735752
580 -0.0025744269210157427 -0.0011897395133028453 -0.0016196741225662148
26 -0.0024776109315866276 0.004431548034356811 0.0038877089010921485
169 -0.02989121665046178 0.00831623483958769 0.008412472424568818
93 -0.00021228130487873354 -0.0012312629580713442 -0.008042048106873942
100 0.003902498366156982 -0.013592598525937558 -0.015010546659271342
95 -0.0020413359988708172 0.006579130708264395 0.010272440384620671
94 0.004985305241191964 0.0020585183593910933 0.007011805794684409
92 0.0019107958854794119 0.005851711924754414 -0.0012956035922619669
578 0.004604662889516003 -0.002670920023437989 -0.006739244386149102
99 0.0066631194794410575 -0.00503479979181626 -0.009012809951166583
98 -0.012038806235146006 0.0193657272562316 0.007633878780010698
352 0.0010792491785984065 0.0010457063761068902 -0.0010969896422136278
581 0.0008741322290750493 -0.0017953560149090106 0.0010997968049163216
579 -0.0004446964630172588 0.002737138940475159 -0.00276821577592209
91 0.00494168926568691 -0.005356767802258697 0.0021614036800758274
96 -0.008860239921795186 0.005828004107631706 0.0063622149767093615
97 -0.03902775607338465 -0.0073561090768128196 -0.014942461336380358
25 -0.003982948032223644 -0.005621867995615278 0.0005781040441399987
800 -0.004487137225065643 0.0025595179582447664 0.008886250218563459
801 0.006351895325151181 -0.015127573694627364 0.00412395671229489
793 0.0030255249375676255 -0.0046366086010632725 0.006852734049189263
212 -0.0006658641057450371 0.004367799731303942 0.004219526249726332
219 -0.0007721974869781647 -0.0004564424762728732 0.008089756007629885
220 0.008955951988615261 -0.008812300256971257 -0.012614718008266922
211 -0.002522770215136634 -0.0008276831587679227 -0.002343206939697486
218 -0.0014301095794966691 -0.02595434849781628 -0.011367282071744462
736 -0.0006274896973325391 0.007207650812476842 0.0004042998109321951
631 0.009713484874055123 0.02189506316527616 4.418264320534227e-05
1011 -0.009926398428849868 -0.0039455896829946975 -0.0019275827056068845
414 0.0036365112432476332 0.0021957393364051385 -0.006556025900231323
1013 0.000858650876692942 5.5846279664622623e-05 -0.001550141270003127
306 0.0030973815920781965 -0.0011715047448749003 0.003290288832294585
310 -0.003662481823191692 0.03036328142557456 -0.004437768416015949
216 -0.004499849702424732 -0.0020099322291946956 0.0038309785961712834
794 -0.0005923643828589134 0.0024972173326563876 -0.0040421741110547495
584 0.0037641267644910837 -0.014556570910175379 0.022411973927705362
471 8.79328325232654e-06 0.007006057071445097 -0.0034676880559170106
583 -0.005664098322215708 0.032222819004600056 0.002695371225827536
628 -0.0014993860986437406 0.0035187805597669958 -0.0007578680225818498
217 0.0011811581345724108 0.010117331922941482 0.008774646921979665
799 0.05065322322696859 0.008742451964536668 0.009727048508331868
577 0.0029990929291905622 -0.0033187389150333715 0.0009619799755605618
312 -0.038617647112426934 0.020260943051192883 0.004641755214091648
744 -0.004830913888198182 0.017922221842598004 -0.039325420518830936
470 -0.004062266618004359 0.006122161344307816 0.0032678514335195575
472 0.0015642008484612066 -9.387303192644211e-05 -0.0023528499779724207
1014 0.005512377434234024 -0.00611396961750599 0.000983313977718703
585 0.00344293112597837 0.013890037989707359 -0.008045531250203058
795 0.007271836024910954 -0.0025539604000735776 -0.005033488656571954
475 0.004005891617957604 -0.009262445398836538 -0.011582872808354292
980 0.00238304822146989 -0.0011549915582328252 0.004823920015113871
476 -0.005232545883802812 0.026116343126699602 -0.0042024428124660465
469 -0.0030219396492992255 0.002516068854660756 0.00011406209194731178
803 -0.003215733579255447 -0.0017879740749854381 0.02771008291497149
978 0.005922558411254629 0.004470220028012432 0.011370038717582746
477 -0.0018173786652160716 0.015366192521399683 0.024221718308208375
1012 0.0040718040947781385 0.001173090414819275 0.0021383498728292137
982 -0.004317612267118996 -0.0003064104734819695 0.0016341537151289213
797 0.004054940077786015 -0.0016063006240503747 0.008810154434657188
798 0.0003620798078240392 -0.007512139073565455 0.0026444974024225007
804 -0.026464312417578507 -0.02829780988731152 -0.009209493703775976
796 0.006102558066604129 0.0019166475091401956 0.0004579936254557205
976 0.008934871503155086 -0.0011687522668357815 0.006810366227356612
981 -0.0028332040382643155 0.01487841495988466 0.001783011334887102
984 0.005889775010212022 0.005278735495838348 -0.004148074884135706

Bonds

1 1 81 82
2 2 81 86
3 3 81 87
4 3 81 88
5 2 82 83
6 3 82 89
7 3 82 90
8 4 83 84
9 5 84 85
10 4 84 86
11 6 985 986
12 6 986 987
13 6 986 988
14 6 986 989
15 2 865 866
16 3 865 871
17 3 865 872
18 3 865 873
19 2 541 542
20 3 541 547
21 3 541 548
22 3 541 549
23 3 714 718
24 3 714 719
25 3 714 720
26 4 866 867
27 2 961 962
28 3 961 967
29 3 961 968
30 3 961 969
31 2 725 726
32 5 723 724
33 4 723 725
34 4 962 963
35 5 963 964
36 4 963 965
37 4 722 723
38 2 721 722
39 3 721 727
40 3 721 728
41 3 721 729
42 3 726 730
43 3 726 731
44 3 726 732
45 2 965 966
46 3 966 970
47 3 966 971
48 3 966 972
49 2 917 918
50 2 829 830
51 3 829 835
52 3 829 836
53 3 829 837
54 3 918 922
55 3 918 923
56 3 918 924
57 5 807 808
58 4 807 809
59 2 805 806
60 3 805 811
61 3 805 812
62 3 805 813
63 4 806 807
64 2 409 410
65 3 409 415
66 3 409 416
67 3 409 417
68 4 410 411
69 5 411 412
70 4 411 413
71 1 71 72
72 2 71 76
73 3 71 77
74 3 71 78
75 3 906 910
76 3 906 911
77 3 906 912
78 2 905 906
79 4 902 903
80 5 903 904
81 4 903 905
82 2 901 902
83 3 901 907
84 3 901 908
85 3 901 909
86 2 72 73
87 3 72 79
88 3 72 80
89 3 558 562
90 3 558 563
91 3 558 564
92 5 711 712
93 4 711 713
94 2 713 714
95 3 402 406
96 3 402 407
97 3 402 408
98 4 710 711
99 4 542 543
100 3 786 790
101 3 786 791
102 3 786 792
103 2 785 786
104 2 401 402
105 2 505 506
106 3 505 511
107 3 505 512
108 3 505 513
109 4 506 507
110 5 64 65
111 4 64 66
112 4 63 64
113 2 62 63
114 3 62 69
115 3 62 70
116 1 61 62
117 2 61 66
118 3 61 67
119 3 61 68
120 6 1000 1001
121 1 141 142
122 2 141 146
123 3 141 147
124 3 141 148
125 6 1005 1006
126 6 1006 1007
127 6 1006 1008
128 6 1006 1009
129 5 74 75
130 4 74 76
131 4 73 74
132 2 142 143
133 3 142 149
134 3 142 150
135 3 486 490
136 3 486 491
137 3 486 492
138 5 915 916
139 4 915 917
140 5 867 868
141 4 867 869
142 3 666 670
143 3 666 671
144 3 666 672
145 2 665 666
146 5 663 664
147 4 663 665
148 5 435 436
149 4 435 437
150 2 437 438
151 3 438 442
152 3 438 443
153 3 438 444
154 4 662 663
155 4 223 224
156 4 830 831
157 2 433 434
158 3 433 439
159 3 433 440
160 3 433 441
161 5 831 832
162 4 831 833
163 4 434 435
164 2 102 103
165 3 102 109
166 3 102 110
167 2 373 374
168 3 373 379
169 3 373 380
170 3 373 381
171 5 375 376
172 4 375 377
173 4 374 375
174 2 833 834
175 6 1001 1002
176 6 1001 1003
177 6 1001 1004
178 2 661 662
179 3 661 667
180 3 661 668
181 3 661 669
182 5 843 844
183 4 843 845
184 2 841 842
185 3 841 847
186 3 841 848
187 3 841 849
188 4 842 843
189 5 555 556
190 4 555 557
191 4 554 555
192 2 557 558
193 4 153 154
194 2 709 710
195 3 709 715
196 3 709 716
197 3 709 717
198 4 446 447
199 2 445 446
200 3 445 451
201 3 445 452
202 3 445 453
203 3 858 862
204 3 858 863
205 3 858 864
206 4 854 855
207 2 857 858
208 2 853 854
209 3 853 859
210 3 853 860
211 3 853 861
212 5 855 856
213 4 855 857
214 5 154 155
215 4 154 156
216 3 954 958
217 3 954 959
218 3 954 960
219 1 151 152
220 2 151 156
221 3 151 157
222 3 151 158
223 2 152 153
224 3 152 159
225 3 152 160
226 2 953 954
227 5 951 952
228 4 951 953
229 3 426 430
230 3 426 431
231 3 426 432
232 5 134 135
233 4 134 136
234 5 783 784
235 4 783 785
236 4 782 783
237 1 221 222
238 2 221 226
239 3 221 227
240 3 221 228
241 6 991 992
242 6 991 993
243 6 991 994
244 5 224 225
245 4 224 226
246 1 111 112
247 2 111 116
248 3 111 117
249 3 111 118
250 2 112 113
251 3 112 119
252 3 112 120
253 4 113 114
254 2 385 386
255 3 385 391
256 3 385 392
257 3 385 393
258 2 222 223
259 3 222 229
260 3 222 230
261 5 114 115
262 4 114 116
263 4 386 387
264 5 387 388
265 4 387 389
266 1 101 102
267 2 101 106
268 3 101 107
269 3 101 108
270 4 103 104
271 5 104 105
272 4 104 106
273 2 377 378
274 3 378 382
275 3 378 383
276 3 378 384
277 4 243 244
278 2 925 926
279 3 925 931
280 3 925 932
281 3 925 933
282 2 877 878
283 3 877 883
284 3 877 884
285 3 877 885
286 5 244 245
287 4 244 246
288 2 389 390
289 3 846 850
290 3 846 851
291 3 846 852
292 2 845 846
293 2 553 554
294 3 553 559
295 3 553 560
296 3 553 561
297 4 650 651
298 5 447 448
299 4 447 449
300 2 449 450
301 3 450 454
302 3 450 455
303 3 450 456
304 2 252 253
305 3 252 259
306 3 252 260
307 1 241 242
308 2 241 246
309 3 241 247
310 3 241 248
311 2 242 243
312 3 242 249
313 3 242 250
314 3 366 370
315 3 366 371
316 3 366 372
317 2 817 818
318 3 817 823
319 3 817 824
320 3 817 825
321 2 365 366
322 5 363 364
323 4 363 365
324 4 518 519
325 6 990 991
326 5 284 285
327 4 284 286
328 4 53 54
329 5 54 55
330 4 54 56
331 2 629 630
332 3 630 634
333 3 630 635
334 3 630 636
335 5 687 688
336 4 687 689
337 2 689 690
338 3 690 694
339 3 690 695
340 3 690 696
341 4 686 687
342 2 685 686
343 3 685 691
344 3 685 692
345 3 685 693
346 1 281 282
347 2 281 286
348 3 281 287
349 3 281 288
350 2 425 426
351 5 423 424
352 4 423 425
353 4 422 423
354 4 283 284
355 2 282 283
356 3 282 289
357 3 282 290
358 2 52 53
359 3 52 59
360 3 52 60
361 4 878 879
362 2 2 3
363 3 2 9
364 3 2 10
365 1 1 2
366 2 1 6
367 3 1 7
368 3 1 8
369 4 3 4
370 5 4 5
371 4 4 6
372 1 231 232
373 2 231 236
374 3 231 237
375 3 231 238
376 5 879 880
377 4 879 881
378 2 881 882
379 2 232 233
380 3 232 239
381 3 232 240
382 5 567 568
383 4 567 569
384 3 882 886
385 3 882 887
386 3 882 888
387 3 390 394
388 3 390 395
389 3 390 396
390 5 519 520
391 4 519 521
392 2 521 522
393 3 522 526
394 3 522 527
395 3 522 528
396 2 565 566
397 3 565 571
398 3 565 572
399 3 565 573
400 2 413 414
401 5 627 628
402 4 627 629
403 2 132 133
404 3 132 139
405 3 132 140
406 4 133 134
407 2 745 746
408 3 745 751
409 3 745 752
410 3 745 753
411 4 233 234
412 5 234 235
413 4 234 236
414 2 625 626
415 3 625 631
416 3 625 632
417 3 625 633
418 4 626 627
419 4 566 567
420 1 131 132
421 2 131 136
422 3 131 137
423 3 131 138
424 4 746 747
425 5 747 748
426 4 747 749
427 2 749 750
428 2 649 650
429 3 649 655
430 3 649 656
431 3 649 657
432 3 750 754
433 3 750 755
434 3 750 756
435 5 543 544
436 4 543 545
437 1 251 252
438 2 251 256
439 3 251 257
440 3 251 258
441 1 51 52
442 2 51 56
443 3 51 57
444 3 51 58
445 2 172 173
446 3 172 179
447 3 172 180
448 4 253 254
449 5 254 255
450 4 254 256
451 2 781 782
452 3 781 787
453 3 781 788
454 3 781 789
455 2 569 570
456 3 570 574
457 3 570 575
458 3 570 576
459 6 995 996
460 5 194 195
461 4 194 196
462 1 191 192
463 2 191 196
464 3 191 197
465 3 191 198
466 2 192 193
467 3 192 199
468 3 192 200
469 4 193 194
470 6 996 997
471 6 996 998
472 6 996 999
473 4 818 819
474 3 546 550
475 3 546 551
476 3 546 552
477 2 361 362
478 3 361 367
479 3 361 368
480 3 361 369
481 2 545 546
482 3 702 706
483 3 702 707
484 3 702 708
485 5 819 820
486 4 819 821
487 2 701 702
488 4 362 363
489 2 421 422
490 3 421 427
491 3 421 428
492 3 421 429
493 5 399 400
494 4 399 401
495 3 774 778
496 3 774 779
497 3 774 780
498 2 757 758
499 3 757 763
500 3 757 764
501 3 757 765
502 4 398 399
503 5 507 508
504 4 507 509
505 4 326 327
506 5 327 328
507 4 327 329
508 2 509 510
509 3 510 514
510 3 510 515
511 3 510 516
512 2 329 330
513 2 325 326
514 3 325 331
515 3 325 332
516 3 325 333
517 4 13 14
518 2 12 13
519 3 12 19
520 3 12 20
521 2 397 398
522 3 397 403
523 3 397 404
524 3 397 405
525 4 758 759
526 5 144 145
527 4 144 146
528 4 143 144
529 1 291 292
530 2 291 296
531 3 291 297
532 3 291 298
533 4 293 294
534 5 294 295
535 4 294 296
536 2 292 293
537 3 292 299
538 3 292 300
539 2 485 486
540 5 483 484
541 4 483 485
542 2 32 33
543 3 32 39
544 3 32 40
545 4 33 34
546 1 31 32
547 2 31 36
548 3 31 37
549 3 31 38
550 2 182 183
551 3 182 189
552 3 182 190
553 4 183 184
554 1 181 182
555 2 181 186
556 3 181 187
557 3 181 188
558 5 184 185
559 4 184 186
560 2 773 774
561 5 34 35
562 4 34 36
563 5 603 604
564 4 603 605
565 2 733 734
566 3 733 739
567 3 733 740
568 3 733 741
569 2 605 606
570 3 606 610
571 3 606 611
572 3 606 612
573 2 913 914
574 3 913 919
575 3 913 920
576 3 913 921
577 4 914 915
578 5 615 616
579 4 615 617
580 2 617 618
581 3 618 622
582 3 618 623
583 3 618 624
584 4 614 615
585 4 602 603
586 3 810 814
587 3 810 815
588 3 810 816
589 2 42 43
590 3 42 49
591 3 42 50
592 4 43 44
593 5 771 772
594 4 771 773
595 4 770 771
596 1 121 122
597 2 121 126
598 3 121 127
599 3 121 128
600 2 769 770
601 3 769 775
602 3 769 776
603 3 769 777
604 2 809 810
605 4 123 124
606 2 122 123
607 3 122 129
608 3 122 130
609 5 124 125
610 4 124 126
611 5 44 45
612 4 44 46
613 1 41 42
614 2 41 46
615 3 41 47
616 3 41 48
617 2 737 738
618 4 734 735
619 5 735 736
620 4 735 737
621 3 738 742
622 3 738 743
623 3 738 744
624 2 869 870
625 3 834 838
626 3 834 839
627 3 834 840
628 4 938 939
629 2 937 938
630 3 937 943
631 3 937 944
632 3 937 945
633 5 939 940
634 4 939 941
635 5 14 15
636 4 14 16
637 1 11 12
638 2 11 16
639 3 11 17
640 3 11 18
641 4 482 483
642 2 481 482
643 3 481 487
644 3 481 488
645 3 481 489
646 3 342 346
647 3 342 347
648 3 342 348
649 2 341 342
650 5 339 340
651 4 339 341
652 3 870 874
653 3 870 875
654 3 870 876
655 1 261 262
656 2 261 266
657 3 261 267
658 3 261 268
659 2 262 263
660 3 262 269
661 3 262 270
662 2 601 602
663 3 601 607
664 3 601 608
665 3 601 609
666 2 613 614
667 3 613 619
668 3 613 620
669 3 613 621
670 2 929 930
671 3 318 322
672 3 318 323
673 3 318 324
674 2 941 942
675 3 942 946
676 3 942 947
677 3 942 948
678 5 927 928
679 4 927 929
680 3 930 934
681 3 930 935
682 3 930 936
683 5 315 316
684 4 315 317
685 2 317 318
686 2 313 314
687 3 313 319
688 3 313 320
689 3 313 321
690 4 314 315
691 2 673 674
692 3 673 679
693 3 673 680
694 3 673 681
695 5 675 676
696 4 675 677
697 4 674 675
698 2 337 338
699 3 337 343
700 3 337 344
701 3 337 345
702 3 462 466
703 3 462 467
704 3 462 468
705 4 338 339
706 2 461 462
707 5 459 460
708 4 459 461
709 5 214 215
710 4 214 216
711 4 213 214
712 3 534 538
713 3 534 539
714 3 534 540
715 4 926 927
716 5 651 652
717 4 651 653
718 2 653 654
719 2 889 890
720 3 889 895
721 3 889 896
722 3 889 897
723 4 890 891
724 5 891 892
725 4 891 893
726 4 494 495
727 2 893 894
728 4 173 174
729 2 497 498
730 5 495 496
731 4 495 497
732 2 202 203
733 3 202 209
734 3 202 210
735 4 203 204
736 3 498 502
737 3 498 503
738 3 498 504
739 5 204 205
740 4 204 206
741 1 201 202
742 2 201 206
743 3 201 207
744 3 201 208
745 3 894 898
746 3 894 899
747 3 894 900
748 4 950 951
749 2 949 950
750 3 949 955
751 3 949 956
752 3 949 957
753 4 638 639
754 5 264 265
755 4 264 266
756 2 637 638
757 3 637 643
758 3 637 644
759 3 637 645
760 4 263 264
761 2 457 458
762 3 457 463
763 3 457 464
764 3 457 465
765 2 493 494
766 3 493 499
767 3 493 500
768 3 493 501
769 2 301 302
770 3 301 307
771 3 301 308
772 3 301 309
773 2 517 518
774 3 517 523
775 3 517 524
776 3 517 525
777 5 164 165
778 4 164 166
779 1 161 162
780 2 161 166
781 3 161 167
782 3 161 168
783 2 162 163
784 3 162 169
785 3 162 170
786 4 163 164
787 2 677 678
788 3 654 658
789 3 654 659
790 3 654 660
791 3 678 682
792 3 678 683
793 3 678 684
794 4 458 459
795 3 474 478
796 3 474 479
797 3 474 480
798 2 473 474
799 2 589 590
800 3 589 595
801 3 589 596
802 3 589 597
803 4 590 591
804 5 174 175
805 4 174 176
806 2 272 273
807 3 272 279
808 3 272 280
809 4 273 274
810 1 271 272
811 2 271 276
812 3 271 277
813 3 271 278
814 5 274 275
815 4 274 276
816 5 591 592
817 4 591 593
818 1 171 172
819 2 171 176
820 3 171 177
821 3 171 178
822 3 330 334
823 3 330 335
824 3 330 336
825 2 353 354
826 3 354 358
827 3 354 359
828 3 354 360
829 3 582 586
830 3 582 587
831 3 582 588
832 5 759 760
833 4 759 761
834 3 822 826
835 3 822 827
836 3 822 828
837 2 821 822
838 2 761 762
839 3 762 766
840 3 762 767
841 3 762 768
842 4 698 699
843 2 697 698
844 3 697 703
845 3 697 704
846 3 697 705
847 5 699 700
848 4 699 701
849 6 1010 1011
850 4 302 303
851 2 305 306
852 5 303 304
853 4 303 305
854 5 639 640
855 4 639 641
856 4 530 531
857 2 593 594
858 2 641 642
859 3 594 598
860 3 594 599
861 3 594 600
862 3 642 646
863 3 642 647
864 3 642 648
865 2 22 23
866 3 22 29
867 3 22 30
868 1 21 22
869 2 21 26
870 3 21 27
871 3 21 28
872 2 529 530
873 3 529 535
874 3 529 536
875 3 529 537
876 5 531 532
877 4 531 533
878 4 23 24
879 2 533 534
880 5 24 25
881 4 24 26
882 2 349 350
883 3 349 355
884 3 349 356
885 3 349 357
886 4 350 351
887 5 351 352
888 4 351 353
889 4 93 94
890 5 94 95
891 4 94 96
892 2 92 93
893 3 92 99
894 3 92 100
895 4 578 579
896 2 581 582
897 5 579 580
898 4 579 581
899 1 91 92
900 2 91 96
901 3 91 97
902 3 91 98
903 2 793 794
904 3 793 799
905 3 793 800
906 3 793 801
907 2 212 213
908 3 212 219
909 3 212 220
910 1 211 212
911 2 211 216
912 3 211 217
913 3 211 218
914 6 1011 1012
915 6 1011 1013
916 6 1011 1014
917 3 414 418
918 3 414 419
919 3 414 420
920 3 306 310
921 3 306 311
922 3 306 312
923 4 794 795
924 5 471 472
925 4 471 473
926 2 577 578
927 3 577 583
928 3 577 584
929 3 577 585
930 4 470 471
931 5 795 796
932 4 795 797
933 6 980 981
934 2 469 470
935 3 469 475
936 3 469 476
937 3 469 477
938 2 797 798
939 3 798 802
940 3 798 803
941 3 798 804
942 6 981 982
943 6 981 983
944 6 981 984

Angles

1 1 82 81 86
2 2 82 81 87
3 2 82 81 88
4 2 86 81 87
5 2 86 81 88
6 4 87 81 88
7 1 81 82 83
8 2 81 82 89
9 2 81 82 90
10 2 83 82 89
11 2 83 82 90
12 4 89 82 90
13 1 82 83 84
14 3 83 84 85
15 1 83 84 86
16 3 85 84 86
17 1 81 86 84
18 7 985 986 987
19 7 985 986 988
20 7 985 986 989
21 7 987 986 988
22 7 987 986 989
23 7 988 986 989
24 2 866 865 871
25 2 866 865 872
26 2 866 865 873
27 4 871 865 872
28 4 871 865 873
29 4 872 865 873
30 2 542 541 547
31 2 542 541 548
32 2 542 541 549
33 4 547 541 548
34 4 547 541 549
35 4 548 541 549
36 2 713 714 718
37 2 713 714 719
38 2 713 714 720
39 4 718 714 719
40 4 718 714 720
41 4 719 714 720
42 5 865 866 867
43 2 962 961 967
44 2 962 961 968
45 2 962 961 969
46 4 967 961 968
47 4 967 961 969
48 4 968 961 969
49 5 723 725 726
50 3 722 723 724
51 6 722 723 725
52 3 724 723 725
53 5 961 962 963
54 3 962 963 964
55 6 962 963 965
56 3 964 963 965
57 5 721 722 723
58 2 722 721 727
59 2 722 721 728
60 2 722 721 729
61 4 727 721 728
62 4 727 721 729
63 4 728 721 729
64 2 725 726 730
65 2 725 726 731
66 2 725 726 732
67 4 730 726 731
68 4 730 726 732
69 4 731 726 732
70 5 963 965 966
71 2 965 966 970
72 2 965 966 971
73 2 965 966 972
74 4 970 966 971
75 4 970 966 972
76 4 971 966 972
77 5 915 917 918
78 2 830 829 835
79 2 830 829 836
80 2 830 829 837
81 4 835 829 836
82 4 835 829 837
83 4 836 829 837
84 2 917 918 922
85 2 917 918 923
86 2 917 918 924
87 4 922 918 923
88 4 922 918 924
89 4 923 918 924
90 3 806 807 808
91 6 806 807 809
92 3 808 807 809
93 2 806 805 811
94 2 806 805 812
95 2 806 805 813
96 4 811 805 812
97 4 811 805 813
98 4 812 805 813
99 5 805 806 807
100 2 410 409 415
101 2 410 409 416
102 2 410 409 417
103 4 415 409 416
104 4 415 409 417
105 4 416 409 417
106 5 409 410 411
107 3 410 411 412
108 6 410 411 413
109 3 412 411 413
110 1 72 71 76
111 2 72 71 77
112 2 72 71 78
113 2 76 71 77
114 2 76 71 78
115 4 77 71 78
116 2 905 906 910
117 2 905 906 911
118 2 905 906 912
119 4 910 906 911
120 4 910 906 912
121 4 911 906 912
122 5 903 905 906
123 5 901 902 903
124 3 902 903 904
125 6 902 903 905
126 3 904 903 905
127 2 902 901 907
128 2 902 901 908
129 2 902 901 909
130 4 907 901 908
131 4 907 901 909
132 4 908 901 909
133 1 71 72 73
134 2 71 72 79
135 2 71 72 80
136 2 73 72 79
137 2 73 72 80
138 4 79 72 80
139 2 557 558 562
140 2 557 558 563
141 2 557 558 564
142 4 562 558 563
143 4 562 558 564
144 4 563 558 564
145 3 710 711 712
146 6 710 711 713
147 3 712 711 713
148 5 711 713 714
149 2 401 402 406
150 2 401 402 407
151 2 401 402 408
152 4 406 402 407
153 4 406 402 408
154 4 407 402 408
155 5 709 710 711
156 5 541 542 543
157 2 785 786 790
158 2 785 786 791
159 2 785 786 792
160 4 790 786 791
161 4 790 786 792
162 4 791 786 792
163 5 783 785 786
164 5 399 401 402
165 2 506 505 511
166 2 506 505 512
167 2 506 505 513
168 4 511 505 512
169 4 511 505 513
170 4 512 505 513
171 1 61 66 64
172 5 505 506 507
173 3 63 64 65
174 1 63 64 66
175 3 65 64 66
176 1 62 63 64
177 1 61 62 63
178 2 61 62 69
179 2 61 62 70
180 2 63 62 69
181 2 63 62 70
182 4 69 62 70
183 1 62 61 66
184 2 62 61 67
185 2 62 61 68
186 2 66 61 67
187 2 66 61 68
188 4 67 61 68
189 1 71 76 74
190 1 142 141 146
191 2 142 141 147
192 2 142 141 148
193 2 146 141 147
194 2 146 141 148
195 4 147 141 148
196 7 1005 1006 1007
197 7 1005 1006 1008
198 7 1005 1006 1009
199 7 1007 1006 1008
200 7 1007 1006 1009
201 7 1008 1006 1009
202 3 73 74 75
203 1 73 74 76
204 3 75 74 76
205 1 72 73 74
206 1 141 142 143
207 2 141 142 149
208 2 141 142 150
209 2 143 142 149
210 2 143 142 150
211 4 149 142 150
212 2 485 486 490
213 2 485 486 491
214 2 485 486 492
215 4 490 486 491
216 4 490 486 492
217 4 491 486 492
218 3 914 915 916
219 6 914 915 917
220 3 916 915 917
221 3 866 867 868
222 6 866 867 869
223 3 868 867 869
224 2 665 666 670
225 2 665 666 671
226 2 665 666 672
227 4 670 666 671
228 4 670 666 672
229 4 671 666 672
230 5 663 665 666
231 3 662 663 664
232 6 662 663 665
233 3 664 663 665
234 3 434 435 436
235 6 434 435 437
236 3 436 435 437
237 5 435 437 438
238 2 437 438 442
239 2 437 438 443
240 2 437 438 444
241 4 442 438 443
242 4 442 438 444
243 4 443 438 444
244 5 661 662 663
245 1 222 223 224
246 5 829 830 831
247 2 434 433 439
248 2 434 433 440
249 2 434 433 441
250 4 439 433 440
251 4 439 433 441
252 4 440 433 441
253 3 830 831 832
254 6 830 831 833
255 3 832 831 833
256 5 433 434 435
257 1 101 102 103
258 2 101 102 109
259 2 101 102 110
260 2 103 102 109
261 2 103 102 110
262 4 109 102 110
263 2 374 373 379
264 2 374 373 380
265 2 374 373 381
266 4 379 373 380
267 4 379 373 381
268 4 380 373 381
269 3 374 375 376
270 6 374 375 377
271 3 376 375 377
272 5 373 374 375
273 5 831 833 834
274 7 1000 1001 1002
275 7 1000 1001 1003
276 7 1000 1001 1004
277 7 1002 1001 1003
278 7 1002 1001 1004
279 7 1003 1001 1004
280 2 662 661 667
281 2 662 661 668
282 2 662 661 669
283 4 667 661 668
284 4 667 661 669
285 4 668 661 669
286 3 842 843 844
287 6 842 843 845
288 3 844 843 845
289 2 842 841 847
290 2 842 841 848
291 2 842 841 849
292 4 847 841 848
293 4 847 841 849
294 4 848 841 849
295 5 841 842 843
296 3 554 555 556
297 6 554 555 557
298 3 556 555 557
299 5 553 554 555
300 5 555 557 558
301 1 152 153 154
302 2 710 709 715
303 2 710 709 716
304 2 710 709 717
305 4 715 709 716
306 4 715 709 717
307 4 716 709 717
308 5 445 446 447
309 2 446 445 451
310 2 446 445 452
311 2 446 445 453
312 4 451 445 452
313 4 451 445 453
314 4 452 445 453
315 2 857 858 862
316 2 857 858 863
317 2 857 858 864
318 4 862 858 863
319 4 862 858 864
320 4 863 858 864
321 5 853 854 855
322 5 855 857 858
323 2 854 853 859
324 2 854 853 860
325 2 854 853 861
326 4 859 853 860
327 4 859 853 861
328 4 860 853 861
329 3 854 855 856
330 6 854 855 857
331 3 856 855 857
332 3 153 154 155
333 1 153 154 156
334 3 155 154 156
335 2 953 954 958
336 2 953 954 959
337 2 953 954 960
338 4 958 954 959
339 4 958 954 960
340 4 959 954 960
341 1 152 151 156
342 2 152 151 157
343 2 152 151 158
344 2 156 151 157
345 2 156 151 158
346 4 157 151 158
347 1 151 152 153
348 2 151 152 159
349 2 151 152 160
350 2 153 152 159
351 2 153 152 160
352 4 159 152 160
353 1 151 156 154
354 5 951 953 954
355 3 950 951 952
356 6 950 951 953
357 3 952 951 953
358 2 425 426 430
359 2 425 426 431
360 2 425 426 432
361 4 430 426 431
362 4 430 426 432
363 4 431 426 432
364 1 131 136 134
365 3 133 134 135
366 1 133 134 136
367 3 135 134 136
368 3 782 783 784
369 6 782 783 785
370 3 784 783 785
371 5 781 782 783
372 1 222 221 226
373 2 222 221 227
374 2 222 221 228
375 2 226 221 227
376 2 226 221 228
377 4 227 221 228
378 1 221 226 224
379 7 990 991 992
380 7 990 991 993
381 7 990 991 994
382 7 992 991 993
383 7 992 991 994
384 7 993 991 994
385 3 223 224 225
386 1 223 224 226
387 3 225 224 226
388 1 112 111 116
389 2 112 111 117
390 2 112 111 118
391 2 116 111 117
392 2 116 111 118
393 4 117 111 118
394 1 111 112 113
395 2 111 112 119
396 2 111 112 120
397 2 113 112 119
398 2 113 112 120
399 4 119 112 120
400 1 112 113 114
401 2 386 385 391
402 2 386 385 392
403 2 386 385 393
404 4 391 385 392
405 4 391 385 393
406 4 392 385 393
407 1 221 222 223
408 2 221 222 229
409 2 221 222 230
410 2 223 222 229
411 2 223 222 230
412 4 229 222 230
413 1 111 116 114
414 3 113 114 115
415 1 113 114 116
416 3 115 114 116
417 5 385 386 387
418 3 386 387 388
419 6 386 387 389
420 3 388 387 389
421 1 102 101 106
422 2 102 101 107
423 2 102 101 108
424 2 106 101 107
425 2 106 101 108
426 4 107 101 108
427 1 102 103 104
428 3 103 104 105
429 1 103 104 106
430 3 105 104 106
431 5 375 377 378
432 1 101 106 104
433 2 377 378 382
434 2 377 378 383
435 2 377 378 384
436 4 382 378 383
437 4 382 378 384
438 4 383 378 384
439 1 242 243 244
440 2 926 925 931
441 2 926 925 932
442 2 926 925 933
443 4 931 925 932
444 4 931 925 933
445 4 932 925 933
446 2 878 877 883
447 2 878 877 884
448 2 878 877 885
449 4 883 877 884
450 4 883 877 885
451 4 884 877 885
452 3 243 244 245
453 1 243 244 246
454 3 245 244 246
455 5 387 389 390
456 2 845 846 850
457 2 845 846 851
458 2 845 846 852
459 4 850 846 851
460 4 850 846 852
461 4 851 846 852
462 5 843 845 846
463 2 554 553 559
464 2 554 553 560
465 2 554 553 561
466 4 559 553 560
467 4 559 553 561
468 4 560 553 561
469 5 649 650 651
470 3 446 447 448
471 6 446 447 449
472 3 448 447 449
473 5 447 449 450
474 2 449 450 454
475 2 449 450 455
476 2 449 450 456
477 4 454 450 455
478 4 454 450 456
479 4 455 450 456
480 1 251 252 253
481 2 251 252 259
482 2 251 252 260
483 2 253 252 259
484 2 253 252 260
485 4 259 252 260
486 1 241 246 244
487 1 242 241 246
488 2 242 241 247
489 2 242 241 248
490 2 246 241 247
491 2 246 241 248
492 4 247 241 248
493 1 241 242 243
494 2 241 242 249
495 2 241 242 250
496 2 243 242 249
497 2 243 242 250
498 4 249 242 250
499 2 365 366 370
500 2 365 366 371
501 2 365 366 372
502 4 370 366 371
503 4 370 366 372
504 4 371 366 372
505 2 818 817 823
506 2 818 817 824
507 2 818 817 825
508 4 823 817 824
509 4 823 817 825
510 4 824 817 825
511 5 363 365 366
512 3 362 363 364
513 6 362 363 365
514 3 364 363 365
515 5 517 518 519
516 3 283 284 285
517 1 283 284 286
518 3 285 284 286
519 1 281 286 284
520 1 52 53 54
521 3 53 54 55
522 1 53 54 56
523 3 55 54 56
524 1 51 56 54
525 5 627 629 630
526 2 629 630 634
527 2 629 630 635
528 2 629 630 636
529 4 634 630 635
530 4 634 630 636
531 4 635 630 636
532 3 686 687 688
533 6 686 687 689
534 3 688 687 689
535 5 687 689 690
536 2 689 690 694
537 2 689 690 695
538 2 689 690 696
539 4 694 690 695
540 4 694 690 696
541 4 695 690 696
542 5 685 686 687
543 2 686 685 691
544 2 686 685 692
545 2 686 685 693
546 4 691 685 692
547 4 691 685 693
548 4 692 685 693
549 1 282 281 286
550 2 282 281 287
551 2 282 281 288
552 2 286 281 287
553 2 286 281 288
554 4 287 281 288
555 5 423 425 426
556 3 422 423 424
557 6 422 423 425
558 3 424 423 425
559 5 421 422 423
560 1 282 283 284
561 1 281 282 283
562 2 281 282 289
563 2 281 282 290
564 2 283 282 289
565 2 283 282 290
566 4 289 282 290
567 1 51 52 53
568 2 51 52 59
569 2 51 52 60
570 2 53 52 59
571 2 53 52 60
572 4 59 52 60
573 5 877 878 879
574 1 1 2 3
575 2 1 2 9
576 2 1 2 10
577 2 3 2 9
578 2 3 2 10
579 4 9 2 10
580 1 2 1 6
581 2 2 1 7
582 2 2 1 8
583 2 6 1 7
584 2 6 1 8
585 4 7 1 8
586 1 2 3 4
587 3 3 4 5
588 1 3 4 6
589 3 5 4 6
590 1 232 231 236
591 2 232 231 237
592 2 232 231 238
593 2 236 231 237
594 2 236 231 238
595 4 237 231 238
596 3 878 879 880
597 6 878 879 881
598 3 880 879 881
599 1 1 6 4
600 5 879 881 882
601 1 231 232 233
602 2 231 232 239
603 2 231 232 240
604 2 233 232 239
605 2 233 232 240
606 4 239 232 240
607 3 566 567 568
608 6 566 567 569
609 3 568 567 569
610 2 881 882 886
611 2 881 882 887
612 2 881 882 888
613 4 886 882 887
614 4 886 882 888
615 4 887 882 888
616 1 231 236 234
617 2 389 390 394
618 2 389 390 395
619 2 389 390 396
620 4 394 390 395
621 4 394 390 396
622 4 395 390 396
623 3 518 519 520
624 6 518 519 521
625 3 520 519 521
626 5 519 521 522
627 2 521 522 526
628 2 521 522 527
629 2 521 522 528
630 4 526 522 527
631 4 526 522 528
632 4 527 522 528
633 2 566 565 571
634 2 566 565 572
635 2 566 565 573
636 4 571 565 572
637 4 571 565 573
638 4 572 565 573
639 5 411 413 414
640 3 626 627 628
641 6 626 627 629
642 3 628 627 629
643 1 131 132 133
644 2 131 132 139
645 2 131 132 140
646 2 133 132 139
647 2 133 132 140
648 4 139 132 140
649 1 132 133 134
650 2 746 745 751
651 2 746 745 752
652 2 746 745 753
653 4 751 745 752
654 4 751 745 753
655 4 752 745 753
656 1 232 233 234
657 3 233 234 235
658 1 233 234 236
659 3 235 234 236
660 2 626 625 631
661 2 626 625 632
662 2 626 625 633
663 4 631 625 632
664 4 631 625 633
665 4 632 625 633
666 5 625 626 627
667 5 565 566 567
668 1 132 131 136
669 2 132 131 137
670 2 132 131 138
671 2 136 131 137
672 2 136 131 138
673 4 137 131 138
674 5 745 746 747
675 3 746 747 748
676 6 746 747 749
677 3 748 747 749
678 5 747 749 750
679 2 650 649 655
680 2 650 649 656
681 2 650 649 657
682 4 655 649 656
683 4 655 649 657
684 4 656 649 657
685 2 749 750 754
686 2 749 750 755
687 2 749 750 756
688 4 754 750 755
689 4 754 750 756
690 4 755 750 756
691 3 542 543 544
692 6 542 543 545
693 3 544 543 545
694 1 252 251 256
695 2 252 251 257
696 2 252 251 258
697 2 256 251 257
698 2 256 251 258
699 4 257 251 258
700 1 52 51 56
701 2 52 51 57
702 2 52 51 58
703 2 56 51 57
704 2 56 51 58
705 4 57 51 58
706 1 251 256 254
707 1 171 172 173
708 2 171 172 179
709 2 171 172 180
710 2 173 172 179
711 2 173 172 180
712 4 179 172 180
713 1 252 253 254
714 3 253 254 255
715 1 253 254 256
716 3 255 254 256
717 2 782 781 787
718 2 782 781 788
719 2 782 781 789
720 4 787 781 788
721 4 787 781 789
722 4 788 781 789
723 5 567 569 570
724 2 569 570 574
725 2 569 570 575
726 2 569 570 576
727 4 574 570 575
728 4 574 570 576
729 4 575 570 576
730 3 193 194 195
731 1 193 194 196
732 3 195 194 196
733 1 191 196 194
734 1 192 191 196
735 2 192 191 197
736 2 192 191 198
737 2 196 191 197
738 2 196 191 198
739 4 197 191 198
740 1 191 192 193
741 2 191 192 199
742 2 191 192 200
743 2 193 192 199
744 2 193 192 200
745 4 199 192 200
746 1 192 193 194
747 7 995 996 997
748 7 995 996 998
749 7 995 996 999
750 7 997 996 998
751 7 997 996 999
752 7 998 996 999
753 5 817 818 819
754 2 545 546 550
755 2 545 546 551
756 2 545 546 552
757 4 550 546 551
758 4 550 546 552
759 4 551 546 552
760 2 362 361 367
761 2 362 361 368
762 2 362 361 369
763 4 367 361 368
764 4 367 361 369
765 4 368 361 369
766 5 543 545 546
767 2 701 702 706
768 2 701 702 707
769 2 701 702 708
770 4 706 702 707
771 4 706 702 708
772 4 707 702 708
773 3 818 819 820
774 6 818 819 821
775 3 820 819 821
776 5 699 701 702
777 5 361 362 363
778 2 422 421 427
779 2 422 421 428
780 2 422 421 429
781 4 427 421 428
782 4 427 421 429
783 4 428 421 429
784 3 398 399 400
785 6 398 399 401
786 3 400 399 401
787 2 773 774 778
788 2 773 774 779
789 2 773 774 780
790 4 778 774 779
791 4 778 774 780
792 4 779 774 780
793 2 758 757 763
794 2 758 757 764
795 2 758 757 765
796 4 763 757 764
797 4 763 757 765
798 4 764 757 765
799 5 397 398 399
800 3 506 507 508
801 6 506 507 509
802 3 508 507 509
803 5 325 326 327
804 3 326 327 328
805 6 326 327 329
806 3 328 327 329
807 5 507 509 510
808 2 509 510 514
809 2 509 510 515
810 2 509 510 516
811 4 514 510 515
812 4 514 510 516
813 4 515 510 516
814 5 327 329 330
815 2 326 325 331
816 2 326 325 332
817 2 326 325 333
818 4 331 325 332
819 4 331 325 333
820 4 332 325 333
821 1 12 13 14
822 1 11 12 13
823 2 11 12 19
824 2 11 12 20
825 2 13 12 19
826 2 13 12 20
827 4 19 12 20
828 2 398 397 403
829 2 398 397 404
830 2 398 397 405
831 4 403 397 404
832 4 403 397 405
833 4 404 397 405
834 1 141 146 144
835 5 757 758 759
836 3 143 144 145
837 1 143 144 146
838 3 145 144 146
839 1 142 143 144
840 1 291 296 294
841 1 292 291 296
842 2 292 291 297
843 2 292 291 298
844 2 296 291 297
845 2 296 291 298
846 4 297 291 298
847 1 292 293 294
848 3 293 294 295
849 1 293 294 296
850 3 295 294 296
851 1 291 292 293
852 2 291 292 299
853 2 291 292 300
854 2 293 292 299
855 2 293 292 300
856 4 299 292 300
857 5 483 485 486
858 3 482 483 484
859 6 482 483 485
860 3 484 483 485
861 1 31 32 33
862 2 31 32 39
863 2 31 32 40
864 2 33 32 39
865 2 33 32 40
866 4 39 32 40
867 1 32 33 34
868 1 32 31 36
869 2 32 31 37
870 2 32 31 38
871 2 36 31 37
872 2 36 31 38
873 4 37 31 38
874 1 181 182 183
875 2 181 182 189
876 2 181 182 190
877 2 183 182 189
878 2 183 182 190
879 4 189 182 190
880 1 182 183 184
881 1 182 181 186
882 2 182 181 187
883 2 182 181 188
884 2 186 181 187
885 2 186 181 188
886 4 187 181 188
887 3 183 184 185
888 1 183 184 186
889 3 185 184 186
890 1 181 186 184
891 5 771 773 774
892 1 31 36 34
893 3 33 34 35
894 1 33 34 36
895 3 35 34 36
896 3 602 603 604
897 6 602 603 605
898 3 604 603 605
899 2 734 733 739
900 2 734 733 740
901 2 734 733 741
902 4 739 733 740
903 4 739 733 741
904 4 740 733 741
905 5 603 605 606
906 2 605 606 610
907 2 605 606 611
908 2 605 606 612
909 4 610 606 611
910 4 610 606 612
911 4 611 606 612
912 2 914 913 919
913 2 914 913 920
914 2 914 913 921
915 4 919 913 920
916 4 919 913 921
917 4 920 913 921
918 5 913 914 915
919 3 614 615 616
920 6 614 615 617
921 3 616 615 617
922 5 615 617 618
923 2 617 618 622
924 2 617 618 623
925 2 617 618 624
926 4 622 618 623
927 4 622 618 624
928 4 623 618 624
929 5 613 614 615
930 5 601 602 603
931 2 809 810 814
932 2 809 810 815
933 2 809 810 816
934 4 814 810 815
935 4 814 810 816
936 4 815 810 816
937 1 41 42 43
938 2 41 42 49
939 2 41 42 50
940 2 43 42 49
941 2 43 42 50
942 4 49 42 50
943 1 42 43 44
944 3 770 771 772
945 6 770 771 773
946 3 772 771 773
947 5 769 770 771
948 1 122 121 126
949 2 122 121 127
950 2 122 121 128
951 2 126 121 127
952 2 126 121 128
953 4 127 121 128
954 1 121 126 124
955 2 770 769 775
956 2 770 769 776
957 2 770 769 777
958 4 775 769 776
959 4 775 769 777
960 4 776 769 777
961 5 807 809 810
962 1 122 123 124
963 1 121 122 123
964 2 121 122 129
965 2 121 122 130
966 2 123 122 129
967 2 123 122 130
968 4 129 122 130
969 3 123 124 125
970 1 123 124 126
971 3 125 124 126
972 3 43 44 45
973 1 43 44 46
974 3 45 44 46
975 1 41 46 44
976 1 42 41 46
977 2 42 41 47
978 2 42 41 48
979 2 46 41 47
980 2 46 41 48
981 4 47 41 48
982 5 735 737 738
983 5 733 734 735
984 3 734 735 736
985 6 734 735 737
986 3 736 735 737
987 2 737 738 742
988 2 737 738 743
989 2 737 738 744
990 4 742 738 743
991 4 742 738 744
992 4 743 738 744
993 5 867 869 870
994 2 833 834 838
995 2 833 834 839
996 2 833 834 840
997 4 838 834 839
998 4 838 834 840
999 4 839 834 840
1000 5 937 938 939
1001 2 938 937 943
1002 2 938 937 944
1003 2 938 937 945
1004 4 943 937 944
1005 4 943 937 945
1006 4 944 937 945
1007 3 938 939 940
1008 6 938 939 941
1009 3 940 939 941
1010 3 13 14 15
1011 1 13 14 16
1012 3 15 14 16
1013 1 12 11 16
1014 2 12 11 17
1015 2 12 11 18
1016 2 16 11 17
1017 2 16 11 18
1018 4 17 11 18
1019 1 11 16 14
1020 5 481 482 483
1021 2 482 481 487
1022 2 482 481 488
1023 2 482 481 489
1024 4 487 481 488
1025 4 487 481 489
1026 4 488 481 489
1027 2 341 342 346
1028 2 341 342 347
1029 2 341 342 348
1030 4 346 342 347
1031 4 346 342 348
1032 4 347 342 348
1033 5 339 341 342
1034 3 338 339 340
1035 6 338 339 341
1036 3 340 339 341
1037 2 869 870 874
1038 2 869 870 875
1039 2 869 870 876
1040 4 874 870 875
1041 4 874 870 876
1042 4 875 870 876
1043 1 262 261 266
1044 2 262 261 267
1045 2 262 261 268
1046 2 266 261 267
1047 2 266 261 268
1048 4 267 261 268
1049 1 261 266 264
1050 1 261 262 263
1051 2 261 262 269
1052 2 261 262 270
1053 2 263 262 269
1054 2 263 262 270
1055 4 269 262 270
1056 2 602 601 607
1057 2 602 601 608
1058 2 602 601 609
1059 4 607 601 608
1060 4 607 601 609
1061 4 608 601 609
1062 2 614 613 619
1063 2 614 613 620
1064 2 614 613 621
1065 4 619 613 620
1066 4 619 613 621
1067 4 620 613 621
1068 5 927 929 930
1069 2 317 318 322
1070 2 317 318 323
1071 2 317 318 324
1072 4 322 318 323
1073 4 322 318 324
1074 4 323 318 324
1075 5 939 941 942
1076 2 941 942 946
1077 2 941 942 947
1078 2 941 942 948
1079 4 946 942 947
1080 4 946 942 948
1081 4 947 942 948
1082 3 926 927 928
1083 6 926 927 929
1084 3 928 927 929
1085 2 929 930 934
1086 2 929 930 935
1087 2 929 930 936
1088 4 934 930 935
1089 4 934 930 936
1090 4 935 930 936
1091 3 314 315 316
1092 6 314 315 317
1093 3 316 315 317
1094 5 315 317 318
1095 2 314 313 319
1096 2 314 313 320
1097 2 314 313 321
1098 4 319 313 320
1099 4 319 313 321
1100 4 320 313 321
1101 5 313 314 315
1102 2 674 673 679
1103 2 674 673 680
1104 2 674 673 681
1105 4 679 673 680
1106 4 679 673 681
1107 4 680 673 681
1108 3 674 675 676
1109 6 674 675 677
1110 3 676 675 677
1111 5 673 674 675
1112 2 338 337 343
1113 2 338 337 344
1114 2 338 337 345
1115 4 343 337 344
1116 4 343 337 345
1117 4 344 337 345
1118 2 461 462 466
1119 2 461 462 467
1120 2 461 462 468
1121 4 466 462 467
1122 4 466 462 468
1123 4 467 462 468
1124 5 337 338 339
1125 5 459 461 462
1126 3 458 459 460
1127 6 458 459 461
1128 3 460 459 461
1129 3 213 214 215
1130 1 213 214 216
1131 3 215 214 216
1132 1 212 213 214
1133 2 533 534 538
1134 2 533 534 539
1135 2 533 534 540
1136 4 538 534 539
1137 4 538 534 540
1138 4 539 534 540
1139 5 925 926 927
1140 3 650 651 652
1141 6 650 651 653
1142 3 652 651 653
1143 5 651 653 654
1144 2 890 889 895
1145 2 890 889 896
1146 2 890 889 897
1147 4 895 889 896
1148 4 895 889 897
1149 4 896 889 897
1150 5 889 890 891
1151 3 890 891 892
1152 6 890 891 893
1153 3 892 891 893
1154 5 493 494 495
1155 5 891 893 894
1156 1 172 173 174
1157 5 495 497 498
1158 3 494 495 496
1159 6 494 495 497
1160 3 496 495 497
1161 1 201 202 203
1162 2 201 202 209
1163 2 201 202 210
1164 2 203 202 209
1165 2 203 202 210
1166 4 209 202 210
1167 1 202 203 204
1168 2 497 498 502
1169 2 497 498 503
1170 2 497 498 504
1171 4 502 498 503
1172 4 502 498 504
1173 4 503 498 504
1174 3 203 204 205
1175 1 203 204 206
1176 3 205 204 206
1177 1 202 201 206
1178 2 202 201 207
1179 2 202 201 208
1180 2 206 201 207
1181 2 206 201 208
1182 4 207 201 208
1183 1 201 206 204
1184 2 893 894 898
1185 2 893 894 899
1186 2 893 894 900
1187 4 898 894 899
1188 4 898 894 900
1189 4 899 894 900
1190 5 949 950 951
1191 2 950 949 955
1192 2 950 949 956
1193 2 950 949 957
1194 4 955 949 956
1195 4 955 949 957
1196 4 956 949 957
1197 5 637 638 639
1198 3 263 264 265
1199 1 263 264 266
1200 3 265 264 266
1201 2 638 637 643
1202 2 638 637 644
1203 2 638 637 645
1204 4 643 637 644
1205 4 643 637 645
1206 4 644 637 645
1207 1 262 263 264
1208 2 458 457 463
1209 2 458 457 464
1210 2 458 457 465
1211 4 463 457 464
1212 4 463 457 465
1213 4 464 457 465
1214 2 494 493 499
1215 2 494 493 500
1216 2 494 493 501
1217 4 499 493 500
1218 4 499 493 501
1219 4 500 493 501
1220 2 302 301 307
1221 2 302 301 308
1222 2 302 301 309
1223 4 307 301 308
1224 4 307 301 309
1225 4 308 301 309
1226 2 518 517 523
1227 2 518 517 524
1228 2 518 517 525
1229 4 523 517 524
1230 4 523 517 525
1231 4 524 517 525
1232 1 161 166 164
1233 3 163 164 165
1234 1 163 164 166
1235 3 165 164 166
1236 1 162 161 166
1237 2 162 161 167
1238 2 162 161 168
1239 2 166 161 167
1240 2 166 161 168
1241 4 167 161 168
1242 1 161 162 163
1243 2 161 162 169
1244 2 161 162 170
1245 2 163 162 169
1246 2 163 162 170
1247 4 169 162 170
1248 1 162 163 164
1249 5 675 677 678
1250 2 653 654 658
1251 2 653 654 659
1252 2 653 654 660
1253 4 658 654 659
1254 4 658 654 660
1255 4 659 654 660
1256 2 677 678 682
1257 2 677 678 683
1258 2 677 678 684
1259 4 682 678 683
1260 4 682 678 684
1261 4 683 678 684
1262 5 457 458 459
1263 2 473 474 478
1264 2 473 474 479
1265 2 473 474 480
1266 4 478 474 479
1267 4 478 474 480
1268 4 479 474 480
1269 5 471 473 474
1270 2 590 589 595
1271 2 590 589 596
1272 2 590 589 597
1273 4 595 589 596
1274 4 595 589 597
1275 4 596 589 597
1276 5 589 590 591
1277 3 173 174 175
1278 1 173 174 176
1279 3 175 174 176
1280 1 171 176 174
1281 1 271 272 273
1282 2 271 272 279
1283 2 271 272 280
1284 2 273 272 279
1285 2 273 272 280
1286 4 279 272 280
1287 1 272 273 274
1288 1 272 271 276
1289 2 272 271 277
1290 2 272 271 278
1291 2 276 271 277
1292 2 276 271 278
1293 4 277 271 278
1294 1 271 276 274
1295 3 273 274 275
1296 1 273 274 276
1297 3 275 274 276
1298 3 590 591 592
1299 6 590 591 593
1300 3 592 591 593
1301 1 172 171 176
1302 2 172 171 177
1303 2 172 171 178
1304 2 176 171 177
1305 2 176 171 178
1306 4 177 171 178
1307 2 329 330 334
1308 2 329 330 335
1309 2 329 330 336
1310 4 334 330 335
1311 4 334 330 336
1312 4 335 330 336
1313 5 351 353 354
1314 2 353 354 358
1315 2 353 354 359
1316 2 353 354 360
1317 4 358 354 359
1318 4 358 354 360
1319 4 359 354 360
1320 2 581 582 586
1321 2 581 582 587
1322 2 581 582 588
1323 4 586 582 587
1324 4 586 582 588
1325 4 587 582 588
1326 3 758 759 760
1327 6 758 759 761
1328 3 760 759 761
1329 2 821 822 826
1330 2 821 822 827
1331 2 821 822 828
1332 4 826 822 827
1333 4 826 822 828
1334 4 827 822 828
1335 5 819 821 822
1336 5 759 761 762
1337 2 761 762 766
1338 2 761 762 767
1339 2 761 762 768
1340 4 766 762 767
1341 4 766 762 768
1342 4 767 762 768
1343 5 697 698 699
1344 2 698 697 703
1345 2 698 697 704
1346 2 698 697 705
1347 4 703 697 704
1348 4 703 697 705
1349 4 704 697 705
1350 3 698 699 700
1351 6 698 699 701
1352 3 700 699 701
1353 5 301 302 303
1354 5 303 305 306
1355 3 302 303 304
1356 6 302 303 305
1357 3 304 303 305
1358 3 638 639 640
1359 6 638 639 641
1360 3 640 639 641
1361 5 529 530 531
1362 5 591 593 594
1363 5 639 641 642
1364 2 593 594 598
1365 2 593 594 599
1366 2 593 594 600
1367 4 598 594 599
1368 4 598 594 600
1369 4 599 594 600
1370 2 641 642 646
1371 2 641 642 647
1372 2 641 642 648
1373 4 646 642 647
1374 4 646 642 648
1375 4 647 642 648
1376 1 21 22 23
1377 2 21 22 29
1378 2 21 22 30
1379 2 23 22 29
1380 2 23 22 30
1381 4 29 22 30
1382 1 22 21 26
1383 2 22 21 27
1384 2 22 21 28
1385 2 26 21 27
1386 2 26 21 28
1387 4 27 21 28
1388 2 530 529 535
1389 2 530 529 536
1390 2 530 529 537
1391 4 535 529 536
1392 4 535 529 537
1393 4 536 529 537
1394 3 530 531 532
1395 6 530 531 533
1396 3 532 531 533
1397 1 22 23 24
1398 5 531 533 534
1399 3 23 24 25
1400 1 23 24 26
1401 3 25 24 26
1402 2 350 349 355
1403 2 350 349 356
1404 2 350 349 357
1405 4 355 349 356
1406 4 355 349 357
1407 4 356 349 357
1408 5 349 350 351
1409 3 350 351 352
1410 6 350 351 353
1411 3 352 351 353
1412 1 21 26 24
1413 1 92 93 94
1414 3 93 94 95
1415 1 93 94 96
1416 3 95 94 96
1417 1 91 92 93
1418 2 91 92 99
1419 2 91 92 100
1420 2 93 92 99
1421 2 93 92 100
1422 4 99 92 100
1423 5 577 578 579
1424 5 579 581 582
1425 3 578 579 580
1426 6 578 579 581
1427 3 580 579 581
1428 1 92 91 96
1429 2 92 91 97
1430 2 92 91 98
1431 2 96 91 97
1432 2 96 91 98
1433 4 97 91 98
1434 1 91 96 94
1435 2 794 793 799
1436 2 794 793 800
1437 2 794 793 801
1438 4 799 793 800
1439 4 799 793 801
1440 4 800 793 801
1441 1 211 212 213
1442 2 211 212 219
1443 2 211 212 220
1444 2 213 212 219
1445 2 213 212 220
1446 4 219 212 220
1447 1 212 211 216
1448 2 212 211 217
1449 2 212 211 218
1450 2 216 211 217
1451 2 216 211 218
1452 4 217 211 218
1453 7 1010 1011 1012
1454 7 1010 1011 1013
1455 7 1010 1011 1014
1456 7 1012 1011 1013
1457 7 1012 1011 1014
1458 7 1013 1011 1014
1459 2 413 414 418
1460 2 413 414 419
1461 2 413 414 420
1462 4 418 414 419
1463 4 418 414 420
1464 4 419 414 420
1465 2 305 306 310
1466 2 305 306 311
1467 2 305 306 312
1468 4 310 306 311
1469 4 310 306 312
1470 4 311 306 312
1471 1 211 216 214
1472 5 793 794 795
1473 3 470 471 472
1474 6 470 471 473
1475 3 472 471 473
1476 2 578 577 583
1477 2 578 577 584
1478 2 578 577 585
1479 4 583 577 584
1480 4 583 577 585
1481 4 584 577 585
1482 5 469 470 471
1483 3 794 795 796
1484 6 794 795 797
1485 3 796 795 797
1486 2 470 469 475
1487 2 470 469 476
1488 2 470 469 477
1489 4 475 469 476
1490 4 475 469 477
1491 4 476 469 477
1492 5 795 797 798
1493 2 797 798 802
1494 2 797 798 803
1495 2 797 798 804
1496 4 802 798 803
1497 4 802 798 804
1498 4 803 798 804
1499 7 980 981 982
1500 7 980 981 983
1501 7 980 981 984
1502 7 982 981 983
1503 7 982 981 984
1504 7 983 981 984

Dihedrals

1 1 82 81 86 84
2 2 82 81 86 84
3 6 86 81 82 89
4 7 86 81 82 89
5 6 86 81 82 90
6 7 86 81 82 90
7 9 87 81 82 89
8 9 87 81 82 90
9 9 88 81 82 89
10 9 88 81 82 90
11 1 81 82 83 84
12 2 81 82 83 84
13 4 83 82 81 86
14 5 83 82 81 86
15 6 83 82 81 87
16 7 83 82 81 87
17 6 83 82 81 88
18 7 83 82 81 88
19 3 82 83 84 85
20 3 82 83 84 86
21 8 84 83 82 89
22 8 84 83 82 90
23 3 81 86 84 83
24 3 81 86 84 85
25 8 84 86 81 87
26 8 84 86 81 88
27 10 865 866 867 868
28 11 865 866 867 868
29 12 865 866 867 869
30 8 867 866 865 871
31 8 867 866 865 872
32 8 867 866 865 873
33 8 723 725 726 730
34 8 723 725 726 731
35 8 723 725 726 732
36 12 722 723 725 726
37 10 724 723 725 726
38 11 724 723 725 726
39 10 961 962 963 964
40 11 961 962 963 964
41 12 961 962 963 965
42 8 963 962 961 967
43 8 963 962 961 968
44 8 963 962 961 969
45 12 962 963 965 966
46 10 964 963 965 966
47 11 964 963 965 966
48 10 721 722 723 724
49 11 721 722 723 724
50 12 721 722 723 725
51 8 723 722 721 727
52 8 723 722 721 728
53 8 723 722 721 729
54 8 963 965 966 970
55 8 963 965 966 971
56 8 963 965 966 972
57 8 915 917 918 922
58 8 915 917 918 923
59 8 915 917 918 924
60 12 806 807 809 810
61 10 808 807 809 810
62 11 808 807 809 810
63 10 805 806 807 808
64 11 805 806 807 808
65 12 805 806 807 809
66 8 807 806 805 811
67 8 807 806 805 812
68 8 807 806 805 813
69 10 409 410 411 412
70 11 409 410 411 412
71 12 409 410 411 413
72 8 411 410 409 415
73 8 411 410 409 416
74 8 411 410 409 417
75 12 410 411 413 414
76 10 412 411 413 414
77 11 412 411 413 414
78 1 72 71 76 74
79 2 72 71 76 74
80 6 76 71 72 79
81 7 76 71 72 79
82 6 76 71 72 80
83 7 76 71 72 80
84 9 77 71 72 79
85 9 77 71 72 80
86 9 78 71 72 79
87 9 78 71 72 80
88 8 903 905 906 910
89 8 903 905 906 911
90 8 903 905 906 912
91 10 901 902 903 904
92 11 901 902 903 904
93 12 901 902 903 905
94 8 903 902 901 907
95 8 903 902 901 908
96 8 903 902 901 909
97 12 902 903 905 906
98 10 904 903 905 906
99 11 904 903 905 906
100 1 71 72 73 74
101 2 71 72 73 74
102 4 73 72 71 76
103 5 73 72 71 76
104 6 73 72 71 77
105 7 73 72 71 77
106 6 73 72 71 78
107 7 73 72 71 78
108 12 710 711 713 714
109 10 712 711 713 714
110 11 712 711 713 714
111 8 711 713 714 718
112 8 711 713 714 719
113 8 711 713 714 720
114 10 709 710 711 712
115 11 709 710 711 712
116 12 709 710 711 713
117 8 711 710 709 715
118 8 711 710 709 716
119 8 711 710 709 717
120 10 541 542 543 544
121 11 541 542 543 544
122 12 541 542 543 545
123 8 543 542 541 547
124 8 543 542 541 548
125 8 543 542 541 549
126 8 783 785 786 790
127 8 783 785 786 791
128 8 783 785 786 792
129 8 399 401 402 406
130 8 399 401 402 407
131 8 399 401 402 408
132 3 61 66 64 63
133 3 61 66 64 65
134 8 64 66 61 67
135 8 64 66 61 68
136 10 505 506 507 508
137 11 505 506 507 508
138 12 505 506 507 509
139 8 507 506 505 511
140 8 507 506 505 512
141 8 507 506 505 513
142 3 62 63 64 65
143 3 62 63 64 66
144 8 64 63 62 69
145 8 64 63 62 70
146 1 61 62 63 64
147 2 61 62 63 64
148 4 63 62 61 66
149 5 63 62 61 66
150 6 63 62 61 67
151 7 63 62 61 67
152 6 63 62 61 68
153 7 63 62 61 68
154 1 62 61 66 64
155 2 62 61 66 64
156 6 66 61 62 69
157 7 66 61 62 69
158 6 66 61 62 70
159 7 66 61 62 70
160 9 67 61 62 69
161 9 67 61 62 70
162 9 68 61 62 69
163 9 68 61 62 70
164 3 71 76 74 73
165 3 71 76 74 75
166 8 74 76 71 77
167 8 74 76 71 78
168 1 142 141 146 144
169 2 142 141 146 144
170 6 146 141 142 149
171 7 146 141 142 149
172 6 146 141 142 150
173 7 146 141 142 150
174 9 147 141 142 149
175 9 147 141 142 150
176 9 148 141 142 149
177 9 148 141 142 150
178 3 72 73 74 75
179 3 72 73 74 76
180 8 74 73 72 79
181 8 74 73 72 80
182 1 141 142 143 144
183 2 141 142 143 144
184 4 143 142 141 146
185 5 143 142 141 146
186 6 143 142 141 147
187 7 143 142 141 147
188 6 143 142 141 148
189 7 143 142 141 148
190 12 914 915 917 918
191 10 916 915 917 918
192 11 916 915 917 918
193 12 866 867 869 870
194 10 868 867 869 870
195 11 868 867 869 870
196 8 663 665 666 670
197 8 663 665 666 671
198 8 663 665 666 672
199 12 662 663 665 666
200 10 664 663 665 666
201 11 664 663 665 666
202 12 434 435 437 438
203 10 436 435 437 438
204 11 436 435 437 438
205 8 435 437 438 442
206 8 435 437 438 443
207 8 435 437 438 444
208 10 661 662 663 664
209 11 661 662 663 664
210 12 661 662 663 665
211 8 663 662 661 667
212 8 663 662 661 668
213 8 663 662 661 669
214 3 222 223 224 225
215 3 222 223 224 226
216 8 224 223 222 229
217 8 224 223 222 230
218 10 829 830 831 832
219 11 829 830 831 832
220 12 829 830 831 833
221 8 831 830 829 835
222 8 831 830 829 836
223 8 831 830 829 837
224 12 830 831 833 834
225 10 832 831 833 834
226 11 832 831 833 834
227 10 433 434 435 436
228 11 433 434 435 436
229 12 433 434 435 437
230 8 435 434 433 439
231 8 435 434 433 440
232 8 435 434 433 441
233 1 101 102 103 104
234 2 101 102 103 104
235 4 103 102 101 106
236 5 103 102 101 106
237 6 103 102 101 107
238 7 103 102 101 107
239 6 103 102 101 108
240 7 103 102 101 108
241 12 374 375 377 378
242 10 376 375 377 378
243 11 376 375 377 378
244 10 373 374 375 376
245 11 373 374 375 376
246 12 373 374 375 377
247 8 375 374 373 379
248 8 375 374 373 380
249 8 375 374 373 381
250 8 831 833 834 838
251 8 831 833 834 839
252 8 831 833 834 840
253 12 842 843 845 846
254 10 844 843 845 846
255 11 844 843 845 846
256 10 841 842 843 844
257 11 841 842 843 844
258 12 841 842 843 845
259 8 843 842 841 847
260 8 843 842 841 848
261 8 843 842 841 849
262 12 554 555 557 558
263 10 556 555 557 558
264 11 556 555 557 558
265 10 553 554 555 556
266 11 553 554 555 556
267 12 553 554 555 557
268 8 555 554 553 559
269 8 555 554 553 560
270 8 555 554 553 561
271 8 555 557 558 562
272 8 555 557 558 563
273 8 555 557 558 564
274 3 152 153 154 155
275 3 152 153 154 156
276 8 154 153 152 159
277 8 154 153 152 160
278 10 445 446 447 448
279 11 445 446 447 448
280 12 445 446 447 449
281 8 447 446 445 451
282 8 447 446 445 452
283 8 447 446 445 453
284 10 853 854 855 856
285 11 853 854 855 856
286 12 853 854 855 857
287 8 855 854 853 859
288 8 855 854 853 860
289 8 855 854 853 861
290 8 855 857 858 862
291 8 855 857 858 863
292 8 855 857 858 864
293 12 854 855 857 858
294 10 856 855 857 858
295 11 856 855 857 858
296 1 152 151 156 154
297 2 152 151 156 154
298 6 156 151 152 159
299 7 156 151 152 159
300 6 156 151 152 160
301 7 156 151 152 160
302 9 157 151 152 159
303 9 157 151 152 160
304 9 158 151 152 159
305 9 158 151 152 160
306 1 151 152 153 154
307 2 151 152 153 154
308 4 153 152 151 156
309 5 153 152 151 156
310 6 153 152 151 157
311 7 153 152 151 157
312 6 153 152 151 158
313 7 153 152 151 158
314 3 151 156 154 153
315 3 151 156 154 155
316 8 154 156 151 157
317 8 154 156 151 158
318 8 951 953 954 958
319 8 951 953 954 959
320 8 951 953 954 960
321 12 950 951 953 954
322 10 952 951 953 954
323 11 952 951 953 954
324 3 131 136 134 133
325 3 131 136 134 135
326 8 134 136 131 137
327 8 134 136 131 138
328 12 782 783 785 786
329 10 784 783 785 786
330 11 784 783 785 786
331 10 781 782 783 784
332 11 781 782 783 784
333 12 781 782 783 785
334 8 783 782 781 787
335 8 783 782 781 788
336 8 783 782 781 789
337 1 222 221 226 224
338 2 222 221 226 224
339 6 226 221 222 229
340 7 226 221 222 229
341 6 226 221 222 230
342 7 226 221 222 230
343 9 227 221 222 229
344 9 227 221 222 230
345 9 228 221 222 229
346 9 228 221 222 230
347 3 221 226 224 223
348 3 221 226 224 225
349 8 224 226 221 227
350 8 224 226 221 228
351 1 112 111 116 114
352 2 112 111 116 114
353 6 116 111 112 119
354 7 116 111 112 119
355 6 116 111 112 120
356 7 116 111 112 120
357 9 117 111 112 119
358 9 117 111 112 120
359 9 118 111 112 119
360 9 118 111 112 120
361 1 111 112 113 114
362 2 111 112 113 114
363 4 113 112 111 116
364 5 113 112 111 116
365 6 113 112 111 117
366 7 113 112 111 117
367 6 113 112 111 118
368 7 113 112 111 118
369 3 112 113 114 115
370 3 112 113 114 116
371 8 114 113 112 119
372 8 114 113 112 120
373 1 221 222 223 224
374 2 221 222 223 224
375 4 223 222 221 226
376 5 223 222 221 226
377 6 223 222 221 227
378 7 223 222 221 227
379 6 223 222 221 228
380 7 223 222 221 228
381 3 111 116 114 113
382 3 111 116 114 115
383 8 114 116 111 117
384 8 114 116 111 118
385 10 385 386 387 388
386 11 385 386 387 388
387 12 385 386 387 389
388 8 387 386 385 391
389 8 387 386 385 392
390 8 387 386 385 393
391 12 386 387 389 390
392 10 388 387 389 390
393 11 388 387 389 390
394 1 102 101 106 104
395 2 102 101 106 104
396 6 106 101 102 109
397 7 106 101 102 109
398 6 106 101 102 110
399 7 106 101 102 110
400 9 107 101 102 109
401 9 107 101 102 110
402 9 108 101 102 109
403 9 108 101 102 110
404 3 102 103 104 105
405 3 102 103 104 106
406 8 104 103 102 109
407 8 104 103 102 110
408 8 375 377 378 382
409 8 375 377 378 383
410 8 375 377 378 384
411 3 101 106 104 103
412 3 101 106 104 105
413 8 104 106 101 107
414 8 104 106 101 108
415 3 242 243 244 245
416 3 242 243 244 246
417 8 244 243 242 249
418 8 244 243 242 250
419 8 387 389 390 394
420 8 387 389 390 395
421 8 387 389 390 396
422 8 843 845 846 850
423 8 843 845 846 851
424 8 843 845 846 852
425 10 649 650 651 652
426 11 649 650 651 652
427 12 649 650 651 653
428 8 651 650 649 655
429 8 651 650 649 656
430 8 651 650 649 657
431 12 446 447 449 450
432 10 448 447 449 450
433 11 448 447 449 450
434 8 447 449 450 454
435 8 447 449 450 455
436 8 447 449 450 456
437 1 251 252 253 254
438 2 251 252 253 254
439 4 253 252 251 256
440 5 253 252 251 256
441 6 253 252 251 257
442 7 253 252 251 257
443 6 253 252 251 258
444 7 253 252 251 258
445 3 241 246 244 243
446 3 241 246 244 245
447 8 244 246 241 247
448 8 244 246 241 248
449 1 242 241 246 244
450 2 242 241 246 244
451 6 246 241 242 249
452 7 246 241 242 249
453 6 246 241 242 250
454 7 246 241 242 250
455 9 247 241 242 249
456 9 247 241 242 250
457 9 248 241 242 249
458 9 248 241 242 250
459 1 241 242 243 244
460 2 241 242 243 244
461 4 243 242 241 246
462 5 243 242 241 246
463 6 243 242 241 247
464 7 243 242 241 247
465 6 243 242 241 248
466 7 243 242 241 248
467 8 363 365 366 370
468 8 363 365 366 371
469 8 363 365 366 372
470 12 362 363 365 366
471 10 364 363 365 366
472 11 364 363 365 366
473 10 517 518 519 520
474 11 517 518 519 520
475 12 517 518 519 521
476 8 519 518 517 523
477 8 519 518 517 524
478 8 519 518 517 525
479 3 281 286 284 283
480 3 281 286 284 285
481 8 284 286 281 287
482 8 284 286 281 288
483 3 52 53 54 55
484 3 52 53 54 56
485 8 54 53 52 59
486 8 54 53 52 60
487 3 51 56 54 53
488 3 51 56 54 55
489 8 54 56 51 57
490 8 54 56 51 58
491 8 627 629 630 634
492 8 627 629 630 635
493 8 627 629 630 636
494 12 686 687 689 690
495 10 688 687 689 690
496 11 688 687 689 690
497 8 687 689 690 694
498 8 687 689 690 695
499 8 687 689 690 696
500 10 685 686 687 688
501 11 685 686 687 688
502 12 685 686 687 689
503 8 687 686 685 691
504 8 687 686 685 692
505 8 687 686 685 693
506 1 282 281 286 284
507 2 282 281 286 284
508 6 286 281 282 289
509 7 286 281 282 289
510 6 286 281 282 290
511 7 286 281 282 290
512 9 287 281 282 289
513 9 287 281 282 290
514 9 288 281 282 289
515 9 288 281 282 290
516 8 423 425 426 430
517 8 423 425 426 431
518 8 423 425 426 432
519 12 422 423 425 426
520 10 424 423 425 426
521 11 424 423 425 426
522 10 421 422 423 424
523 11 421 422 423 424
524 12 421 422 423 425
525 8 423 422 421 427
526 8 423 422 421 428
527 8 423 422 421 429
528 3 282 283 284 285
529 3 282 283 284 286
530 8 284 283 282 289
531 8 284 283 282 290
532 1 281 282 283 284
533 2 281 282 283 284
534 4 283 282 281 286
535 5 283 282 281 286
536 6 283 282 281 287
537 7 283 282 281 287
538 6 283 282 281 288
539 7 283 282 281 288
540 1 51 52 53 54
541 2 51 52 53 54
542 4 53 52 51 56
543 5 53 52 51 56
544 6 53 52 51 57
545 7 53 52 51 57
546 6 53 52 51 58
547 7 53 52 51 58
548 10 877 878 879 880
549 11 877 878 879 880
550 12 877 878 879 881
551 8 879 878 877 883
552 8 879 878 877 884
553 8 879 878 877 885
554 1 1 2 3 4
555 2 1 2 3 4
556 4 3 2 1 6
557 5 3 2 1 6
558 6 3 2 1 7
559 7 3 2 1 7
560 6 3 2 1 8
561 7 3 2 1 8
562 1 2 1 6 4
563 2 2 1 6 4
564 6 6 1 2 9
565 7 6 1 2 9
566 6 6 1 2 10
567 7 6 1 2 10
568 9 7 1 2 9
569 9 7 1 2 10
570 9 8 1 2 9
571 9 8 1 2 10
572 3 2 3 4 5
573 3 2 3 4 6
574 8 4 3 2 9
575 8 4 3 2 10
576 1 232 231 236 234
577 2 232 231 236 234
578 6 236 231 232 239
579 7 236 231 232 239
580 6 236 231 232 240
581 7 236 231 232 240
582 9 237 231 232 239
583 9 237 231 232 240
584 9 238 231 232 239
585 9 238 231 232 240
586 12 878 879 881 882
587 10 880 879 881 882
588 11 880 879 881 882
589 3 1 6 4 3
590 3 1 6 4 5
591 8 4 6 1 7
592 8 4 6 1 8
593 8 879 881 882 886
594 8 879 881 882 887
595 8 879 881 882 888
596 1 231 232 233 234
597 2 231 232 233 234
598 4 233 232 231 236
599 5 233 232 231 236
600 6 233 232 231 237
601 7 233 232 231 237
602 6 233 232 231 238
603 7 233 232 231 238
604 12 566 567 569 570
605 10 568 567 569 570
606 11 568 567 569 570
607 3 231 236 234 233
608 3 231 236 234 235
609 8 234 236 231 237
610 8 234 236 231 238
611 12 518 519 521 522
612 10 520 519 521 522
613 11 520 519 521 522
614 8 519 521 522 526
615 8 519 521 522 527
616 8 519 521 522 528
617 8 411 413 414 418
618 8 411 413 414 419
619 8 411 413 414 420
620 12 626 627 629 630
621 10 628 627 629 630
622 11 628 627 629 630
623 1 131 132 133 134
624 2 131 132 133 134
625 4 133 132 131 136
626 5 133 132 131 136
627 6 133 132 131 137
628 7 133 132 131 137
629 6 133 132 131 138
630 7 133 132 131 138
631 3 132 133 134 135
632 3 132 133 134 136
633 8 134 133 132 139
634 8 134 133 132 140
635 3 232 233 234 235
636 3 232 233 234 236
637 8 234 233 232 239
638 8 234 233 232 240
639 10 625 626 627 628
640 11 625 626 627 628
641 12 625 626 627 629
642 8 627 626 625 631
643 8 627 626 625 632
644 8 627 626 625 633
645 10 565 566 567 568
646 11 565 566 567 568
647 12 565 566 567 569
648 8 567 566 565 571
649 8 567 566 565 572
650 8 567 566 565 573
651 1 132 131 136 134
652 2 132 131 136 134
653 6 136 131 132 139
654 7 136 131 132 139
655 6 136 131 132 140
656 7 136 131 132 140
657 9 137 131 132 139
658 9 137 131 132 140
659 9 138 131 132 139
660 9 138 131 132 140
661 10 745 746 747 748
662 11 745 746 747 748
663 12 745 746 747 749
664 8 747 746 745 751
665 8 747 746 745 752
666 8 747 746 745 753
667 12 746 747 749 750
668 10 748 747 749 750
669 11 748 747 749 750
670 8 747 749 750 754
671 8 747 749 750 755
672 8 747 749 750 756
673 12 542 543 545 546
674 10 544 543 545 546
675 11 544 543 545 546
676 1 252 251 256 254
677 2 252 251 256 254
678 6 256 251 252 259
679 7 256 251 252 259
680 6 256 251 252 260
681 7 256 251 252 260
682 9 257 251 252 259
683 9 257 251 252 260
684 9 258 251 252 259
685 9 258 251 252 260
686 1 52 51 56 54
687 2 52 51 56 54
688 6 56 51 52 59
689 7 56 51 52 59
690 6 56 51 52 60
691 7 56 51 52 60
692 9 57 51 52 59
693 9 57 51 52 60
694 9 58 51 52 59
695 9 58 51 52 60
696 3 251 256 254 253
697 3 251 256 254 255
698 8 254 256 251 257
699 8 254 256 251 258
700 1 171 172 173 174
701 2 171 172 173 174
702 4 173 172 171 176
703 5 173 172 171 176
704 6 173 172 171 177
705 7 173 172 171 177
706 6 173 172 171 178
707 7 173 172 171 178
708 3 252 253 254 255
709 3 252 253 254 256
710 8 254 253 252 259
711 8 254 253 252 260
712 8 567 569 570 574
713 8 567 569 570 575
714 8 567 569 570 576
715 3 191 196 194 193
716 3 191 196 194 195
717 8 194 196 191 197
718 8 194 196 191 198
719 1 192 191 196 194
720 2 192 191 196 194
721 6 196 191 192 199
722 7 196 191 192 199
723 6 196 191 192 200
724 7 196 191 192 200
725 9 197 191 192 199
726 9 197 191 192 200
727 9 198 191 192 199
728 9 198 191 192 200
729 1 191 192 193 194
730 2 191 192 193 194
731 4 193 192 191 196
732 5 193 192 191 196
733 6 193 192 191 197
734 7 193 192 191 197
735 6 193 192 191 198
736 7 193 192 191 198
737 3 192 193 194 195
738 3 192 193 194 196
739 8 194 193 192 199
740 8 194 193 192 200
741 10 817 818 819 820
742 11 817 818 819 820
743 12 817 818 819 821
744 8 819 818 817 823
745 8 819 818 817 824
746 8 819 818 817 825
747 8 543 545 546 550
748 8 543 545 546 551
749 8 543 545 546 552
750 12 818 819 821 822
751 10 820 819 821 822
752 11 820 819 821 822
753 8 699 701 702 706
754 8 699 701 702 707
755 8 699 701 702 708
756 10 361 362 363 364
757 11 361 362 363 364
758 12 361 362 363 365
759 8 363 362 361 367
760 8 363 362 361 368
761 8 363 362 361 369
762 12 398 399 401 402
763 10 400 399 401 402
764 11 400 399 401 402
765 10 397 398 399 400
766 11 397 398 399 400
767 12 397 398 399 401
768 8 399 398 397 403
769 8 399 398 397 404
770 8 399 398 397 405
771 12 506 507 509 510
772 10 508 507 509 510
773 11 508 507 509 510
774 10 325 326 327 328
775 11 325 326 327 328
776 12 325 326 327 329
777 8 327 326 325 331
778 8 327 326 325 332
779 8 327 326 325 333
780 12 326 327 329 330
781 10 328 327 329 330
782 11 328 327 329 330
783 8 507 509 510 514
784 8 507 509 510 515
785 8 507 509 510 516
786 8 327 329 330 334
787 8 327 329 330 335
788 8 327 329 330 336
789 3 12 13 14 15
790 3 12 13 14 16
791 8 14 13 12 19
792 8 14 13 12 20
793 1 11 12 13 14
794 2 11 12 13 14
795 4 13 12 11 16
796 5 13 12 11 16
797 6 13 12 11 17
798 7 13 12 11 17
799 6 13 12 11 18
800 7 13 12 11 18
801 3 141 146 144 143
802 3 141 146 144 145
803 8 144 146 141 147
804 8 144 146 141 148
805 10 757 758 759 760
806 11 757 758 759 760
807 12 757 758 759 761
808 8 759 758 757 763
809 8 759 758 757 764
810 8 759 758 757 765
811 3 142 143 144 145
812 3 142 143 144 146
813 8 144 143 142 149
814 8 144 143 142 150
815 3 291 296 294 293
816 3 291 296 294 295
817 8 294 296 291 297
818 8 294 296 291 298
819 1 292 291 296 294
820 2 292 291 296 294
821 6 296 291 292 299
822 7 296 291 292 299
823 6 296 291 292 300
824 7 296 291 292 300
825 9 297 291 292 299
826 9 297 291 292 300
827 9 298 291 292 299
828 9 298 291 292 300
829 3 292 293 294 295
830 3 292 293 294 296
831 8 294 293 292 299
832 8 294 293 292 300
833 1 291 292 293 294
834 2 291 292 293 294
835 4 293 292 291 296
836 5 293 292 291 296
837 6 293 292 291 297
838 7 293 292 291 297
839 6 293 292 291 298
840 7 293 292 291 298
841 8 483 485 486 490
842 8 483 485 486 491
843 8 483 485 486 492
844 12 482 483 485 486
845 10 484 483 485 486
846 11 484 483 485 486
847 1 31 32 33 34
848 2 31 32 33 34
849 4 33 32 31 36
850 5 33 32 31 36
851 6 33 32 31 37
852 7 33 32 31 37
853 6 33 32 31 38
854 7 33 32 31 38
855 3 32 33 34 35
856 3 32 33 34 36
857 8 34 33 32 39
858 8 34 33 32 40
859 1 32 31 36 34
860 2 32 31 36 34
861 6 36 31 32 39
862 7 36 31 32 39
863 6 36 31 32 40
864 7 36 31 32 40
865 9 37 31 32 39
866 9 37 31 32 40
867 9 38 31 32 39
868 9 38 31 32 40
869 1 181 182 183 184
870 2 181 182 183 184
871 4 183 182 181 186
872 5 183 182 181 186
873 6 183 182 181 187
874 7 183 182 181 187
875 6 183 182 181 188
876 7 183 182 181 188
877 3 182 183 184 185
878 3 182 183 184 186
879 8 184 183 182 189
880 8 184 183 182 190
881 1 182 181 186 184
882 2 182 181 186 184
883 6 186 181 182 189
884 7 186 181 182 189
885 6 186 181 182 190
886 7 186 181 182 190
887 9 187 181 182 189
888 9 187 181 182 190
889 9 188 181 182 189
890 9 188 181 182 190
891 3 181 186 184 183
892 3 181 186 184 185
893 8 184 186 181 187
894 8 184 186 181 188
895 8 771 773 774 778
896 8 771 773 774 779
897 8 771 773 774 780
898 3 31 36 34 33
899 3 31 36 34 35
900 8 34 36 31 37
901 8 34 36 31 38
902 12 602 603 605 606
903 10 604 603 605 606
904 11 604 603 605 606
905 8 603 605 606 610
906 8 603 605 606 611
907 8 603 605 606 612
908 10 913 914 915 916
909 11 913 914 915 916
910 12 913 914 915 917
911 8 915 914 913 919
912 8 915 914 913 920
913 8 915 914 913 921
914 12 614 615 617 618
915 10 616 615 617 618
916 11 616 615 617 618
917 8 615 617 618 622
918 8 615 617 618 623
919 8 615 617 618 624
920 10 613 614 615 616
921 11 613 614 615 616
922 12 613 614 615 617
923 8 615 614 613 619
924 8 615 614 613 620
925 8 615 614 613 621
926 10 601 602 603 604
927 11 601 602 603 604
928 12 601 602 603 605
929 8 603 602 601 607
930 8 603 602 601 608
931 8 603 602 601 609
932 1 41 42 43 44
933 2 41 42 43 44
934 4 43 42 41 46
935 5 43 42 41 46
936 6 43 42 41 47
937 7 43 42 41 47
938 6 43 42 41 48
939 7 43 42 41 48
940 3 42 43 44 45
941 3 42 43 44 46
942 8 44 43 42 49
943 8 44 43 42 50
944 12 770 771 773 774
945 10 772 771 773 774
946 11 772 771 773 774
947 10 769 770 771 772
948 11 769 770 771 772
949 12 769 770 771 773
950 8 771 770 769 775
951 8 771 770 769 776
952 8 771 770 769 777
953 1 122 121 126 124
954 2 122 121 126 124
955 6 126 121 122 129
956 7 126 121 122 129
957 6 126 121 122 130
958 7 126 121 122 130
959 9 127 121 122 129
960 9 127 121 122 130
961 9 128 121 122 129
962 9 128 121 122 130
963 3 121 126 124 123
964 3 121 126 124 125
965 8 124 126 121 127
966 8 124 126 121 128
967 8 807 809 810 814
968 8 807 809 810 815
969 8 807 809 810 816
970 3 122 123 124 125
971 3 122 123 124 126
972 8 124 123 122 129
973 8 124 123 122 130
974 1 121 122 123 124
975 2 121 122 123 124
976 4 123 122 121 126
977 5 123 122 121 126
978 6 123 122 121 127
979 7 123 122 121 127
980 6 123 122 121 128
981 7 123 122 121 128
982 3 41 46 44 43
983 3 41 46 44 45
984 8 44 46 41 47
985 8 44 46 41 48
986 1 42 41 46 44
987 2 42 41 46 44
988 6 46 41 42 49
989 7 46 41 42 49
990 6 46 41 42 50
991 7 46 41 42 50
992 9 47 41 42 49
993 9 47 41 42 50
994 9 48 41 42 49
995 9 48 41 42 50
996 8 735 737 738 742
997 8 735 737 738 743
998 8 735 737 738 744
999 10 733 734 735 736
1000 11 733 734 735 736
1001 12 733 734 735 737
1002 8 735 734 733 739
1003 8 735 734 733 740
1004 8 735 734 733 741
1005 12 734 735 737 738
1006 10 736 735 737 738
1007 11 736 735 737 738
1008 8 867 869 870 874
1009 8 867 869 870 875
1010 8 867 869 870 876
1011 10 937 938 939 940
1012 11 937 938 939 940
1013 12 937 938 939 941
1014 8 939 938 937 943
1015 8 939 938 937 944
1016 8 939 938 937 945
1017 12 938 939 941 942
1018 10 940 939 941 942
1019 11 940 939 941 942
1020 1 12 11 16 14
1021 2 12 11 16 14
1022 6 16 11 12 19
1023 7 16 11 12 19
1024 6 16 11 12 20
1025 7 16 11 12 20
1026 9 17 11 12 19
1027 9 17 11 12 20
1028 9 18 11 12 19
1029 9 18 11 12 20
1030 3 11 16 14 13
1031 3 11 16 14 15
1032 8 14 16 11 17
1033 8 14 16 11 18
1034 10 481 482 483 484
1035 11 481 482 483 484
1036 12 481 482 483 485
1037 8 483 482 481 487
1038 8 483 482 481 488
1039 8 483 482 481 489
1040 8 339 341 342 346
1041 8 339 341 342 347
1042 8 339 341 342 348
1043 12 338 339 341 342
1044 10 340 339 341 342
1045 11 340 339 341 342
1046 1 262 261 266 264
1047 2 262 261 266 264
1048 6 266 261 262 269
1049 7 266 261 262 269
1050 6 266 261 262 270
1051 7 266 261 262 270
1052 9 267 261 262 269
1053 9 267 261 262 270
1054 9 268 261 262 269
1055 9 268 261 262 270
1056 3 261 266 264 263
1057 3 261 266 264 265
1058 8 264 266 261 267
1059 8 264 266 261 268
1060 1 261 262 263 264
1061 2 261 262 263 264
1062 4 263 262 261 266
1063 5 263 262 261 266
1064 6 263 262 261 267
1065 7 263 262 261 267
1066 6 263 262 261 268
1067 7 263 262 261 268
1068 8 927 929 930 934
1069 8 927 929 930 935
1070 8 927 929 930 936
1071 8 939 941 942 946
1072 8 939 941 942 947
1073 8 939 941 942 948
1074 12 926 927 929 930
1075 10 928 927 929 930
1076 11 928 927 929 930
1077 12 314 315 317 318
1078 10 316 315 317 318
1079 11 316 315 317 318
1080 8 315 317 318 322
1081 8 315 317 318 323
1082 8 315 317 318 324
1083 10 313 314 315 316
1084 11 313 314 315 316
1085 12 313 314 315 317
1086 8 315 314 313 319
1087 8 315 314 313 320
1088 8 315 314 313 321
1089 12 674 675 677 678
1090 10 676 675 677 678
1091 11 676 675 677 678
1092 10 673 674 675 676
1093 11 673 674 675 676
1094 12 673 674 675 677
1095 8 675 674 673 679
1096 8 675 674 673 680
1097 8 675 674 673 681
1098 10 337 338 339 340
1099 11 337 338 339 340
1100 12 337 338 339 341
1101 8 339 338 337 343
1102 8 339 338 337 344
1103 8 339 338 337 345
1104 8 459 461 462 466
1105 8 459 461 462 467
1106 8 459 461 462 468
1107 12 458 459 461 462
1108 10 460 459 461 462
1109 11 460 459 461 462
1110 3 212 213 214 215
1111 3 212 213 214 216
1112 8 214 213 212 219
1113 8 214 213 212 220
1114 10 925 926 927 928
1115 11 925 926 927 928
1116 12 925 926 927 929
1117 8 927 926 925 931
1118 8 927 926 925 932
1119 8 927 926 925 933
1120 12 650 651 653 654
1121 10 652 651 653 654
1122 11 652 651 653 654
1123 8 651 653 654 658
1124 8 651 653 654 659
1125 8 651 653 654 660
1126 10 889 890 891 892
1127 11 889 890 891 892
1128 12 889 890 891 893
1129 8 891 890 889 895
1130 8 891 890 889 896
1131 8 891 890 889 897
1132 12 890 891 893 894
1133 10 892 891 893 894
1134 11 892 891 893 894
1135 10 493 494 495 496
1136 11 493 494 495 496
1137 12 493 494 495 497
1138 8 495 494 493 499
1139 8 495 494 493 500
1140 8 495 494 493 501
1141 8 891 893 894 898
1142 8 891 893 894 899
1143 8 891 893 894 900
1144 3 172 173 174 175
1145 3 172 173 174 176
1146 8 174 173 172 179
1147 8 174 173 172 180
1148 8 495 497 498 502
1149 8 495 497 498 503
1150 8 495 497 498 504
1151 12 494 495 497 498
1152 10 496 495 497 498
1153 11 496 495 497 498
1154 1 201 202 203 204
1155 2 201 202 203 204
1156 4 203 202 201 206
1157 5 203 202 201 206
1158 6 203 202 201 207
1159 7 203 202 201 207
1160 6 203 202 201 208
1161 7 203 202 201 208
1162 3 202 203 204 205
1163 3 202 203 204 206
1164 8 204 203 202 209
1165 8 204 203 202 210
1166 1 202 201 206 204
1167 2 202 201 206 204
1168 6 206 201 202 209
1169 7 206 201 202 209
1170 6 206 201 202 210
1171 7 206 201 202 210
1172 9 207 201 202 209
1173 9 207 201 202 210
1174 9 208 201 202 209
1175 9 208 201 202 210
1176 3 201 206 204 203
1177 3 201 206 204 205
1178 8 204 206 201 207
1179 8 204 206 201 208
1180 10 949 950 951 952
1181 11 949 950 951 952
1182 12 949 950 951 953
1183 8 951 950 949 955
1184 8 951 950 949 956
1185 8 951 950 949 957
1186 10 637 638 639 640
1187 11 637 638 639 640
1188 12 637 638 639 641
1189 8 639 638 637 643
1190 8 639 638 637 644
1191 8 639 638 637 645
1192 3 262 263 264 265
1193 3 262 263 264 266
1194 8 264 263 262 269
1195 8 264 263 262 270
1196 3 161 166 164 163
1197 3 161 166 164 165
1198 8 164 166 161 167
1199 8 164 166 161 168
1200 1 162 161 166 164
1201 2 162 161 166 164
1202 6 166 161 162 169
1203 7 166 161 162 169
1204 6 166 161 162 170
1205 7 166 161 162 170
1206 9 167 161 162 169
1207 9 167 161 162 170
1208 9 168 161 162 169
1209 9 168 161 162 170
1210 1 161 162 163 164
1211 2 161 162 163 164
1212 4 163 162 161 166
1213 5 163 162 161 166
1214 6 163 162 161 167
1215 7 163 162 161 167
1216 6 163 162 161 168
1217 7 163 162 161 168
1218 3 162 163 164 165
1219 3 162 163 164 166
1220 8 164 163 162 169
1221 8 164 163 162 170
1222 8 675 677 678 682
1223 8 675 677 678 683
1224 8 675 677 678 684
1225 10 457 458 459 460
1226 11 457 458 459 460
1227 12 457 458 459 461
1228 8 459 458 457 463
1229 8 459 458 457 464
1230 8 459 458 457 465
1231 8 471 473 474 478
1232 8 471 473 474 479
1233 8 471 473 474 480
1234 10 589 590 591 592
1235 11 589 590 591 592
1236 12 589 590 591 593
1237 8 591 590 589 595
1238 8 591 590 589 596
1239 8 591 590 589 597
1240 3 171 176 174 173
1241 3 171 176 174 175
1242 8 174 176 171 177
1243 8 174 176 171 178
1244 1 271 272 273 274
1245 2 271 272 273 274
1246 4 273 272 271 276
1247 5 273 272 271 276
1248 6 273 272 271 277
1249 7 273 272 271 277
1250 6 273 272 271 278
1251 7 273 272 271 278
1252 3 272 273 274 275
1253 3 272 273 274 276
1254 8 274 273 272 279
1255 8 274 273 272 280
1256 1 272 271 276 274
1257 2 272 271 276 274
1258 6 276 271 272 279
1259 7 276 271 272 279
1260 6 276 271 272 280
1261 7 276 271 272 280
1262 9 277 271 272 279
1263 9 277 271 272 280
1264 9 278 271 272 279
1265 9 278 271 272 280
1266 3 271 276 274 273
1267 3 271 276 274 275
1268 8 274 276 271 277
1269 8 274 276 271 278
1270 12 590 591 593 594
1271 10 592 591 593 594
1272 11 592 591 593 594
1273 1 172 171 176 174
1274 2 172 171 176 174
1275 6 176 171 172 179
1276 7 176 171 172 179
1277 6 176 171 172 180
1278 7 176 171 172 180
1279 9 177 171 172 179
1280 9 177 171 172 180
1281 9 178 171 172 179
1282 9 178 171 172 180
1283 8 351 353 354 358
1284 8 351 353 354 359
1285 8 351 353 354 360
1286 12 758 759 761 762
1287 10 760 759 761 762
1288 11 760 759 761 762
1289 8 819 821 822 826
1290 8 819 821 822 827
1291 8 819 821 822 828
1292 8 759 761 762 766
1293 8 759 761 762 767
1294 8 759 761 762 768
1295 10 697 698 699 700
1296 11 697 698 699 700
1297 12 697 698 699 701
1298 8 699 698 697 703
1299 8 699 698 697 704
1300 8 699 698 697 705
1301 12 698 699 701 702
1302 10 700 699 701 702
1303 11 700 699 701 702
1304 10 301 302 303 304
1305 11 301 302 303 304
1306 12 301 302 303 305
1307 8 303 302 301 307
1308 8 303 302 301 308
1309 8 303 302 301 309
1310 8 303 305 306 310
1311 8 303 305 306 311
1312 8 303 305 306 312
1313 12 302 303 305 306
1314 10 304 303 305 306
1315 11 304 303 305 306
1316 12 638 639 641 642
1317 10 640 639 641 642
1318 11 640 639 641 642
1319 10 529 530 531 532
1320 11 529 530 531 532
1321 12 529 530 531 533
1322 8 531 530 529 535
1323 8 531 530 529 536
1324 8 531 530 529 537
1325 8 591 593 594 598
1326 8 591 593 594 599
1327 8 591 593 594 600
1328 8 639 641 642 646
1329 8 639 641 642 647
1330 8 639 641 642 648
1331 1 21 22 23 24
1332 2 21 22 23 24
1333 4 23 22 21 26
1334 5 23 22 21 26
1335 6 23 22 21 27
1336 7 23 22 21 27
1337 6 23 22 21 28
1338 7 23 22 21 28
1339 1 22 21 26 24
1340 2 22 21 26 24
1341 6 26 21 22 29
1342 7 26 21 22 29
1343 6 26 21 22 30
1344 7 26 21 22 30
1345 9 27 21 22 29
1346 9 27 21 22 30
1347 9 28 21 22 29
1348 9 28 21 22 30
1349 12 530 531 533 534
1350 10 532 531 533 534
1351 11 532 531 533 534
1352 3 22 23 24 25
1353 3 22 23 24 26
1354 8 24 23 22 29
1355 8 24 23 22 30
1356 8 531 533 534 538
1357 8 531 533 534 539
1358 8 531 533 534 540
1359 10 349 350 351 352
1360 11 349 350 351 352
1361 12 349 350 351 353
1362 8 351 350 349 355
1363 8 351 350 349 356
1364 8 351 350 349 357
1365 12 350 351 353 354
1366 10 352 351 353 354
1367 11 352 351 353 354
1368 3 21 26 24 23
1369 3 21 26 24 25
1370 8 24 26 21 27
1371 8 24 26 21 28
1372 3 92 93 94 95
1373 3 92 93 94 96
1374 8 94 93 92 99
1375 8 94 93 92 100
1376 1 91 92 93 94
1377 2 91 92 93 94
1378 4 93 92 91 96
1379 5 93 92 91 96
1380 6 93 92 91 97
1381 7 93 92 91 97
1382 6 93 92 91 98
1383 7 93 92 91 98
1384 10 577 578 579 580
1385 11 577 578 579 580
1386 12 577 578 579 581
1387 8 579 578 577 583
1388 8 579 578 577 584
1389 8 579 578 577 585
1390 8 579 581 582 586
1391 8 579 581 582 587
1392 8 579 581 582 588
1393 12 578 579 581 582
1394 10 580 579 581 582
1395 11 580 579 581 582
1396 1 92 91 96 94
1397 2 92 91 96 94
1398 6 96 91 92 99
1399 7 96 91 92 99
1400 6 96 91 92 100
1401 7 96 91 92 100
1402 9 97 91 92 99
1403 9 97 91 92 100
1404 9 98 91 92 99
1405 9 98 91 92 100
1406 3 91 96 94 93
1407 3 91 96 94 95
1408 8 94 96 91 97
1409 8 94 96 91 98
1410 1 211 212 213 214
1411 2 211 212 213 214
1412 4 213 212 211 216
1413 5 213 212 211 216
1414 6 213 212 211 217
1415 7 213 212 211 217
1416 6 213 212 211 218
1417 7 213 212 211 218
1418 1 212 211 216 214
1419 2 212 211 216 214
1420 6 216 211 212 219
1421 7 216 211 212 219
1422 6 216 211 212 220
1423 7 216 211 212 220
1424 9 217 211 212 219
1425 9 217 211 212 220
1426 9 218 211 212 219
1427 9 218 211 212 220
1428 3 211 216 214 213
1429 3 211 216 214 215
1430 8 214 216 211 217
1431 8 214 216 211 218
1432 10 793 794 795 796
1433 11 793 794 795 796
1434 12 793 794 795 797
1435 8 795 794 793 799
1436 8 795 794 793 800
1437 8 795 794 793 801
1438 12 470 471 473 474
1439 10 472 471 473 474
1440 11 472 471 473 474
1441 10 469 470 471 472
1442 11 469 470 471 472
1443 12 469 470 471 473
1444 8 471 470 469 475
1445 8 471 470 469 476
1446 8 471 470 469 477
1447 12 794 795 797 798
1448 10 796 795 797 798
1449 11 796 795 797 798
1450 8 795 797 798 802
1451 8 795 797 798 803
1452 8 795 797 798 804

Impropers

1 1 84 83 85 86
2 1 84 85 86 83
3 1 84 86 83 85
4 1 423 424 425 422
5 1 867 866 868 869
6 1 663 664 665 662
7 1 723 725 722 724
8 1 64 65 66 63
9 1 723 724 725 722
10 1 963 962 964 965
11 1 723 722 724 725
12 1 963 964 965 962
13 1 963 965 962 964
14 1 807 808 809 806
15 1 831 832 833 830
16 1 915 917 914 916
17 1 807 806 808 809
18 1 411 410 412 413
19 1 411 412 413 410
20 1 903 904 905 902
21 1 903 905 902 904
22 1 903 902 904 905
23 1 711 712 713 710
24 1 711 713 710 712
25 1 711 710 712 713
26 1 543 542 544 545
27 1 783 785 782 784
28 1 399 401 398 400
29 1 194 195 196 193
30 1 64 66 63 65
31 1 507 506 508 509
32 1 64 63 65 66
33 1 507 508 509 506
34 1 74 76 73 75
35 1 74 73 75 76
36 1 74 75 76 73
37 1 663 665 662 664
38 1 435 437 434 436
39 1 663 662 664 665
40 1 224 225 226 223
41 1 435 436 437 434
42 1 224 223 225 226
43 1 831 830 832 833
44 1 435 434 436 437
45 1 375 376 377 374
46 1 375 374 376 377
47 1 831 833 830 832
48 1 843 844 845 842
49 1 555 556 557 554
50 1 843 842 844 845
51 1 555 554 556 557
52 1 555 557 554 556
53 1 154 153 155 156
54 1 447 446 448 449
55 1 855 856 857 854
56 1 855 854 856 857
57 1 855 857 854 856
58 1 951 952 953 950
59 1 154 156 153 155
60 1 951 953 950 952
61 1 134 135 136 133
62 1 134 136 133 135
63 1 783 782 784 785
64 1 224 226 223 225
65 1 114 113 115 116
66 1 387 388 389 386
67 1 114 116 113 115
68 1 387 386 388 389
69 1 104 103 105 106
70 1 244 245 246 243
71 1 375 377 374 376
72 1 104 106 103 105
73 1 244 243 245 246
74 1 387 389 386 388
75 1 843 845 842 844
76 1 114 115 116 113
77 1 651 650 652 653
78 1 447 448 449 446
79 1 447 449 446 448
80 1 104 105 106 103
81 1 244 246 243 245
82 1 154 155 156 153
83 1 819 820 821 818
84 1 363 364 365 362
85 1 363 365 362 364
86 1 519 518 520 521
87 1 284 285 286 283
88 1 284 286 283 285
89 1 54 55 56 53
90 1 54 53 55 56
91 1 54 56 53 55
92 1 627 629 626 628
93 1 687 689 686 688
94 1 687 688 689 686
95 1 687 686 688 689
96 1 423 425 422 424
97 1 423 422 424 425
98 1 284 283 285 286
99 1 543 544 545 542
100 1 879 880 881 878
101 1 567 568 569 566
102 1 879 878 880 881
103 1 4 3 5 6
104 1 4 5 6 3
105 1 4 6 3 5
106 1 879 881 878 880
107 1 234 236 233 235
108 1 519 521 518 520
109 1 411 413 410 412
110 1 134 133 135 136
111 1 234 233 235 236
112 1 234 235 236 233
113 1 627 626 628 629
114 1 567 566 568 569
115 1 747 746 748 749
116 1 747 749 746 748
117 1 747 748 749 746
118 1 254 256 253 255
119 1 254 253 255 256
120 1 254 255 256 253
121 1 783 784 785 782
122 1 567 569 566 568
123 1 194 196 193 195
124 1 194 193 195 196
125 1 819 818 820 821
126 1 543 545 542 544
127 1 699 701 698 700
128 1 363 362 364 365
129 1 915 916 917 914
130 1 399 400 401 398
131 1 399 398 400 401
132 1 327 326 328 329
133 1 507 509 506 508
134 1 327 329 326 328
135 1 327 328 329 326
136 1 14 13 15 16
137 1 144 146 143 145
138 1 759 758 760 761
139 1 144 145 146 143
140 1 144 143 145 146
141 1 294 296 293 295
142 1 294 295 296 293
143 1 294 293 295 296
144 1 483 485 482 484
145 1 483 484 485 482
146 1 34 33 35 36
147 1 184 183 185 186
148 1 184 186 183 185
149 1 771 773 770 772
150 1 34 36 33 35
151 1 34 35 36 33
152 1 184 185 186 183
153 1 867 868 869 866
154 1 603 605 602 604
155 1 915 914 916 917
156 1 615 616 617 614
157 1 615 617 614 616
158 1 615 614 616 617
159 1 603 602 604 605
160 1 214 215 216 213
161 1 44 43 45 46
162 1 771 770 772 773
163 1 771 772 773 770
164 1 124 126 123 125
165 1 807 809 806 808
166 1 124 123 125 126
167 1 124 125 126 123
168 1 44 45 46 43
169 1 44 46 43 45
170 1 735 737 734 736
171 1 735 734 736 737
172 1 867 869 866 868
173 1 927 928 929 926
174 1 939 938 940 941
175 1 939 940 941 938
176 1 14 16 13 15
177 1 483 482 484 485
178 1 339 340 341 338
179 1 339 341 338 340
180 1 603 604 605 602
181 1 264 266 263 265
182 1 14 15 16 13
183 1 927 929 926 928
184 1 939 941 938 940
185 1 315 317 314 316
186 1 315 314 316 317
187 1 315 316 317 314
188 1 675 674 676 677
189 1 339 338 340 341
190 1 459 461 458 460
191 1 214 213 215 216
192 1 927 926 928 929
193 1 651 653 650 652
194 1 891 892 893 890
195 1 891 890 892 893
196 1 495 494 496 497
197 1 891 893 890 892
198 1 174 173 175 176
199 1 495 496 497 494
200 1 495 497 494 496
201 1 204 203 205 206
202 1 204 206 203 205
203 1 951 950 952 953
204 1 459 460 461 458
205 1 264 265 266 263
206 1 639 638 640 641
207 1 264 263 265 266
208 1 164 165 166 163
209 1 164 166 163 165
210 1 204 205 206 203
211 1 164 163 165 166
212 1 675 676 677 674
213 1 675 677 674 676
214 1 651 652 653 650
215 1 459 458 460 461
216 1 471 473 470 472
217 1 519 520 521 518
218 1 591 592 593 590
219 1 591 590 592 593
220 1 174 175 176 173
221 1 174 176 173 175
222 1 274 273 275 276
223 1 274 276 273 275
224 1 351 353 350 352
225 1 759 760 761 758
226 1 819 821 818 820
227 1 759 761 758 760
228 1 699 698 700 701
229 1 699 700 701 698
230 1 303 302 304 305
231 1 303 305 302 304
232 1 274 275 276 273
233 1 531 530 532 533
234 1 591 593 590 592
235 1 639 641 638 640
236 1 303 304 305 302
237 1 531 532 533 530
238 1 639 640 641 638
239 1 24 23 25 26
240 1 531 533 530 532
241 1 351 350 352 353
242 1 579 580 581 578
243 1 24 26 23 25
244 1 94 93 95 96
245 1 94 95 96 93
246 1 579 578 580 581
247 1 351 352 353 350
248 1 579 581 578 580
249 1 94 96 93 95
250 1 24 25 26 23
251 1 735 736 737 734
252 1 214 216 213 215
253 1 795 794 796 797
254 1 627 628 629 626
255 1 471 470 472 473
256 1 471 472 473 470
257 1 795 797 794 796
258 1 795 796 797 794
