LAMMPS data file via write_data, version 22 Jul 2025, timestep = 510667, units = real

1014 atoms
8 atom types
944 bonds
6 bond types
1504 angles
7 angle types
1452 dihedrals
12 dihedral types
258 impropers
1 improper types

-0.289260293935083 22.884551904935257 xlo xhi
-0.257260284974155 22.91655191494391 ylo yhi
-0.29826028998786214 22.875551914987888 zlo zhi

Masses

1 12.01078
2 15.99943
3 12.01078
4 15.99943
5 1.007947
6 6.9412
7 18.998403
8 10.8117

Pair Coeffs # lj/cut/coul/long

1 0.108841 3.37953
2 0.168465 3.02511
3 0.0868793 3.48065
4 0.210206 3.03981
5 0.0164092 2.58323
6 0.0279896 1.82634
7 0.061 3.11993
8 0.095 3.42105

Bond Coeffs # harmonic

1 215.301 1.53363
2 227.037 1.43632
3 357.819 1.09421
4 291.342 1.35606
5 762.039 1.225
6 386.59 1.394

Angle Coeffs # harmonic

1 91.5186 108.173
2 66.7563 109.938
3 63.31 123.606
4 36.7766 108.354
5 119.896 112.874
6 84.5477 120.105
7 80.005 109.5

Dihedral Coeffs # opls

1 1 0.111303 3 0
2 1 0.438911 1 180
3 1 1.76361 2 180
4 1 -0.0153377 3 0
5 1 0.41915 2 0
6 1 0.131135 3 0
7 1 0.436547 1 0
8 1 0.263111 3 0
9 1 0.227995 3 0
10 1 0.302195 2 180
11 1 1.35005 1 180
12 1 3.48187 2 180

Improper Coeffs # cvff

1 4.30523 -1 2

Atoms # full

865 78 1 0.1266165 5.693704378677296 6.514731959006863 8.557814249746174 0 0 0
866 78 2 -0.3889835 4.309920373869531 6.588189348338413 8.9363858103735 0 0 0
53 6 2 -0.4048 4.868241053571432 1.0857718779272065 7.307835534720825 0 0 1
871 78 5 0.0582835 5.727391954350463 6.688133923089735 7.491138437849113 0 0 0
868 78 4 -0.5800835 3.9173292159025026 4.898494497189228 7.556160654201527 0 0 0
873 78 5 0.0582835 6.105361426185063 5.557830501958479 8.852723145245957 0 0 0
867 78 3 0.7551165 3.498838645227224 5.704990330060472 8.360372830087803 0 0 0
872 78 5 0.0582835 6.147907400022711 7.357498550271285 9.13393391836131 0 0 0
869 78 2 -0.3889835 2.162972176592984 5.718236042176498 8.70348023216157 0 0 0
402 39 1 0.1266165 5.442327017721785 9.778047521727679 5.941749084245026 0 0 0
189 19 5 0.0798 2.011205257936381 2.541580059484622 2.3221825161020524 0 1 0
103 11 2 -0.4048 1.5516898459730095 8.301045994035645 6.626642749073648 1 0 1
104 11 3 0.8478 2.059828199290172 7.7932204296037675 5.445491742835479 1 0 1
187 19 5 0.0798 3.3214020578885455 1.1962624060294518 0.8726533010321206 0 1 0
105 11 4 -0.5484 3.211331007396707 7.354662750985556 5.28741329438802 1 0 1
106 11 2 -0.4048 1.157336549137355 7.795026283145957 4.430500532891159 1 0 1
57 6 5 0.0798 6.610641282608067 1.0579809023845115 9.591894909505916 0 0 1
54 6 3 0.8478 5.833249406267517 2.097177770998266 7.127962896369813 0 0 1
55 6 4 -0.5484 6.176464130826722 2.6142291831977835 6.0859512794336705 0 0 1
66 7 2 -0.4048 3.594438836173412 5.070009478950653 3.011284045941711 0 0 0
51 6 1 0.0955 5.78960871821203 1.6882950657943772 9.290567867751243 0 0 1
56 6 2 -0.4048 6.34766603683544 2.432130697189217 8.306025692971895 0 0 1
60 6 5 0.0798 3.778226033974102 0.9755358859594232 9.04386614634399 0 0 1
64 7 3 0.8478 3.963568258507689 6.222169402305306 2.3069344255474347 0 0 0
65 7 4 -0.5484 3.2976914376422672 6.790693449193114 1.4822048098645593 0 0 0
38 4 5 0.0798 1.2726486515153899 8.022509988831224 9.003645279787275 0 -1 0
52 6 1 0.0955 4.810992244252057 0.8102969636628082 8.719734233778283 0 0 1
67 7 5 0.0798 4.52498711029225 4.517711941715981 4.9436522678768435 0 0 0
61 7 1 0.0955 4.746211766157481 4.803205829560002 3.8809150090268623 0 0 0
68 7 5 0.0798 5.226432044112221 3.858856999023256 3.5304727411463106 0 0 0
69 7 5 0.0798 5.722563719363587 6.4938102440669745 4.5477520312553 0 0 0
63 7 2 -0.4048 5.2037905314007835 6.740324480882162 2.62043409336933 0 0 0
62 7 1 0.0955 5.756073406687383 5.881608783527389 3.643078088328067 0 0 0
101 11 1 0.0955 -0.07049079279781917 8.32664561419007 4.936743309169049 1 0 1
948 84 5 0.0582835 1.619980075156354 1.2516549039789837 4.324880478599221 0 1 0
837 75 5 0.0582835 3.3057123181956585 9.222227977462667 2.912607942836758 1 0 0
58 6 5 0.0798 5.474193144450309 2.178996290288733 10.222428340585202 0 0 1
70 7 5 0.0798 6.841790862573432 5.521918537170958 3.4963936808398173 0 0 0
102 11 1 0.0955 0.15151349691330435 8.643620317994829 6.339694822415106 1 0 1
110 11 5 0.0798 22.786894231144753 7.926307189310177 6.874032416238012 0 0 1
829 75 1 0.1266165 2.8342858960697153 9.828355210318486 2.1230488269861256 1 0 0
946 84 5 0.0582835 2.443810835411762 1.0837723529351482 5.878921497393703 0 1 0
18 2 5 0.0798 6.268415636852699 9.131371024564574 1.184674041151424 0 0 0
109 11 5 0.0798 -0.2634281008628121 9.582691080423375 6.71286456011979 1 0 1
31 4 1 0.0955 1.4419344950151853 8.82599328046322 9.75205389396323 0 -1 0
408 39 5 0.0582835 5.176578917171108 9.28575831715652 6.911134121537448 0 0 0
942 84 1 0.1266165 2.2420059363769314 0.5959993268732693 4.9355928695862925 0 1 0
870 78 1 0.1266165 1.3222672329827987 4.659824789085961 7.981459032466708 0 0 0
836 75 5 0.0582835 3.50367027972525 9.737831103011727 1.3033722783661004 1 0 0
876 78 5 0.0582835 1.284821327340355 4.849027049883456 6.852834771571667 0 0 0
184 19 3 0.8478 0.6809407587862883 0.8162278314630032 0.009184878231016833 0 1 0
610 56 5 0.0582835 21.11117322263427 1.90914003616493 -0.07568970017779031 0 0 0
36 4 2 -0.4048 0.327025964457811 9.79547196498784 9.586641329795155 0 -1 0
926 83 2 -0.3889835 6.777331279471942 1.5866741648529612 1.9308808132905337 0 1 1
183 19 2 -0.4048 0.4805850936530511 1.7415333605394256 1.0035593514721461 0 1 0
874 78 5 0.0582835 1.6463359171401581 3.6540821376017423 8.288408686443407 0 0 0
32 4 1 0.0955 2.6469576231676477 9.728543097205183 9.341855737234402 0 -1 0
545 51 2 -0.3889835 21.803740631720444 3.1857000377084046 10.204343163440107 -1 0 1
542 51 2 -0.3889835 22.166362865169045 1.8206183616162777 8.25585219462172 -1 0 1
609 56 5 0.0582835 0.1601340757820306 5.314774954111139 2.8344230536735338 1 0 0
830 75 2 -0.3889835 2.9440856633367156 11.27934457540539 2.363818140974629 1 0 0
407 39 5 0.0582835 6.46979115320506 9.557518779560343 5.598434081313441 0 0 0
400 39 4 -0.5800835 7.048364407986094 10.788736858107644 7.764173111635005 0 0 0
832 75 4 -0.5800835 1.8500864691373098 10.924246934322769 4.395279660021434 1 0 0
927 83 3 0.7551165 6.5801859430188525 0.8313701169595493 0.767055414261685 0 1 1
190 19 5 0.0798 1.4959009405222108 3.391958941267342 0.9170781495757233 0 1 0
182 19 1 0.0955 1.707475253418102 2.4107138718513097 1.2503234244239956 0 1 0
947 84 5 0.0582835 3.2310549691522814 0.4030068027259809 4.582411413394796 0 1 0
543 51 3 0.7551165 22.39055179201439 2.095401537136 9.589503942210195 -1 0 1
181 19 1 0.0955 2.62536401206368 1.8151604388617708 0.3133744210752481 0 1 0
17 2 5 0.0798 7.111845319060228 8.052096539047705 2.3053004990944643 0 0 0
721 66 1 0.1266165 21.03193681877928 0.21214992645844039 3.313908036210386 -1 0 0
270 27 5 0.0798 10.885988583811118 -0.09044005399804668 7.818939399210975 0 1 0
11 2 1 0.0955 7.239851093782549 8.815754996636967 1.4562661509337687 0 0 0
40 4 5 0.0798 3.1876306413678948 9.26114874121286 8.607140200542398 0 -1 0
618 57 1 0.1266165 13.383277798213316 6.932992202813498 0.10162734568656925 0 1 0
875 78 5 0.0582835 0.36716184370965893 4.7497147568320415 8.467877645035363 0 0 0
406 39 5 0.0582835 4.733416513399553 9.52916447396973 5.151289712682643 0 0 0
37 4 5 0.0798 1.4341684106897346 8.48477742891726 10.806814200354227 0 -1 0
929 83 2 -0.3889835 5.430878723092608 0.06955965184530309 0.7674617928340925 0 1 1
33 4 2 -0.4048 2.0891762098129245 11.03244236368082 8.995937070990623 0 -1 0
39 4 5 0.0798 3.2211917609716587 9.841007934045573 10.19626957863855 0 -1 0
825 74 5 0.0582835 16.597520188819576 3.896806125009886 9.502074558720244 -1 0 0
296 30 2 -0.4048 14.50724581077048 10.86246580494223 4.037134697745195 0 0 0
535 50 5 0.0582835 19.33460573250055 0.046477260044616636 8.899527396073541 0 1 0
835 75 5 0.0582835 1.8205137180534943 9.429460374093559 1.9532762155350867 1 0 0
1007 99 7 -0.5 5.915322466827678 9.108581178545355 11.104783688450091 0 0 0
824 74 5 0.0582835 17.38325370308471 4.726143875321101 10.82977163226751 -1 0 0
127 13 5 0.0798 8.723557790036658 9.617798836448184 9.170256178369044 0 0 0
728 66 5 0.0582835 21.65784871724005 0.4334653633522762 2.470025459640905 -1 0 0
433 42 1 0.1266165 13.107175623138566 1.8727407181124212 9.524108660512882 0 0 0
436 42 4 -0.5800835 10.981759455584665 0.6371754680736613 10.610398965513445 0 0 0
915 82 3 0.7551165 11.256011067674441 3.0382125674753366 0.057442348857802965 0 0 0
401 39 2 -0.3889835 5.344245758252167 11.213481545096844 6.3207307798022185 0 0 0
622 57 5 0.0582835 12.357596826598288 6.680305922023977 0.29985699374592434 0 1 0
548 51 5 0.0582835 22.73504879608492 0.5386774437154619 6.6071956219665955 -1 0 1
266 27 2 -0.4048 7.8196429220709085 -0.19961983095625027 7.661321600824155 0 1 0
932 83 5 0.0582835 8.004798368277934 3.058606197485411 2.887888278888626 0 1 1
860 77 5 0.0582835 7.618629820766019 4.551469383406774 7.703033178596778 0 0 0
121 13 1 0.0955 9.071321888512626 9.434569994591113 10.205298806114527 0 0 0
126 13 2 -0.4048 10.285527211900403 8.642610092933461 9.962071232217818 0 0 0
541 51 1 0.1266165 22.822712642235295 0.5995140904360031 7.694818561372196 -1 0 1
828 74 5 0.0582835 20.225315553838705 2.582509499418814 5.989195974407194 -1 0 0
243 25 2 -0.4048 11.337201408308493 5.7588509947043764 9.78268088782162 0 0 0
917 82 2 -0.3889835 12.300119182890775 2.5813794601781517 0.8255409758515966 0 0 0
854 77 2 -0.3889835 8.389977845326921 5.193062301821927 5.8292859822779794 0 0 0
853 77 1 0.1266165 8.5331626477425 4.7161120936905085 7.137085769094075 0 0 0
1004 98 7 -0.5 12.705588611031699 0.8801121074765884 4.550578847343856 0 0 0
16 2 2 -0.4048 8.089497623121781 9.731844399249548 2.1785006821045068 0 0 0
861 77 5 0.0582835 9.05652486647208 3.7472613177302554 7.129790221880304 0 0 0
125 13 4 -0.5484 12.473365191920564 8.987130216539166 10.437358542586303 0 0 0
863 77 5 0.0582835 10.370889457758905 6.234565179286142 1.8741605145332696 0 0 0
862 77 5 0.0582835 11.148640620090834 5.050910179364807 2.955216410861281 0 0 0
859 77 5 0.0582835 9.253910877553043 5.322733671544158 7.6577770345058935 0 0 0
857 77 2 -0.3889835 9.319113163386753 5.853407509922992 3.7356271628085063 0 0 0
856 77 4 -0.5800835 10.635003417917652 5.070978724116581 5.451038146599088 0 0 0
864 77 5 0.0582835 11.161962519389636 6.823141020824085 3.364121174084051 0 0 0
855 77 3 0.7551165 9.501941429978963 5.3465990098612775 5.072145073497616 0 0 0
1002 98 7 -0.5 10.678360891239832 2.0181104004912203 4.085094808529762 0 0 0
858 77 1 0.1266165 10.55069061197234 5.991388581679021 2.957960279854881 0 0 0
974 88 6 1 12.49481529106091 4.399814650170201 6.09100160615437 0 0 0
1001 98 8 1 11.893142170158614 1.983592782466616 4.768716468399416 0 0 0
844 76 4 -0.5800835 13.37094889856992 5.914502736679523 5.142962080324419 0 0 0
245 25 4 -0.5484 12.50637102646716 5.240363912309438 7.917928658125933 0 0 0
843 76 3 0.7551165 13.884506727996254 6.864692247753169 4.510750958283582 0 0 0
847 76 5 0.0582835 14.085347214522315 4.578010434499929 2.763146213531912 0 0 0
124 13 3 0.8478 11.306416074409148 9.332581006239081 10.453151634897086 0 0 0
244 25 3 0.8478 12.49864915366784 5.444057744339825 9.088251666498774 0 0 0
852 76 5 0.0582835 11.839907409134652 8.028683496093317 5.709428910800662 0 0 0
846 76 1 0.1266165 12.805986599999803 8.473296031990895 5.846857736811807 0 0 0
850 76 5 0.0582835 13.337308414008932 8.07737204432137 6.7072219164929905 0 0 0
845 76 2 -0.3889835 13.703462030239281 8.184782091855942 4.7324696565975914 0 0 0
1003 98 7 -0.5 12.600508258428773 3.0868828154252204 4.3292664141266375 0 0 0
13 2 2 -0.4048 9.40422593150387 8.672643553958379 0.7055714885921143 0 0 0
851 76 5 0.0582835 12.685110736045939 9.549267373264042 6.084929116642448 0 0 0
14 2 3 0.8478 9.383076969689 9.643531764052257 1.7267586082217483 0 0 0
15 2 4 -0.5484 10.373135736182245 10.277898995830713 2.1133101742440283 0 0 0
19 2 5 0.0798 8.081707365154521 7.103180950016357 0.6869559725197502 0 0 0
925 83 1 0.1266165 7.97680663972809 2.3941406667141676 1.9688259099354182 0 1 1
300 30 5 0.0798 13.763455810647937 10.638860129548215 0.9764196918632091 0 0 0
918 82 1 0.1266165 12.213863318978914 1.2289817945129633 1.3565740157021597 0 0 0
12 2 1 0.0955 8.091672724616423 8.095046909678995 0.4523098866257074 0 0 0
931 83 5 0.0582835 8.014294484099045 3.0089241472577846 1.06552810129069 0 1 1
623 57 5 0.0582835 13.722887605773844 7.112791491177374 1.1082219957779378 0 1 0
268 27 5 0.0798 9.463022558013076 1.1433721000263508 6.714348652194162 0 1 0
246 25 2 -0.4048 13.632616809389392 5.401598679610482 9.906403105941742 0 0 0
261 27 1 0.0955 9.051415045732393 0.12061390866123471 6.874457595996838 0 1 0
225 23 4 -0.5484 14.272028700259735 3.230373749084241 6.664503939213377 -1 0 0
1000 98 7 -0.5 11.797506094907547 2.1854022786177256 6.127510507701845 0 0 0
22 3 1 0.0955 15.089359481901463 10.787089245176348 10.625187431481859 0 0 0
299 30 5 0.0798 13.323926161081141 9.295113265368794 1.849885293240755 0 0 0
292 30 1 0.0955 13.914572320039541 10.151893369450981 1.9163499389692944 0 0 0
842 76 2 -0.3889835 14.698534028052805 6.5524842289064615 3.4672768074286964 0 0 0
267 27 5 0.0798 8.913893320057246 -0.23333463154429843 5.873713878605894 0 1 0
128 13 5 0.0798 8.273283992804254 8.880061263420593 10.773623483263162 0 0 0
933 83 5 0.0582835 8.859878736339287 1.7186196044379671 1.9608374744172807 0 1 1
439 42 5 0.0582835 12.844439148017306 1.1595008813369818 8.742849146151562 0 0 0
440 42 5 0.0582835 13.881055352595764 2.5586961465285194 9.12492452970982 0 0 0
536 50 5 0.0582835 19.51963765132071 1.1624932708820805 10.271112724505786 0 1 0
435 42 3 0.7551165 10.92374543230631 1.891706994962359 10.531154781884263 0 0 0
729 66 5 0.0582835 20.088903875889407 -0.12015795984913566 2.8528916161716094 -1 0 0
242 25 1 0.0955 11.688660420598758 5.962294298650376 11.156072284166358 0 0 0
21 3 1 0.0955 15.559666494938849 9.362820829570966 10.832796541123203 0 0 0
150 15 5 0.0798 20.601169446611877 6.0513962724699235 9.6667216186745 -1 0 0
434 42 2 -0.3889835 11.925460002968006 2.646082904821739 10.006565764876326 0 0 0
441 42 5 0.0582835 13.60265203836272 1.318158411994032 10.332456561200527 0 0 0
137 14 5 0.0798 22.753990707854136 11.248270400602038 1.0646900126242131 0 0 1
923 82 5 0.0582835 13.108867755837652 0.9347629970046258 1.9240828002805148 0 0 0
924 82 5 0.0582835 11.378356799475252 1.2807798555747676 2.066076238522758 0 0 0
975 89 6 1 17.47634010467707 9.418654577818298 6.01166815035039 0 0 0
146 15 2 -0.4048 19.029239565877802 8.475278932201496 9.977239223864688 -1 0 0
444 42 5 0.0582835 8.292084085617535 0.9950493632782076 10.803843171254782 0 0 0
290 29 5 0.0798 0.3049267130262858 6.325122111811167 -0.1778907914206387 0 0 1
530 50 2 -0.3889835 17.59986334590197 0.30538982304456996 9.876305050187979 0 1 0
922 82 5 0.0582835 11.89418984274218 0.4856926276976705 0.5478026111790288 0 0 0
511 48 5 0.0582835 16.712586636621165 2.9862248822966535 0.711724476714017 0 1 0
107 11 5 0.0798 -0.059469284262357106 9.275436305624826 4.340279549215933 1 0 1
823 74 5 0.0582835 17.829204196470357 3.1117090765643316 10.558499581558344 -1 0 0
608 56 5 0.0582835 22.358565393003516 5.755159426755303 4.173958390461621 0 0 0
108 11 5 0.0798 22.185229427161023 7.80244699098845 4.668985411490393 0 0 1
228 23 5 0.0798 17.65417407654248 1.6581390065323744 5.082569045932515 -1 0 0
512 48 5 0.0582835 16.34138839143458 4.7306196753882475 0.3462041739567116 0 1 0
74 8 3 0.8478 19.100215794205408 7.903942469017182 -0.2545924821566728 0 0 0
230 23 5 0.0798 17.211526547401768 0.060209416508815075 6.485323997855935 -1 0 0
131 14 1 0.0955 21.75297328051073 10.822086845280607 1.3089638755052493 0 0 1
601 56 1 0.1266165 22.34314833009741 5.556212376738541 3.142623634196144 0 0 0
291 30 1 0.0955 13.451552379788872 10.923697130085744 3.097215013647737 0 0 0
289 29 5 0.0798 0.38710330486599176 8.125653945477705 -0.2345755657343946 0 0 1
841 76 1 0.1266165 14.950085822520245 5.159613687543759 3.135439017704611 0 0 0
818 74 2 -0.3889835 18.561910896299967 4.578321573666428 9.171870286919168 -1 0 0
224 23 3 0.8478 15.04018518063688 2.3717364527233222 6.23419839394056 -1 0 0
760 69 4 -0.5800835 17.323563792269606 7.498969134916051 5.627019394232311 -1 0 0
293 30 2 -0.4048 15.259570375673835 9.692259227288712 2.2645203674300993 0 0 0
848 76 5 0.0582835 15.616993262415347 5.184771785266983 2.247565098102625 0 0 0
75 8 4 -0.5484 19.799991564557367 6.984740699975657 0.13871039216058598 0 0 0
223 23 2 -0.4048 15.321616166091404 1.1658535531369547 6.836423877908191 -1 0 0
544 51 4 -0.5800835 -0.0793086181129733 1.3865137980514886 10.303710360548893 0 0 1
134 14 3 0.8478 20.635903622146813 10.044746394439583 3.1292399709446093 0 0 1
604 56 4 -0.5800835 21.797747063606778 4.474355760586636 0.7039307759225937 0 0 0
34 4 3 0.8478 0.7228976228369819 10.978697453184695 9.185555355268873 0 -1 0
605 56 2 -0.3889835 20.47409782098333 2.8341308651940365 1.6994669401016902 0 0 0
76 8 2 -0.4048 19.311771948228046 9.199536638493969 0.07942829168367006 0 0 0
138 14 5 0.0798 21.50453604875387 10.258282364222396 0.3734238793377129 0 0 1
23 3 2 -0.4048 15.161559703419549 11.009425029742358 9.199531110018754 0 0 0
612 56 5 0.0582835 19.694684700847432 3.0145366244935845 -0.1969475495279348 0 0 0
136 14 2 -0.4048 21.634836506972793 9.717287390462783 2.2877078674264526 0 0 1
817 74 1 0.1266165 17.535923055845807 4.08978098149934 10.028439006373045 -1 0 0
611 56 5 0.0582835 19.531327026408313 1.4108861322992743 0.48232809249947334 0 0 0
345 34 5 0.0582835 20.50942244428484 11.06174182596287 7.650169894007035 -1 0 0
819 74 3 0.7551165 18.745366364292305 3.8508913949502452 7.963485561436596 -1 0 0
149 15 5 0.0798 21.921985022184945 7.084660591447485 9.90268152620143 -1 0 0
143 15 2 -0.4048 20.44345100440998 7.557281451399939 8.37525862640498 -1 0 0
141 15 1 0.0955 19.9686285676843 7.718732532202166 10.733430878923794 -1 0 0
607 56 5 0.0582835 22.05535602671229 6.447323786225104 2.5900392928773552 0 0 0
226 23 2 -0.4048 15.7211857731039 2.467328610778027 5.118345700843885 -1 0 0
602 56 2 -0.3889835 21.475846663161132 4.373076945383283 2.9472748392771515 0 0 0
297 30 5 0.0798 12.476349367096235 10.606002171651188 3.450873546858165 0 0 0
221 23 1 0.0955 16.58344979950602 1.3086337297661161 4.856477547334099 -1 0 0
144 15 3 0.8478 19.340106142200902 8.353507665706395 8.607743486059311 -1 0 0
227 23 5 0.0798 16.597868177401672 0.789319608190536 3.8428016158934453 -1 0 0
603 56 3 0.7551165 21.25918012921757 3.910799402430249 1.660026421593121 0 0 0
826 74 5 0.0582835 18.95734411733679 3.6179098923452804 5.39213096628228 -1 0 0
758 69 2 -0.3889835 17.846267255631314 5.648794230860042 4.426547908997295 -1 0 0
822 74 1 0.1266165 19.94032061605279 3.611891953389872 5.877728854537806 -1 0 0
820 74 4 -0.5800835 18.095731170816233 2.9128162206811354 7.641697595612496 -1 0 0
294 30 3 0.8478 15.510447719486846 10.14631162951682 3.510638474984033 0 0 0
849 76 5 0.0582835 15.425226146726395 4.590450665117114 3.972993475437634 0 0 0
763 69 5 0.0582835 19.295014829885027 7.107809771405671 3.7985262196153755 -1 0 0
765 69 5 0.0582835 17.754827995920625 7.274176919482983 2.9649052131365714 -1 0 0
727 66 5 0.0582835 20.945126679213597 1.1355522066797088 3.937696516507739 -1 0 0
25 3 4 -0.5484 15.90295042847061 9.66030009456666 7.36664067641589 0 0 0
757 69 1 0.1266165 18.49624004845298 6.524865511227814 3.3787253154313164 -1 0 0
766 69 5 0.0582835 15.387912536885914 7.066886874027509 7.2065293625179025 -1 0 0
827 74 5 0.0582835 20.767555628913012 4.097889035237276 5.3414087317901915 -1 0 0
135 14 4 -0.5484 20.30829214253391 9.317978909475695 4.052021240173758 0 0 1
26 3 2 -0.4048 15.904617954497784 8.882031873932341 9.505564134999103 0 0 0
767 69 5 0.0582835 15.464799476967695 5.701878602523791 8.146581018267533 -1 0 0
142 15 1 0.0955 20.89139926901593 7.113629675678811 9.662984489219204 -1 0 0
764 69 5 0.0582835 18.850622429111674 5.8786880925342295 2.5748495838626573 -1 0 0
768 69 5 0.0582835 16.894067099208893 6.771665731730228 8.2702353910884 -1 0 0
222 23 1 0.0955 16.267140030520412 0.3898281454165612 6.072305600295981 -1 0 0
606 56 1 0.1266165 20.226043241059745 2.2746242082669275 0.3978506138589968 0 0 0
821 74 2 -0.3889835 19.731852360127224 4.318262484027642 7.156196098886364 -1 0 0
529 50 1 0.1266165 19.006570611187193 0.2832749514753745 9.88392512206285 0 1 0
761 69 2 -0.3889835 16.686553503524607 5.537821845407862 6.479597737009794 -1 0 0
133 14 2 -0.4048 20.042126693506546 11.22467710542044 2.8439552081994126 0 0 1
145 15 4 -0.5484 18.70919648998101 8.886669505102251 7.7515791476138025 -1 0 0
24 3 3 0.8478 15.676450883234663 9.825122657876065 8.559862208413907 0 0 0
762 69 1 0.1266165 16.09919021632254 6.347875643384035 7.615419739010737 -1 0 0
295 30 4 -0.5484 16.538504815591384 9.960357836136733 4.136018539332967 0 0 0
759 69 3 0.7551165 17.301203193645527 6.288788920096648 5.521881671957675 -1 0 0
77 8 5 0.0798 17.62993796039737 10.468476801148572 0.12929194747961584 0 0 0
549 51 5 0.0582835 0.7351565676283633 0.7001838925861497 7.843268020319556 0 0 1
122 13 1 0.0955 9.425916926858783 10.676758510852704 10.912430309163545 0 0 0
123 13 2 -0.4048 10.868052181696378 10.507614480186898 11.024867064632232 0 0 0
928 83 4 -0.5800835 7.2853576944254606 0.7318680929562921 -0.22121122638327242 0 1 1
679 62 5 0.0582835 8.724559143932897 10.602140356112994 4.8486427199620055 0 0 -1
29 3 5 0.0798 14.124128360571072 11.05338984851404 11.10654964739708 0 0 0
505 48 1 0.1266165 16.142002083623616 3.7272902193987427 0.0931239912360221 0 1 0
437 42 2 -0.3889835 9.75366707363417 2.525580732154341 11.025444762990295 0 0 0
513 48 5 0.0582835 15.146378044890719 3.3529751179837395 0.2130989895115165 0 1 0
916 82 4 -0.5800835 10.22910485483897 2.3440948979298724 -0.24531013208917604 0 0 0
716 65 5 0.0582835 2.703985742895259 2.787893468730857 11.16247139584879 0 0 0
27 3 5 0.0798 14.602292167239817 8.849898794676482 11.014398187217854 0 0 0
241 25 1 0.0955 13.225474901410081 5.735187638404703 11.229350121485034 0 0 0
147 15 5 0.0798 20.555344753619487 8.437142252298155 11.23851913179484 -1 0 0
59 6 5 0.0798 5.0235953705592005 -0.23833696142116167 8.888874158790344 0 0 1
188 19 5 0.0798 3.3328873485723767 2.417538072514866 -0.2512820758606068 0 1 0
963 86 3 0.7551165 3.8775497213422283 3.543504241063579 15.527474447325735 0 0 0
965 86 2 -0.3889835 2.522239337568538 3.7329621837507236 15.537202052932265 0 0 0
964 86 4 -0.5800835 4.655594441125791 4.308980814174915 16.049645019619284 0 0 0
972 86 5 0.0582835 2.226828192139203 4.832374242603947 17.238295216133608 0 0 0
966 86 1 0.1266165 2.0254215851547355 4.8817248323179445 16.193312689061308 0 0 0
663 61 3 0.7551165 4.110401821468885 8.779896244164823 16.482048384048934 0 0 0
664 61 4 -0.5800835 3.985153157233457 8.088797124988288 15.46883417582268 0 0 0
284 29 3 0.8478 0.9699132829204961 7.036970925002511 20.23737014726323 0 0 0
669 61 5 0.0582835 5.525254924952976 6.5879340574568666 16.773431109950117 0 0 0
428 41 5 0.0582835 4.7664427945784364 1.8521857528943608 19.681037633668023 0 0 -1
421 41 1 0.1266165 3.757648986212725 2.0851518389810204 19.368528046702902 0 0 -1
112 12 1 0.0955 4.719978654195272 5.706534200428398 21.53018190493465 1 0 0
427 41 5 0.0582835 3.8321679864523266 2.702034683813687 18.540131138655443 0 0 -1
429 41 5 0.0582835 3.357927667497012 1.1203132262113316 19.148403829489567 0 0 -1
422 41 2 -0.3889835 2.9140185502267726 2.6606566545565262 20.370850838885055 0 0 -1
970 86 5 0.0582835 2.3907636651911806 5.717788740445733 15.62414843281622 0 0 0
423 41 3 0.7551165 1.5830010530300145 2.8411623331414484 19.931878052008564 0 0 -1
718 65 5 0.0582835 6.769147618862688 6.408293064732446 14.214378401546458 0 0 0
424 41 4 -0.5800835 1.1910012239104966 2.5246140839310107 18.79600178985709 0 0 -1
425 41 2 -0.3889835 0.7756720578656744 3.405048214549614 20.89368997861144 0 0 -1
113 12 2 -0.4048 5.5403337085084985 5.0248504772618805 22.432789307409756 1 0 0
111 12 1 0.0955 5.154481933518733 5.343835982379641 20.145993259118747 1 0 0
973 87 6 1 3.55028456085467 7.532036377858281 13.491834739270987 0 0 0
283 29 2 -0.4048 1.4320334114307474 7.0802979131973105 21.512638224402643 0 0 0
285 29 4 -0.5484 1.6862043843573176 6.896670366563856 19.256329769848406 0 0 0
661 61 1 0.1266165 6.145377032415257 7.54010891639445 16.866812526624454 0 0 0
286 29 2 -0.4048 22.84326673369062 7.1392909638952995 20.20133313607755 -1 0 0
962 86 2 -0.3889835 4.2104795266698805 2.3814305619806677 14.864114264238577 0 0 0
967 86 5 0.0582835 6.066182560683514 1.8349077323693233 15.703875640464878 0 0 0
667 61 5 0.0582835 6.620107234596517 7.849358066651693 15.871050500262879 0 0 0
961 86 1 0.1266165 5.634062416938944 2.094773199577607 14.80409047833812 0 0 0
969 86 5 0.0582835 6.1531284997008 2.913853213744161 14.352095626174698 0 0 0
971 86 5 0.0582835 0.9316772009003987 5.011363418135773 16.08184949945932 0 0 0
989 95 7 -0.5 1.6093550527720168 7.501650255680857 13.040216674618465 0 0 0
662 61 2 -0.3889835 5.1941017360474 8.56700941748593 17.315007983555738 0 0 0
668 61 5 0.0582835 6.9373527132811 7.4103689906975205 17.592990870090258 0 0 0
116 12 2 -0.4048 6.2316075840195095 4.440738939368754 20.24597493017838 1 0 0
118 12 5 0.0798 4.370835684151167 5.250578461856665 19.4100750383902 1 0 0
672 61 5 0.0582835 2.3292123617284672 10.40443918657093 15.081632346818433 0 0 0
670 61 5 0.0582835 1.5594060627242707 8.91954567878682 15.917855080481415 0 0 0
119 12 5 0.0798 4.49680338237595 6.74808432120102 21.737372470845358 1 0 0
666 61 1 0.1266165 2.084885706410794 9.908572483947713 16.04234714109505 0 0 0
665 61 2 -0.3889835 3.2474325402526483 9.712413392102919 16.86299277959608 0 0 0
117 12 5 0.0798 5.539656665279017 6.250794732429355 19.645178608253254 1 0 0
28 3 5 0.0798 16.132822310196907 9.171525716244583 11.743159868464781 0 0 0
712 65 4 -0.5800835 4.087689553101054 5.7976962016966125 13.059635591570096 0 0 0
714 65 1 0.1266165 6.793101896513029 6.540820221620184 13.084088873030703 0 0 0
711 65 3 0.7551165 4.850694297372777 5.067342150195331 12.423613262942645 0 0 0
720 65 5 0.0582835 6.252838664189216 7.412139551190923 12.908996122059861 0 0 0
713 65 2 -0.3889835 6.171752043420423 5.3372269257914855 12.37013927397311 0 0 0
114 12 3 0.8478 6.435641480771717 4.286826601660449 21.62850660885842 1 0 0
717 65 5 0.0582835 2.632444556527022 3.454119850593108 12.830299976419509 0 0 0
968 86 5 0.0582835 5.812472418194057 1.2695213093887285 14.066987701837366 0 0 0
82 9 1 0.0955 1.5529166767506142 0.050718421438484276 13.637639071806824 0 0 0
957 85 5 0.0582835 9.391752421913983 -0.006583823612451276 17.422239100945916 0 1 0
148 15 5 0.0798 19.51180200200406 7.0125016047790245 11.512354869293981 -1 0 0
333 33 5 0.0582835 4.777333901382842 9.725841451234407 19.86284542311884 0 0 -1
325 33 1 0.1266165 4.8343838419578065 10.82640031167594 19.935463436848426 0 0 -1
1005 99 7 -0.5 6.544275132479066 9.912312288899209 13.10907182748741 0 0 0
1006 99 8 1 5.461643857979778 9.847206197976677 12.247476810163962 0 0 0
632 58 5 0.0582835 1.0473998913850397 0.1379258396416061 16.954280445710936 0 0 0
90 9 5 0.0798 2.1743293221117064 0.3662817745929262 12.895405742466417 0 0 0
79 8 5 0.0798 16.41599820345419 8.914080295288429 22.233426626055444 0 0 -1
546 51 1 0.1266165 22.03329165314705 3.4625928193028086 11.628064049502425 -1 0 1
89 9 5 0.0798 2.1190072725259137 -0.09734811433862917 14.548972618655606 0 0 0
986 95 8 1 0.40389629695510665 6.8314143346090805 13.22893704486714 0 0 0
985 95 7 -0.5 0.7017899854893372 5.511150567811424 13.009749282624442 0 0 0
1008 99 7 -0.5 4.3486579423784475 9.145121806197714 12.864048105365814 0 0 0
130 13 5 0.0798 8.975641684654477 10.750185430274579 11.952037406088898 0 0 0
328 33 4 -0.5800835 7.208997290689572 10.189191912853852 20.82350659603477 0 0 -1
426 41 1 0.1266165 22.549918572927467 3.6393400404836163 20.46411018752171 -1 0 -1
431 41 5 0.0582835 22.043861243640656 4.236520844568897 21.21319643292206 -1 0 -1
430 41 5 0.0582835 21.986346434548036 2.7128084134666643 20.439228916803252 -1 0 -1
48 5 5 0.0798 0.19476538855988595 2.6713083775797903 16.677341301982143 1 0 0
994 96 7 -0.5 4.138703456933509 0.023089208196710224 11.41975904876982 0 1 0
115 12 4 -0.5484 7.288987074008962 3.5526626500629255 22.12511036630011 1 0 0
709 65 1 0.1266165 2.997447935700001 3.6781701433989804 11.820942743302773 0 0 0
377 37 2 -0.3889835 14.79308256745324 0.02972119433871292 12.238458573890865 0 0 0
552 51 5 0.0582835 21.807826063576282 2.5482722807346914 12.222381442294578 -1 0 1
185 19 4 -0.5484 -0.17111290453338884 0.0853257577705268 22.715681760095286 0 1 -1
710 65 2 -0.3889835 4.4756515866998905 3.9668503636081605 11.745378478265472 0 0 0
914 82 2 -0.3889835 11.359915949420653 4.323486986558242 22.79583095327671 0 0 -1
331 33 5 0.0582835 4.760130551614616 11.128855069645649 21.002356579016134 0 0 -1
551 51 5 0.0582835 21.359494726075855 4.223921068742192 11.962982536594069 -1 0 1
432 41 5 0.0582835 22.463585021717286 4.132991664324754 19.593789376601535 -1 0 -1
988 95 7 -0.5 0.05568375803862997 7.072771039718451 14.546751253015463 0 0 0
911 81 5 0.0582835 18.15861233348799 5.604887568404542 21.013411883789175 0 0 -1
83 9 2 -0.4048 0.34884510406684344 0.8404442490535858 13.876714307764894 0 0 0
671 61 5 0.0582835 1.428248535660745 10.645227866966216 16.50916998729204 0 0 0
85 9 4 -0.5484 21.314355176980943 0.4403016322511521 13.768263878430334 -1 0 0
120 12 5 0.0798 3.785974020003095 5.173554180412452 21.63130573268509 1 0 0
878 79 2 -0.3889835 15.787850359683715 11.106784351112214 16.221397872910114 0 0 0
516 48 5 0.0582835 16.555071338646457 -0.047267782563621005 19.90469234583509 0 1 -1
248 25 5 0.0798 13.698294352103336 6.75734767778995 11.340870978771974 0 0 0
198 20 5 0.0798 6.874816145041388 4.015123413288132 17.024213105344227 0 0 0
327 33 3 0.7551165 7.210387369461444 11.024210617356285 19.928200912132905 0 0 -1
882 79 1 0.1266165 13.178704374067843 10.563599379692265 13.719250604158036 0 0 0
84 9 3 0.8478 22.46912291826545 0.0546177229026472 13.653736664397218 -1 0 0
443 42 5 0.0582835 7.881988868019424 2.283493166564111 12.00070470969199 0 0 0
719 65 5 0.0582835 7.824434285853505 6.613778698067212 12.78655138752132 0 0 0
997 97 7 -0.5 9.07305678072103 7.24634954751322 15.528712287176923 0 0 0
219 22 5 0.0798 13.397862305197156 1.4177181928184603 14.44116337124889 0 1 0
438 42 1 0.1266165 8.725961973790291 1.6257957109551664 11.59091659134331 0 0 0
191 20 1 0.0955 7.833273214020499 3.5188832285349987 16.84040155731564 0 0 0
197 20 5 0.0798 7.980089666853523 3.488634622276764 15.721781433977553 0 0 0
560 52 5 0.0582835 17.097278092390237 3.612953640637493 17.49268801550953 0 0 -1
200 20 5 0.0798 8.550806926062922 5.535431962224574 17.742529258905957 0 0 0
192 20 1 0.0955 8.775722314512114 4.391852869026112 17.6238858531043 0 0 0
231 24 1 0.0955 14.768050830299586 8.654535161657302 18.795171884111166 0 0 -1
571 53 5 0.0582835 12.824542521815891 0.1603626850327159 22.00365455993482 0 0 0
213 22 2 -0.4048 12.808697278677386 2.1620646736486777 16.358466314375242 0 1 0
196 20 2 -0.4048 7.601860840112218 2.3674678958585553 17.62448747250308 0 0 0
250 25 5 0.0798 11.285542468883028 6.883234055631769 11.469159646362678 0 0 0
212 22 1 0.0955 12.749292018276362 2.1452995196524323 14.898902799881032 0 1 0
234 24 3 0.8478 13.64386314437009 9.7802517364016 20.372001619050238 0 0 -1
624 57 5 0.0582835 13.47794152396191 7.811620154020829 22.715418557867654 0 1 -1
999 97 7 -0.5 10.384782918773151 5.435856827718584 14.791046305724674 0 0 0
50 5 5 0.0798 22.203061723918065 3.3743697225998552 14.629874735940087 0 0 0
215 22 4 -0.5484 11.229308700747776 2.093124101114614 18.067267390473823 0 1 0
211 22 1 0.0955 11.283411181265588 1.9918175334311783 14.621805155770636 0 1 0
214 22 3 0.8478 11.497348677782284 2.0736235842389177 16.88502013573651 0 1 0
194 20 3 0.8478 8.296064486547174 2.5709980165380193 18.803761528533258 0 0 0
199 20 5 0.0798 9.778206401617728 4.331689701438604 17.10743662621685 0 0 0
195 20 4 -0.5484 8.314033414539251 1.7868388574959708 19.748250066132783 0 0 0
193 20 2 -0.4048 8.982664830156914 3.7273273402415863 18.835930581713818 0 0 0
921 82 5 0.0582835 10.173748552793693 4.434307737009675 21.015187935816883 0 0 -1
920 82 5 0.0582835 10.507322218690215 5.924508682489992 21.818624816320696 0 0 -1
998 97 7 -0.5 10.782181303352072 7.538369246082126 14.091597019811129 0 0 0
996 97 8 1 10.32767093131582 6.7925063781769275 15.198144779633104 0 0 0
977 91 6 1 8.738223911475187 1.3557192440840127 21.752051487519466 0 0 0
562 52 5 0.0582835 13.22691030076603 6.8228222232729845 14.718822732126636 0 0 -1
558 52 1 0.1266165 13.884193447247295 7.486671421932337 15.153557455774418 0 0 -1
563 52 5 0.0582835 13.21592474167166 8.199724284053723 15.523717667339358 0 0 -1
557 52 2 -0.3889835 14.524398490247446 6.867254799907466 16.230187393569786 0 0 -1
995 97 7 -0.5 11.317667644422071 7.0191321178922035 16.242077118566613 0 0 0
913 82 1 0.1266165 10.291396273244027 4.895785921123023 21.990502027497822 0 0 -1
886 79 5 0.0582835 13.439819609892961 9.614955123330274 13.307231449616957 0 0 0
216 22 2 -0.4048 10.56703345359699 1.9917262349264633 15.867794562504066 0 1 0
239 24 5 0.0798 13.218372478289194 9.346162977809907 17.416344007151594 0 0 -1
233 24 2 -0.4048 12.694955740168371 9.56057989098724 19.414733946438588 0 0 -1
247 25 5 0.0798 13.495257268456076 5.029682962030966 12.036957465784191 0 0 0
232 24 1 0.0955 13.279658676497098 8.836474973229224 18.35424292798716 0 0 -1
240 24 5 0.0798 12.787740483174401 7.899735601778539 18.061295080484154 0 0 -1
73 8 2 -0.4048 17.992360490900868 7.729645255128798 22.07075356312556 0 0 -1
210 21 5 0.0798 11.072396467343818 9.51419481869914 16.06435149368783 0 0 0
217 22 5 0.0798 11.040579134454994 0.9737215001434653 14.222579057748545 0 1 0
235 24 4 -0.5484 13.356876405572438 10.399070887689096 21.396213767600614 0 0 -1
330 33 1 0.1266165 9.574451494721666 11.041743044070047 20.108626293457096 0 0 -1
616 57 4 -0.5800835 12.848084550179923 6.458779103469457 20.7866947035654 0 1 -1
334 33 5 0.0582835 9.680354379086365 10.005763383116497 19.902438812635808 0 0 -1
336 33 5 0.0582835 9.568954667255234 11.13822314442916 21.208638395754836 0 0 -1
508 48 4 -0.5800835 15.543480017010827 1.3285502204889625 21.9029728236178 0 1 -1
919 82 5 0.0582835 9.319496517776441 4.817142718088347 22.511069284741676 0 0 -1
202 21 1 0.0955 10.25986699059304 10.236311100692868 16.353885641989848 0 0 0
72 8 1 0.0955 17.43522537652682 8.961193001717888 21.83435340999486 0 0 -1
218 22 5 0.0798 10.933495463660657 2.573938232308028 13.743662351020191 0 1 0
208 21 5 0.0798 9.788258082568419 10.156209942803446 14.357051582150733 0 0 0
644 59 5 0.0582835 20.036030122471328 1.7443932571761993 19.190473278085676 -1 1 0
881 79 2 -0.3889835 13.78724106856987 10.897166540469092 14.96877625534099 0 0 0
621 57 5 0.0582835 12.713714401165952 4.373227263393269 19.191143521250012 0 1 -1
615 57 3 0.7551165 13.666937394417538 5.731070271846193 21.311486718489153 0 1 -1
220 22 5 0.0798 13.096614246908903 3.184566870796446 14.61344943466448 0 1 0
236 24 2 -0.4048 14.83583812805938 9.296428855851044 20.059131138390207 0 0 -1
238 24 5 0.0798 15.013195713912591 7.601596262654108 18.98944685943901 0 0 -1
207 21 5 0.0798 8.343473209744943 10.168944330564207 15.25160752862545 0 0 0
209 21 5 0.0798 9.76599678849397 9.874384277999532 17.20760494251939 0 0 0
201 21 1 0.0955 9.378071752480485 10.61247839658485 15.192402526282308 0 0 0
249 25 5 0.0798 11.21273528765238 5.127558511526997 11.734507144774021 0 0 0
442 42 5 0.0582835 9.1833742894281 1.0072352315432915 12.427031845823562 0 0 0
559 52 5 0.0582835 17.871936077081077 4.466192369199268 16.127087671408336 0 0 -1
514 48 5 0.0582835 15.039732989767701 0.6646041210768342 19.24905567774823 0 1 -1
614 57 2 -0.3889835 14.171091477658347 4.756414094983013 20.55483637919218 0 1 -1
620 57 5 0.0582835 14.228494176739858 3.7702458830610186 18.725668297199352 0 1 -1
619 57 5 0.0582835 14.053159471706591 5.5830274505136614 18.703538692149422 0 1 -1
613 57 1 0.1266165 13.731975624124498 4.611846087138803 19.198926738901587 0 1 -1
573 53 5 0.0582835 12.405234824930709 0.2666069619865708 20.21875363957724 0 0 0
617 57 2 -0.3889835 14.080652837986925 5.8403339465259165 22.640529792287957 0 1 -1
43 5 2 -0.4048 20.303145945549552 3.050008202177842 15.4111688523503 0 0 0
715 65 5 0.0582835 2.4384832828560135 4.529136151561412 11.413168639034225 0 0 0
78 8 5 0.0798 18.660088106975508 10.73805094256643 21.91781829945541 0 0 -1
905 81 2 -0.3889835 18.83429960835196 6.651730499948376 19.3296889466644 0 0 -1
583 54 5 0.0582835 21.652378284299754 9.732740938042516 13.96668987213523 0 0 0
381 37 5 0.0582835 17.818788882100836 0.7449669535789366 14.685047679012671 0 0 0
374 37 2 -0.3889835 16.637683895553828 1.1074688833931488 12.975866453375444 0 0 0
579 54 3 0.7551165 21.1308552382791 10.83775680854535 16.380901538240288 0 0 0
506 48 2 -0.3889835 16.50493711808825 3.489147339999887 21.870387744046187 0 1 -1
885 79 5 0.0582835 17.53610650849682 9.988830250751889 16.065655373996126 0 0 0
373 37 1 0.1266165 17.9384026988488 0.9838130164882704 13.587899943746695 0 0 0
507 48 3 0.7551165 16.132145649256582 2.245607863171773 21.353671191204764 0 1 -1
877 79 1 0.1266165 17.291134161607562 11.007463271445861 16.311635273964917 0 0 0
581 54 2 -0.3889835 20.41507549147848 11.017381547644579 17.542447348317463 0 0 0
550 51 5 0.0582835 -0.09149823787807614 3.692656917890941 11.811512844282499 0 0 1
564 52 5 0.0582835 14.6371286775269 7.958950433200513 14.453227659146135 0 0 -1
1009 99 7 -0.5 5.102702469612673 11.153209549082181 11.935222668767468 0 0 0
186 19 2 -0.4048 1.9366988296529473 0.8572988332704073 22.767873891148778 0 1 -1
880 79 4 -0.5800835 15.81993774708258 10.418529145656626 14.015909731393183 0 0 0
237 24 5 0.0798 15.574505832304132 9.086710731460016 18.109172792859127 0 0 -1
887 79 5 0.0582835 12.124996293536258 10.73798620212861 13.98947770482066 0 0 0
282 29 1 0.0955 0.2919086933353992 7.257455026042825 22.40229133183693 0 0 0
80 8 5 0.0798 17.395199921583675 9.225819319874983 20.724730388429926 0 0 -1
643 59 5 0.0582835 19.47963125396294 0.10355435482507053 18.914634268076554 -1 1 0
904 81 4 -0.5800835 19.913144464131406 5.4114695636984855 17.704376048183416 0 0 -1
509 48 2 -0.3889835 16.515093179277947 2.1045709227138807 20.031325886937644 0 1 -1
47 5 5 0.0798 22.195810451409788 3.6214716785512233 17.49803699565789 0 0 0
587 54 5 0.0582835 20.677324223890846 11.187288471270653 19.700635359477484 0 0 0
901 81 1 0.1266165 20.25759163195853 7.5136963500950005 16.06303889271395 0 0 -1
375 37 3 0.7551165 16.01245281690014 -0.02107705142678886 12.806307311380257 0 0 0
556 52 4 -0.5800835 15.565121156877916 5.551039750336106 14.694928949178244 0 0 -1
42 5 1 0.0955 21.60622136090954 3.6191158716529395 15.560818519156255 0 0 0
884 79 5 0.0582835 17.571375352234917 11.197689237050401 17.302548432801057 0 0 0
577 54 1 0.1266165 21.095081735446808 10.677558883667555 14.059327183393718 0 0 0
71 8 1 0.0955 18.262260016412753 10.005097716016927 22.582463594511957 0 0 -1
281 29 1 0.0955 22.29155000933637 7.28853226722639 21.503105704191245 -1 0 0
588 54 5 0.0582835 21.65381483357416 9.929055055361747 18.902141341483237 0 0 0
638 59 2 -0.3889835 19.73275525533994 0.560396606770686 20.903086804768837 -1 1 0
555 52 3 0.7551165 15.380279901660465 5.8693210025013265 15.865021611927498 0 0 -1
45 5 4 -0.5484 19.20133813647904 1.3728540058119922 16.543810780544824 0 0 0
49 5 5 0.0798 21.677151073239646 4.693965387018269 15.613000818362524 0 0 0
912 81 5 0.0582835 18.14650089902289 4.60854982770924 19.630933186498165 0 0 -1
44 5 3 0.8478 20.214874511532162 2.0931736852552074 16.364240119100955 0 0 0
907 81 5 0.0582835 19.698714999075296 6.860046762340851 15.458246546320394 0 0 -1
510 48 1 0.1266165 16.157886847333778 0.8573777018508602 19.354647117723122 0 1 -1
553 52 1 0.1266165 16.891323931206422 4.177799125709783 16.56860635960404 0 0 -1
515 48 5 0.0582835 16.638219580454155 0.7718838379103317 18.395623788011235 0 1 -1
879 79 3 0.7551165 15.156056732073356 10.78202031762271 15.032281539477971 0 0 0
561 52 5 0.0582835 16.375008648694575 3.4651945011665024 15.85728435724827 0 0 -1
554 52 2 -0.3889835 15.987326917088996 5.2560813453065 16.89536952801515 0 0 -1
906 81 1 0.1266165 18.715031500334018 5.39971246207913 20.14019226513429 0 0 -1
582 54 1 0.1266165 21.288077879887087 10.977825198317436 18.78532396805669 0 0 0
46 5 2 -0.4048 21.325303821217986 1.9729885190157879 17.13107556335447 0 0 0
287 29 5 0.0798 21.686711276171053 8.209867987139521 21.621552584244043 -1 0 0
908 81 5 0.0582835 20.374389218437543 8.463423552942347 15.565936781658882 0 0 -1
379 37 5 0.0582835 18.647318813958176 0.26555981588050653 13.090738035803561 0 0 0
902 81 2 -0.3889835 19.582006032583774 7.644070428836803 17.391063536981463 0 0 -1
645 59 5 0.0582835 21.16618252377852 0.40203688221971373 19.331871078233796 -1 1 0
380 37 5 0.0582835 18.483825619968314 1.9759998775144458 13.67784624800161 0 0 0
288 29 5 0.0798 21.61171782921471 6.4962249935508005 21.74890499314133 -1 0 0
910 81 5 0.0582835 19.70174032800074 4.993622751619666 20.313384919700777 0 0 -1
987 95 7 -0.5 22.62723838781999 7.271707302896336 12.383532467948928 -1 0 0
41 5 1 0.0955 22.252402366210312 2.9077458791174515 16.712622984422357 0 0 0
909 81 5 0.0582835 21.18907743501382 6.982912458442512 16.22225195577571 0 0 -1
584 54 5 0.0582835 20.290830508376462 10.604382374161748 13.278323163293377 0 0 0
578 54 2 -0.3889835 20.419568240817508 10.854546601480514 15.235323599920266 0 0 0
580 54 4 -0.5800835 22.349439266698706 10.65068688686971 16.339658756323903 0 0 0
903 81 3 0.7551165 19.46720260918388 6.516117376659917 18.122118398335605 0 0 -1
637 59 1 0.1266165 20.137360268007193 0.7156074540891517 19.51224530576801 -1 1 0
936 83 5 0.0582835 4.983538168977812 -0.1865564932160595 21.889006298987326 0 1 0
332 33 5 0.0582835 3.931744543193797 11.212216737962272 19.516225077395706 0 0 -1
20 2 5 0.0798 7.801303690600646 8.280592114112787 22.6365576077186 0 0 -1
893 80 2 -0.3889835 3.9972570308880937 20.786883046377753 6.256594938280265 0 0 0
891 80 3 0.7551165 3.7522446788266746 20.39007246913752 7.575438404026791 0 0 0
892 80 4 -0.5800835 4.652629360139801 20.251009337266787 8.364748508743412 0 0 0
890 80 2 -0.3889835 2.421030413206241 20.156997103018238 7.975687736900137 0 0 0
897 80 5 0.0582835 2.5754360227064974 18.770266318673137 9.560232680319144 0 0 0
889 80 1 0.1266165 2.15618766324326 19.742365195302067 9.3179168125594 0 0 0
895 80 5 0.0582835 2.4298383162335453 20.51302541896573 10.02470181997804 0 0 0
979 93 6 1 5.995588984563276 19.784875500832293 9.924487511733576 0 0 0
939 84 3 0.7551165 1.3393910813993095 21.741219574741454 3.933563762322359 0 0 0
393 38 5 0.0582835 2.03681309636553 16.91872295864291 5.69904513563808 0 0 1
387 38 3 0.7551165 3.9814739518626454 16.28419357469229 3.7182844760495337 0 0 1
385 38 1 0.1266165 2.782553170864357 17.70803643158636 5.248712082536159 0 0 1
937 84 1 0.1266165 0.5187142016806048 19.786171105784792 2.9146735491898124 0 0 0
167 17 5 0.0798 2.4481267583510635 15.372748707344414 8.668332026228732 0 0 0
166 17 2 -0.4048 4.121732637509136 16.669773361482715 8.747356247345126 0 0 0
161 17 1 0.0955 3.5825899894674653 15.307989976918961 8.689056519530563 0 0 0
938 84 2 -0.3889835 0.6806744726571041 20.584621806649505 4.101439720644987 0 0 0
770 70 2 -0.3889835 0.15979304609072148 15.883060010174098 3.7928146481083242 1 0 0
769 70 1 0.1266165 0.33617298548069835 15.168135280033564 2.5957390359278136 1 0 0
777 70 5 0.0582835 0.7762186659531138 14.14770795416091 2.850911489540752 1 0 0
165 17 4 -0.5484 5.300891643261599 17.888371891941308 10.204142398591602 0 0 0
168 17 5 0.0798 3.863029244963577 14.696876542023269 7.820436680886905 0 0 0
164 17 3 0.8478 4.76595567002626 16.83517473375285 9.953009925805643 0 0 0
898 80 5 0.0582835 6.009752019739639 20.210724156192356 6.184108501660716 0 0 0
894 80 1 0.1266165 5.405129053327659 21.0414586292865 5.863759526321505 0 0 0
899 80 5 0.0582835 5.4790966211247945 21.02697569912978 4.867244805560173 0 0 0
900 80 5 0.0582835 5.758399196962875 21.93994023328519 6.3640208009413355 0 0 0
162 17 1 0.0955 4.001005304929186 14.673184698244247 10.021964069589318 0 0 0
163 17 2 -0.4048 4.727727917822261 15.72847559010206 10.733808957003479 0 0 0
30 3 5 0.0798 15.9302003136082 11.329985640194788 11.045362270226606 0 0 0
170 17 5 0.0798 4.721082678631887 13.903177140977814 9.805131480488354 0 0 0
391 38 5 0.0582835 3.7176471195045173 17.692960607866354 5.927379161462461 0 0 1
839 75 5 0.0582835 2.020207052028775 14.479070989184343 5.350256675752204 1 0 0
840 75 5 0.0582835 0.9064228872327735 13.170144175024165 5.3197965708562895 1 0 0
834 75 1 0.1266165 1.9407589165695849 13.434762611850424 5.196534223850196 1 0 0
392 38 5 0.0582835 2.193385623731616 18.61745761559708 5.286265429382169 0 0 1
386 38 2 -0.3889835 3.2193808486429587 17.40456412025782 3.88235459680668 0 0 1
388 38 4 -0.5800835 4.335505016652328 15.510364722214241 4.625009166934848 0 0 1
943 84 5 0.0582835 1.45196773863534 19.435236610373167 2.4574272544529405 0 0 0
389 38 2 -0.3889835 4.329150795163946 16.102482289816255 2.4433057247114305 0 0 1
776 70 5 0.0582835 1.119438981513983 15.624474092721144 1.9972000669598937 1 0 0
896 80 5 0.0582835 1.079198020327106 19.603451569204992 9.423934900472865 0 0 0
394 38 5 0.0582835 4.500030044422789 14.038213068812272 2.465217354951446 0 0 1
398 39 2 -0.3889835 6.116825918319195 12.905645221195972 7.609774945942939 0 0 0
390 38 1 0.1266165 5.123391039024372 14.950110948526554 2.198266334665689 0 0 1
173 18 2 -0.4048 6.66339746986623 17.365533189776954 6.693522946661981 0 0 0
180 18 5 0.0798 6.965498965035237 15.407190538323249 6.139664994257575 0 0 0
838 75 5 0.0582835 2.364986394422822 12.91629138918014 5.9616379157163735 1 0 0
798 72 1 0.1266165 15.712658106999514 12.415081255028294 0.08666868687871422 0 0 1
417 40 5 0.0582835 5.241238710620428 19.795884328309647 3.070571991170815 0 0 0
412 40 4 -0.5800835 7.570579805949928 18.513414026751008 2.67912952315128 0 0 0
404 39 5 0.0582835 6.612782761504814 14.416512845159154 8.855926160590416 0 0 0
397 39 1 0.1266165 7.037454954168968 13.42157732606839 8.644528466630797 0 0 0
940 84 4 -0.5800835 1.7501293506844628 22.036960387919066 2.785509036739752 0 0 0
396 38 5 0.0582835 6.082106495687122 14.93771422054549 2.764756062232984 0 0 1
411 40 3 0.7551165 7.049324408150186 18.47097575579921 1.5992611729987842 0 0 0
409 40 1 0.1266165 5.6376388460195415 20.35541887019527 2.2295734331587003 0 0 0
410 40 2 -0.3889835 6.037472666253808 19.36931300724701 1.2022547472916323 0 0 0
532 50 4 -0.5800835 17.517769044374567 21.380038174130785 8.861244900233757 0 0 0
833 75 2 -0.3889835 2.4970573589489153 13.03566307187966 3.9352230409275197 1 0 0
642 59 1 0.1266165 19.984882916188184 21.018339751145298 0.10706002340280146 -1 0 1
414 40 1 0.1266165 8.45011317426676 16.638500667852185 0.9466481407914494 0 0 0
405 39 5 0.0582835 7.067003568878876 12.753157146923485 9.526650977778019 0 0 0
399 39 3 0.7551165 6.237833765699228 11.591119259841722 7.288917397172026 0 0 0
395 38 5 0.0582835 5.33263611306291 14.911113833949305 1.0921197877803608 0 0 1
415 40 5 0.0582835 6.530271283591976 20.880548503100453 2.5232071400453657 0 0 0
416 40 5 0.0582835 4.887383171689561 21.07745699792922 1.9256643306807588 0 0 0
804 72 5 0.0582835 15.78293356041201 11.379979495359027 0.4638934032467568 0 0 1
229 23 5 0.0798 15.762938380920092 22.609214202682217 5.773608445269906 -1 -1 0
179 18 5 0.0798 7.055515025612739 16.565340688431334 4.75943677412193 0 0 0
178 18 5 0.0798 9.198111801722213 15.507423080549668 6.6347688155375 0 0 0
172 18 1 0.0955 7.32639700232846 16.373312302127836 5.889334505294191 0 0 0
169 17 5 0.0798 3.1863347845198198 14.190253787230224 10.566203715147797 0 0 0
35 4 4 -0.5484 -0.054526207260133575 11.902383770152584 9.016402892790428 0 -1 0
992 96 7 -0.5 4.865471541644745 21.153942913601515 11.148183327466134 0 0 0
944 84 5 0.0582835 -0.11353193739426548 18.909203037522015 3.0993607681063837 0 0 0
802 72 5 0.0582835 14.789602179570943 12.984640234900736 0.2742374790499364 0 0 1
941 84 2 -0.3889835 1.5060391130692108 22.513074562699146 5.130836267315255 0 0 0
797 72 2 -0.3889835 16.85636730556323 13.140525980239303 0.49607938768667675 0 0 1
523 49 5 0.0582835 14.044557415999394 14.790016932657169 10.464832587153605 0 -1 0
262 27 1 0.0955 10.152503337146701 22.451488558098006 7.420811628016669 0 0 0
175 18 4 -0.5484 7.299640131780508 18.841776641342328 8.232184667647182 0 0 0
795 72 3 0.7551165 17.07214085511691 13.349674827524643 1.824946813397542 0 0 1
794 72 2 -0.3889835 18.185232514626456 14.032567721332757 2.231654460767803 0 0 1
673 62 1 0.1266165 8.669727253885712 11.694681675862212 4.7137894154538875 0 0 -1
525 49 5 0.0582835 15.419706251453713 15.419304535163151 9.525527424324839 0 -1 0
678 62 1 0.1266165 11.550673007899324 12.843379219021935 8.372822661062957 0 0 -1
265 27 4 -0.5484 7.332431096865172 21.54044171315518 9.347470935213114 0 0 0
174 18 3 0.8478 7.534660619136594 17.962128456121615 7.4471526911506825 0 0 0
520 49 4 -0.5800835 13.453870593484103 17.284822041855804 9.488941387708607 0 -1 0
517 49 1 0.1266165 14.500053009145397 14.866723124667642 9.489546646452224 0 -1 0
534 50 1 0.1266165 14.84927247905335 21.268474543132342 8.767032222794933 0 0 0
690 63 1 0.1266165 7.155366801273792 12.552730847146872 1.0532104120702963 0 -1 1
518 49 2 -0.3889835 13.703796892527736 15.393871719334772 8.386319877387965 0 -1 0
519 49 3 0.7551165 13.251956181929373 16.60755899539291 8.508343386173507 0 -1 0
740 67 5 0.0582835 22.191816715517948 17.49429334746655 0.13739218275303777 0 0 0
264 27 3 0.8478 8.161556770150046 21.99439027155189 8.578418932408743 0 0 0
677 62 2 -0.3889835 10.27284658818462 13.027617453152768 7.680453902586999 0 0 -1
177 18 5 0.0798 9.415927677375567 16.73524151023126 5.437184696470484 0 0 0
521 49 2 -0.3889835 12.531857855449624 17.034936771063784 7.479050130730305 0 -1 0
540 50 5 0.0582835 15.096478539567963 20.34733332526995 9.24131042568179 0 0 0
171 18 1 0.0955 8.79152249117967 16.44394705166518 6.254484280209463 0 0 0
176 18 2 -0.4048 8.762718236212715 17.468802004902475 7.252168317401431 0 0 0
689 63 2 -0.3889835 8.443571686146305 12.792464083830678 1.6895682228639812 0 -1 1
696 63 5 0.0582835 7.284430202225338 11.70918326449775 0.32391408237680264 0 -1 1
269 27 5 0.0798 10.632227423013306 21.732154286139046 6.679120471102825 0 0 0
692 63 5 0.0582835 12.747925376803 14.073032508842845 0.9400636375857171 0 -1 1
547 51 5 0.0582835 22.469823659119644 22.854219734497565 8.225555102245634 -1 -1 1
526 49 5 0.0582835 12.862954073913336 19.028436030127747 7.492755765636152 0 -1 0
528 49 5 0.0582835 11.580093133107775 18.619814367694627 8.611057598975734 0 -1 0
691 63 5 0.0582835 11.51996475141393 14.781040517288055 -0.1082980525150904 0 -1 1
685 63 1 0.1266165 11.777884400775486 13.845191578513559 0.4134524639112975 0 -1 1
746 68 2 -0.3889835 9.356876466625971 20.782741298576862 3.4182114535083725 1 0 1
687 63 3 0.7551165 9.474569847050411 13.16343010235129 0.8497094560018367 0 -1 1
748 68 4 -0.5800835 11.179168068967225 20.096627242960732 2.363578883006487 1 0 1
747 68 3 0.7551165 10.385046937633868 19.91087785173362 3.2803298594427233 1 0 1
754 68 5 0.0582835 12.52320410142377 18.432770436183212 3.910297777130462 1 0 1
750 68 1 0.1266165 11.574009315459096 17.873882699878298 4.003962018383796 1 0 1
749 68 2 -0.3889835 10.46113135486284 18.82875849473463 4.208458894689553 1 0 1
501 47 5 0.0582835 13.017753590079163 13.638829021145705 5.186507043274839 0 0 0
500 47 5 0.0582835 11.35110609527189 13.848596566222106 4.510699546807299 0 0 0
493 47 1 0.1266165 12.250334405368756 14.37688159464498 4.711022011043491 0 0 0
494 47 2 -0.3889835 12.742667521914093 15.14361026951496 3.565166447973954 0 0 0
495 47 3 0.7551165 13.983314872218482 15.760208480302296 3.665008083613811 0 0 0
497 47 2 -0.3889835 14.327261683958605 16.461693629337024 2.5359876949009865 0 0 0
686 63 2 -0.3889835 10.726790907925633 13.425033119429628 1.3649998401704244 0 -1 1
810 73 1 0.1266165 19.89991824839219 15.77225835326613 0.0183349309380865 0 -1 0
522 49 1 0.1266165 12.003704905620658 18.371768113064494 7.630396612747293 0 -1 0
527 49 5 0.0582835 11.430274041727282 18.574020136215236 6.717886040081292 0 -1 0
499 47 5 0.0582835 12.1362555437577 15.029487187977388 5.524802211410974 0 0 0
755 68 5 0.0582835 11.590205452448819 17.249041305626232 4.862549168633378 1 0 1
675 62 3 0.7551165 10.150200355701768 12.248001580551335 6.512212742280227 0 0 -1
756 68 5 0.0582835 11.462740477172938 17.259033361650726 3.145208670594121 1 0 1
831 75 3 0.7551165 2.3936908825902266 11.721261558038586 3.6172177456326966 1 0 0
418 40 5 0.0582835 8.25132390033741 15.89924715362643 1.7595815819965872 0 0 0
674 62 2 -0.3889835 8.90048142409259 12.44404420852588 5.909400956619319 0 0 -1
538 50 5 0.0582835 13.812939039353184 21.431445838144583 8.680074518607666 0 0 0
659 60 5 0.0582835 12.868975644800022 21.71197075578521 3.6217967547283396 0 0 0
653 60 2 -0.3889835 13.75656087735293 20.30755579621454 4.753909570037427 0 0 0
403 39 5 0.0582835 7.998061243298949 13.637193137031414 8.215325626887996 0 0 0
263 27 2 -0.4048 9.477490432090756 21.654772759843343 8.490590921299388 0 0 0
681 62 5 0.0582835 9.393071843569215 11.92447910702629 3.8912247241807263 0 0 -1
660 60 5 0.0582835 14.516211712265116 22.14028020177617 4.1027453288312445 0 0 0
654 60 1 0.1266165 13.8655709316176 21.356968691870595 3.7139263014539305 0 0 0
658 60 5 0.0582835 14.160065594385072 21.00536941473684 2.7377212783988853 0 0 0
524 49 5 0.0582835 14.782523180705972 13.86532100029628 9.120211140582953 0 -1 0
680 62 5 0.0582835 7.665163445440641 11.927275689755938 4.339911220880095 0 0 -1
650 60 2 -0.3889835 14.836584977752269 18.810759203806537 6.101156628052421 0 0 0
539 50 5 0.0582835 15.243820429660609 21.082329867193224 7.742283809996429 0 0 0
651 60 3 0.7551165 14.920427775769383 19.76644509254533 5.15391515840893 0 0 0
451 43 5 0.0582835 22.641646304879394 18.529233769192714 10.480217817624421 -1 0 0
682 62 5 0.0582835 12.417252520978773 13.146397611336672 7.66370999396097 0 0 -1
298 30 5 0.0798 13.475773175691229 11.964910881160085 2.7727856071840233 0 0 0
419 40 5 0.0582835 8.666177155516802 16.03898127887489 0.07334136374796021 0 0 0
496 47 4 -0.5800835 14.66690284355739 15.667503359178204 4.658641169945049 0 0 0
502 47 5 0.0582835 16.32361072771456 16.339991986992928 2.4325683891143473 0 0 0
498 47 1 0.1266165 15.577329899334668 17.121644984858364 2.5418685779636894 0 0 0
503 47 5 0.0582835 15.686465653209542 17.722304445907888 1.6449514382846628 0 0 0
683 62 5 0.0582835 11.614299908526629 13.500043424210768 9.187749807704764 0 0 -1
771 70 3 0.7551165 22.420597314263468 15.298976622724778 4.696666418956835 0 0 0
775 70 5 0.0582835 22.60782123906635 14.929982900941468 2.0647341256775436 0 0 0
482 46 2 -0.3889835 22.2965614793298 15.107824763313474 10.452889144919238 0 0 0
356 35 5 0.0582835 2.3425547239980484 13.98262308391848 0.32205925122463935 0 0 0
806 73 2 -0.3889835 19.650171046498635 17.529687680249268 3.2947012141199523 0 -1 0
596 55 5 0.0582835 10.81523750134309 17.88631678399616 0.008134446501392627 0 0 0
344 34 5 0.0582835 21.65932252231984 12.232413690369608 7.033925231774161 -1 0 0
647 59 5 0.0582835 19.456140454965766 20.937435679159258 1.0618729960961326 -1 0 1
646 59 5 0.0582835 21.05385428608678 20.907191880914947 0.20387058601487784 -1 0 1
801 72 5 0.0582835 17.49904613310539 14.677643469744707 4.043469877576706 0 0 1
745 68 1 0.1266165 9.348504898095879 21.88509129968237 2.4310743578744827 1 0 1
812 73 5 0.0582835 19.16141490120192 18.72860267599427 4.7986695987244214 0 -1 0
341 34 2 -0.3889835 17.35394532264316 13.47349444960241 6.901103370790354 -1 0 0
796 72 4 -0.5800835 16.275314998045534 12.93334671241574 2.6160512322894283 0 0 1
413 40 2 -0.3889835 7.372596397505522 17.611127207628268 0.6256211051792717 0 0 0
725 66 2 -0.3889835 21.014489616292988 20.93090296723438 5.875592180398261 -1 -1 0
808 73 4 -0.5800835 18.64427139521726 17.903062304711707 1.2601578183274806 0 -1 0
420 40 5 0.0582835 9.392152277808027 17.192009042186516 1.2475662530540645 0 0 0
132 14 1 0.0955 20.717413757214505 11.782748056555945 1.6669653506067232 0 0 1
813 73 5 0.0582835 19.318510090317094 19.595744858364274 3.260829307964644 0 -1 0
723 66 3 0.7551165 20.561043775453673 21.97850370795204 5.144710603707104 -1 -1 0
809 73 2 -0.3889835 20.13070327488468 16.166960001867388 1.4332929753329524 0 -1 0
348 34 5 0.0582835 16.082084119324776 13.026053689862103 5.254263240219236 -1 0 0
504 47 5 0.0582835 15.626758334701988 17.757379129915726 3.3734544059267533 0 0 0
800 72 5 0.0582835 19.312369703002112 14.686287602598624 3.8821870430460117 0 0 1
730 66 5 0.0582835 19.295078770887898 20.193687093968727 6.659631941589245 -1 -1 0
338 34 2 -0.3889835 19.59366474399282 12.830564464973763 7.155541662055248 -1 0 0
657 60 5 0.0582835 16.782026547729224 17.836984276841562 5.8632142525470545 0 0 0
772 70 4 -0.5800835 21.797338865719105 14.22685490235127 4.4644466493164225 0 0 0
778 70 5 0.0582835 21.80609434142052 14.55030306814412 7.160918520817083 0 0 0
774 70 1 0.1266165 21.318664693401978 15.48420006232401 6.7163789041884785 0 0 0
780 70 5 0.0582835 20.367210130305484 15.22266169774462 6.219914155467499 0 0 0
773 70 2 -0.3889835 22.271433240311755 16.068333895024228 5.821448984771874 0 0 0
779 70 5 0.0582835 21.05227026811481 16.22267624185076 7.519931187699509 0 0 0
945 84 5 0.0582835 -0.11927294844784168 20.422958904070313 2.2439227439228997 0 0 0
533 50 2 -0.3889835 15.535627485312652 22.45238778776442 9.359510822104477 0 0 0
537 50 5 0.0582835 19.358952943592193 22.525125962353968 10.334182051421577 0 0 0
722 66 2 -0.3889835 21.44241572363299 22.283794478227698 4.116378160021487 -1 -1 0
655 60 5 0.0582835 16.58628884695215 18.95192910037686 7.211358268058583 0 0 0
139 14 5 0.0798 21.371470989210746 12.544222879253883 2.097763231432127 0 0 1
799 72 5 0.0582835 18.50943381970273 13.247701412648638 4.107209561358867 0 0 1
337 34 1 0.1266165 20.647572042047898 11.818047415390424 6.971634659842824 -1 0 0
340 34 4 -0.5800835 18.072284304732708 11.414052721700019 6.131522540046419 -1 0 0
481 46 1 0.1266165 20.892728023785335 15.363292624193223 10.348808790401096 0 0 0
684 62 5 0.0582835 11.823157212109672 11.833208283023424 8.72296427700562 0 0 -1
129 13 5 0.0798 9.113000291936372 11.52304796076684 10.24874885555157 0 0 0
488 46 5 0.0582835 20.765081164909507 16.269198456445274 9.803600505816469 0 0 0
342 34 1 0.1266165 15.990059823967576 13.057270159998216 6.3710400571533095 -1 0 0
753 68 5 0.0582835 10.222666729294936 22.56334715791199 2.576002039608004 1 0 1
140 14 5 0.0798 20.213445146573957 12.4166851982763 0.8647078995675265 0 0 1
255 26 4 -0.5484 18.653601705683553 18.083160080351398 9.435853478399077 -1 0 0
254 26 3 0.8478 17.95707188932993 18.15808291592034 10.41450729243731 -1 0 0
726 66 1 0.1266165 20.241700967787352 20.463181474039843 6.987256280627427 -1 -1 0
649 60 1 0.1266165 16.1158116603424 18.207706510729395 6.571745554214399 0 0 0
732 66 5 0.0582835 20.179816638102377 21.27401696482712 7.677839125638851 -1 -1 0
346 34 5 0.0582835 15.612452427793976 12.164597568691999 6.815539807748676 -1 0 0
793 72 1 0.1266165 18.327727725869547 14.172259685261904 3.666078652363568 0 0 1
811 73 5 0.0582835 17.81851031243836 18.582197381120196 3.6626510536393093 0 -1 0
656 60 5 0.0582835 15.936646965122623 17.299931294556536 7.171341316339542 0 0 0
652 60 4 -0.5800835 16.022285051588433 20.088320764240102 4.7037755701748445 0 0 0
731 66 5 0.0582835 20.620428680850114 19.534913670727374 7.523610248746042 -1 -1 0
489 46 5 0.0582835 20.468037379742803 14.587222667778411 9.704054847878028 0 0 0
816 73 5 0.0582835 18.837327306416007 15.405198733597192 -0.0938332137666976 0 -1 0
347 34 5 0.0582835 15.326872156107056 13.858946473842892 6.56838974639205 -1 0 0
339 34 3 0.7551165 18.317243354767328 12.52640059944435 6.707726048345929 -1 0 0
256 26 2 -0.4048 16.947806129572204 17.311720829923917 10.531025058321408 -1 0 0
807 73 3 0.7551165 19.444086010083684 17.209465674609046 1.928272869851398 0 -1 0
751 68 5 0.0582835 9.518846906492655 21.46688434017706 1.3748305956423936 1 0 1
531 50 3 0.7551165 16.936499654130408 22.387726682343878 9.338825427920408 0 0 0
805 73 1 0.1266165 18.923883994929835 18.635346310640752 3.735295396229051 0 -1 0
815 73 5 0.0582835 20.599118380315552 14.917402189574325 -0.2294744313328756 0 -1 0
724 66 4 -0.5800835 19.497705751510004 22.63258376123287 5.3433671375272125 -1 -1 0
343 34 5 0.0582835 20.51766367970089 11.404249131119423 5.962283706980474 -1 0 0
694 63 5 0.0582835 6.404106380783923 12.325603634961606 1.8025321926420284 0 -1 1
676 62 4 -0.5800835 11.025240872233953 11.484054186668565 6.076762563708048 0 0 -1
309 31 5 0.0582835 9.677177922077892 19.62998861673159 10.927465561671077 0 0 0
597 55 5 0.0582835 12.20664843383257 19.02457952069511 -0.04231691204355063 0 0 0
752 68 5 0.0582835 8.389048729692098 22.393673142237375 2.5107911942092818 1 0 1
695 63 5 0.0582835 6.729799069014158 13.432596762797566 0.42807062522894235 0 -1 1
384 37 5 0.0582835 14.546680282917594 21.358785145651964 11.27278854957238 0 -1 0
274 28 3 0.8478 2.2215684556717052 16.88121318360878 20.20389479965996 0 0 0
271 28 1 0.0955 4.136383610941357 17.85845646932468 19.641930407318412 0 0 0
276 28 2 -0.4048 2.9501126156211783 17.299374239285616 19.13212736890894 0 0 0
273 28 2 -0.4048 2.7801033221481015 17.12321344066492 21.443469993441855 0 0 0
272 28 1 0.0955 4.055685074790379 17.795734644636504 21.122899089444847 0 0 0
278 28 5 0.0798 4.658988551500639 18.668943521191423 19.12816158287322 0 0 0
277 28 5 0.0798 4.76866841135655 17.004447979908992 19.358470254598675 0 0 0
306 31 1 0.1266165 5.41279721484835 18.532341245322158 13.486756196604835 0 0 0
311 31 5 0.0582835 4.881154368317505 18.477343526353092 14.4647487053085 0 0 0
633 58 5 0.0582835 22.67820417513902 22.81340471796045 16.498602580674834 -1 -1 0
1 1 1 0.0955 5.885190732875872 21.492271597421542 15.941776627571409 0 -1 0
8 1 5 0.0798 6.665021057835202 20.71700494463853 15.734588476631385 0 -1 0
6 1 2 -0.4048 6.576768829112261 22.166632273526737 17.042640011011212 0 -1 0
4 1 3 0.8478 5.767676235519536 22.140140491996778 18.098807292829378 0 -1 0
2 1 1 0.0955 4.521458222684486 21.04632878134011 16.48812326006965 0 -1 0
275 28 4 -0.5484 1.1551819500679767 16.345615861507394 20.034943673728105 0 0 0
88 9 5 0.0798 1.4102666468191418 21.618252485743305 12.200399826485288 0 -1 0
480 45 5 0.0582835 2.709182536330361 14.393805091631181 17.49443225133932 1 0 0
479 45 5 0.0582835 3.5893653565792194 12.775632128935037 17.004119639406007 1 0 0
626 58 2 -0.3889835 0.8604730888629596 21.297992143973964 17.014852412205716 0 -1 0
95 10 4 -0.5484 7.345463394836279 19.252644982411525 18.426150305252396 0 0 -1
744 67 5 0.0582835 2.1572744709419793 21.04151680782205 19.690826643232292 1 0 -1
738 67 1 0.1266165 1.8073424026903777 21.611822481364875 20.53677709022758 1 0 -1
10 1 5 0.0798 4.259626568063493 20.037581477970985 16.228475312257263 0 -1 0
3 1 2 -0.4048 4.547297012442846 21.505203277566178 17.900697788874638 0 -1 0
9 1 5 0.0798 3.8062198391637065 21.75908478421314 16.054139205314716 0 -1 0
993 96 7 -0.5 4.069056775048827 21.797016716396776 13.26255471362326 0 0 0
312 31 5 0.0582835 4.853966197224166 19.292184935658234 12.86759900753436 0 0 0
447 43 3 0.7551165 0.5875304501634652 17.695947107371023 12.789538457743827 0 0 0
474 45 1 0.1266165 2.670945983284733 13.329060441201756 17.33862477734278 1 0 0
478 45 5 0.0582835 2.3717384151875613 12.856594108229762 18.28315654781693 1 0 0
304 31 4 -0.5800835 7.0437290427891615 19.379743631017202 11.566028619998201 0 0 0
352 35 4 -0.5800835 4.106484947562302 13.872352329985814 20.066163605370814 0 0 -1
449 43 2 -0.3889835 0.7817110888992399 16.72855057342129 13.824186813024477 0 0 0
259 26 5 0.0798 16.548457866589477 19.627873659163292 12.856997381737493 -1 0 0
358 35 5 0.0582835 6.217617824506593 15.118833851555944 18.943043263415863 0 0 -1
305 31 2 -0.3889835 6.842926842299537 19.014113217121935 13.741832061701517 0 0 0
735 67 3 0.7551165 0.4456314090939415 19.868808293498624 21.538638840037244 1 0 -1
354 35 1 0.1266165 6.753415497473459 14.690837646969356 19.778318017301544 0 0 -1
351 35 3 0.7551165 4.7439189682647465 14.264623830272987 21.04905142877933 0 0 -1
353 35 2 -0.3889835 6.0652334613757075 14.698219878115854 21.007633807087885 0 0 -1
737 67 2 -0.3889835 1.5604152947691667 20.70316473524693 21.657909991020457 1 0 -1
450 43 1 0.1266165 2.135012469429572 16.477993486392446 14.183502056786848 0 0 0
448 43 4 -0.5800835 1.6158687731077155 18.21178770097977 12.324620038251174 0 0 0
310 31 5 0.0582835 5.424115419662792 17.624170175615646 12.91888874922573 0 0 0
350 35 2 -0.3889835 4.173223147679422 14.351002283264839 22.335555118483825 0 0 -1
454 43 5 0.0582835 2.143705067430697 15.632374106603049 14.928030990115197 0 0 0
370 36 5 0.0582835 6.8664197791575505 14.61055514357276 12.28226252668424 0 0 0
355 35 5 0.0582835 2.7155040064675853 12.946072033431536 22.0017335159588 0 0 -1
349 35 1 0.1266165 2.7922891815831696 13.93496606961036 22.45601858104641 0 0 -1
360 35 5 0.0582835 6.9617483506854 13.703208619563215 19.486629041551527 0 0 -1
473 45 2 -0.3889835 1.5557685350930621 13.1322751210282 16.318530893401892 1 0 0
372 36 5 0.0582835 7.5213316745551255 14.152357760946622 13.810767766117777 0 0 0
5 1 4 -0.5484 6.074635437044976 22.62658488884746 19.215282178473515 0 -1 0
280 28 5 0.0798 3.9762371020209724 18.81663123514344 21.511106192373774 0 0 0
87 9 5 0.0798 1.33367885152926 21.147184550021958 13.985776436535014 0 -1 0
471 45 3 0.7551165 0.36592168986903284 13.718340474047194 16.622569518620107 1 0 0
991 96 8 1 4.809424909421467 22.220218463640713 12.11895955032251 0 0 0
629 58 2 -0.3889835 0.7486232467596683 18.99115887370612 17.104839538733508 0 -1 0
357 35 5 0.0582835 2.1475320221389937 14.551893234504416 21.774868554587332 0 0 -1
627 58 3 0.7551165 0.1576760103690541 20.184926223480133 17.32421669097729 0 -1 0
635 58 5 0.0582835 0.43750662367786175 16.902355662514395 17.439204842731122 0 -1 0
636 58 5 0.0582835 22.84657457922583 17.909844813565417 18.520932547522133 -1 -1 0
630 58 1 0.1266165 -0.0666092206182139 17.837515157413893 17.45987529729274 0 -1 0
456 43 5 0.0582835 2.585698652210948 17.420450648476102 14.644717809697248 0 0 0
952 85 4 -0.5800835 11.682464442867925 21.97418435651423 16.354484031188544 0 0 0
366 36 1 0.1266165 7.503737720747554 13.907482286221786 12.788590783499265 0 0 0
93 10 2 -0.4048 7.4031839927874215 17.181014649958122 17.499145920890072 0 0 -1
455 43 5 0.0582835 2.6980513054433803 16.264155202036974 13.294905529836262 0 0 0
86 9 2 -0.4048 22.804654018761344 21.97952247505227 13.24966109069625 -1 -1 0
736 67 4 -0.5800835 -0.2511238308826016 19.919926785259992 20.542727314630465 1 0 -1
1013 100 7 -0.5 22.876041395172727 11.782023625425708 21.723153983116386 0 0 0
81 9 1 0.0955 1.0087163405031339 21.906680287490612 13.225802663103668 0 -1 0
734 67 2 -0.3889835 0.250929828187072 19.05481910864685 22.579650447554876 1 0 -1
303 31 3 0.7551165 7.560944023452754 19.429206561943346 12.673383224731142 0 0 0
94 10 3 0.8478 7.784808500978771 18.46215549812226 17.595354493396652 0 0 -1
733 67 1 0.1266165 22.25628315760748 18.20838405512476 22.46304482428383 0 0 -1
492 46 5 0.0582835 0.8903255242075627 13.1805466204958 13.534380139658868 1 0 0
279 28 5 0.0798 4.983284295505518 17.369118823566044 21.536177404579785 0 0 0
485 46 2 -0.3889835 0.7445705400477478 13.854135010057409 11.524235930513337 1 0 0
739 67 5 0.0582835 22.452894062377947 17.576389213642965 21.55081594825047 0 0 -1
590 55 2 -0.3889835 12.817003799969973 17.09762009812184 22.748534269007646 0 0 -1
486 46 1 0.1266165 1.0731823804979348 12.883803555460437 12.48750708554887 1 0 0
598 55 5 0.0582835 16.53071627210198 17.45888335206558 21.67360472738013 0 0 -1
792 71 5 0.0582835 9.781297440775718 14.868215379555378 20.7306140321685 0 0 0
930 83 1 0.1266165 5.193636867940907 22.432298172019497 22.78227314771239 0 0 0
364 36 4 -0.5800835 8.766138980291354 16.23009360639703 12.877055570578076 0 0 0
741 67 5 0.0582835 21.34297241420614 18.761984532321467 22.449660720499885 0 0 -1
361 36 1 0.1266165 11.14813247452538 16.820009254113362 11.973597025633095 0 0 0
253 26 2 -0.4048 18.145536086601105 19.044287643606776 11.489842291434371 -1 0 0
362 36 2 -0.3889835 10.627477550018162 15.504662928732328 11.820274654245328 0 0 0
359 35 5 0.0582835 7.683571892646434 15.18551195046995 19.894044245866347 0 0 -1
203 21 2 -0.4048 10.788339818760683 11.483927528562283 16.80388116839198 0 0 0
365 36 2 -0.3889835 8.814992281466571 14.10950767853063 12.240298781448448 0 0 0
574 53 5 0.0582835 7.92535269517416 20.926310402325 20.928556945807802 0 -1 0
743 67 5 0.0582835 2.595105998406625 22.329267092139613 20.78726215255135 1 0 -1
575 53 5 0.0582835 8.085037275896847 19.591210410898086 21.99537192511734 0 -1 0
96 10 2 -0.4048 8.698476123761155 18.761819213804422 16.733293652562562 0 0 -1
791 71 5 0.0582835 11.058877325202554 13.679061979120156 21.031683507713357 0 0 0
785 71 2 -0.3889835 11.690624357417386 15.456708977996405 20.222623175843168 0 0 0
570 53 1 0.1266165 8.475111773535334 20.61480188444428 21.834615545185823 0 -1 0
706 64 5 0.0582835 12.727941175645334 13.42433229817904 17.665894605899577 0 0 0
302 31 2 -0.3889835 8.836422378939345 19.882309577743218 12.960793594577648 0 0 0
707 64 5 0.0582835 13.609642822288434 11.94593018208679 17.556581659040184 0 0 0
100 10 5 0.0798 8.825812645159113 15.789194514681359 16.874586069579937 0 0 -1
99 10 5 0.0798 7.632459462472817 15.950642761882738 15.633597355353448 0 0 -1
92 10 1 0.0955 8.159597833735269 16.51718509716339 16.37850675853831 0 0 -1
91 10 1 0.0955 9.010695952954537 17.62657135135553 15.895409625961342 0 0 -1
97 10 5 0.0798 8.519729450681544 17.919370774105992 14.974523590309548 0 0 -1
781 71 1 0.1266165 11.854225800268898 18.585823130213498 18.38455752826066 0 0 0
702 64 1 0.1266165 13.544926642405809 12.87730351720959 18.11372242301449 0 0 0
567 53 3 0.7551165 10.519493372118234 21.739652290185635 21.46902954254292 0 -1 0
566 53 2 -0.3889835 11.851983816999137 21.59980267479481 21.25225819733986 0 -1 0
204 21 3 0.8478 10.296627364699656 12.49674905771578 16.017153910473905 0 0 0
320 32 5 0.0582835 13.156591053175697 14.758157346850634 15.332221207276831 0 0 0
98 10 5 0.0798 10.06348596968111 17.432554193529665 15.560660034197682 0 0 -1
205 21 4 -0.5484 10.602632599980398 13.684080673783807 16.167435755904602 0 0 0
206 21 2 -0.4048 9.448156587718636 12.056701600057727 15.04277303416499 0 0 0
787 71 5 0.0582835 10.98366084234612 19.149919868813793 18.82240372403056 0 0 0
783 71 3 0.7551165 11.350481315180009 16.466360755848957 19.426059205898987 0 0 0
569 53 2 -0.3889835 9.82635189920761 20.54307171521543 21.615167658357556 0 -1 0
784 71 4 -0.5800835 10.241853131277923 16.511070345815387 18.8549300593221 0 0 0
950 85 2 -0.3889835 11.024232178432737 22.061892403052127 18.486613642429223 0 0 0
301 31 1 0.1266165 9.651910502418906 20.336655664711003 11.837316965128787 0 0 0
953 85 2 -0.3889835 13.277255488717138 21.82244011418682 17.945837695107606 0 0 0
316 32 4 -0.5800835 15.327977345506056 13.332879536991271 12.476982492497536 0 0 0
789 71 5 0.0582835 11.688192114880627 18.332683601497486 17.33638550828409 0 0 0
951 85 3 0.7551165 11.996624448902962 21.952195212167663 17.523810744644198 0 0 0
782 71 2 -0.3889835 12.21040157812334 17.528214558475348 19.20741027905535 0 0 0
788 71 5 0.0582835 12.612561994631687 19.380923578674928 18.34458245920687 0 0 0
954 85 1 0.1266165 14.25630472514012 21.73049306390864 16.816495687794607 0 0 0
960 85 5 0.0582835 13.953305005715482 20.848145487618062 16.166402817545922 0 0 0
959 85 5 0.0582835 15.197352458752027 21.588707541614138 17.348897845111235 0 0 0
487 46 5 0.0582835 20.40439429090874 15.510798318227634 11.352053093826552 0 0 0
378 37 1 0.1266165 14.03815645598728 21.995017163312905 11.999877031842027 0 -1 0
383 37 5 0.0582835 13.05207344404788 22.15049646003533 11.641175864161227 0 -1 0
308 31 5 0.0582835 10.683772765882866 20.571459984727625 12.068706998557719 0 0 0
708 64 5 0.0582835 13.287078760229099 12.660211537852646 19.132343500356292 0 0 0
958 85 5 0.0582835 14.268618548991412 22.604501702910795 16.21479416576554 0 0 0
371 36 5 0.0582835 7.069793575963859 12.984385458785273 12.504445314211683 0 0 0
363 36 3 0.7551165 9.388935643750834 15.32143108474988 12.350173789292052 0 0 0
319 32 5 0.0582835 13.055469951845803 13.239713599977904 14.390903067310177 0 0 0
593 55 2 -0.3889835 14.865438228651165 16.355636297211362 22.154471482149525 0 0 -1
790 71 5 0.0582835 10.363096855010536 13.912587647091213 19.393438932632808 0 0 0
313 32 1 0.1266165 13.473748335414452 14.224946450467103 14.479070624760968 0 0 0
321 32 5 0.0582835 13.108868900965346 14.691777398208123 13.55781552417507 0 0 0
367 36 5 0.0582835 11.19113193579176 17.015014593449457 13.061734817915072 0 0 0
786 71 1 0.1266165 10.676926655994786 14.431120694371655 20.328861870510995 0 0 0
585 54 5 0.0582835 21.730940550100105 11.628582003002974 13.813437040712229 0 0 0
382 37 5 0.0582835 13.961231095353675 21.428235220476253 12.934296192260573 0 -1 0
156 16 2 -0.4048 14.319644797810213 17.51015546546511 16.448832227062425 0 0 0
990 96 7 -0.5 6.0940756986670035 22.594683528695843 12.520120770918695 0 0 0
572 53 5 0.0582835 13.733150822278532 22.407228330558908 20.84217448566036 0 -1 0
591 55 3 0.7551165 13.976611677020518 17.335111437224906 22.03618443531097 0 0 -1
314 32 2 -0.3889835 14.951963584946402 14.206269704476998 14.641829811761303 0 0 0
324 32 5 0.0582835 17.74548898347245 12.401728191429118 12.51634037919107 0 0 0
369 36 5 0.0582835 10.539805579186986 17.583864574416037 11.466808365678972 0 0 0
648 59 5 0.0582835 19.54891576011017 20.20843111365638 22.675669760126386 -1 0 0
742 67 5 0.0582835 0.9468453487184144 22.111653692518264 20.194188608161838 1 0 -1
565 53 1 0.1266165 12.722068378317578 22.805291660177932 21.068959047287763 0 -1 0
490 46 5 0.0582835 0.45771689507903995 12.014816637332027 12.246576917271211 1 0 0
705 64 5 0.0582835 17.754853865004737 13.959911893167218 20.669269499244795 0 0 0
956 85 5 0.0582835 8.948717744152903 22.387494540283967 18.895951606205966 0 0 0
252 26 1 0.0955 17.136730951635908 18.780129671717496 12.45223636535911 -1 0 0
329 33 2 -0.3889835 8.38790549734987 11.561245547353145 19.45846852741536 0 0 -1
935 83 5 0.0582835 4.325235333724457 21.82257181197997 22.87420926712037 0 0 0
949 85 1 0.1266165 9.58914883066936 22.20845328435699 18.01139039754811 0 0 0
592 55 4 -0.5800835 14.117760578693337 18.362489245525456 21.376482668329032 0 0 -1
368 36 5 0.0582835 12.142362288256598 16.96041783253905 11.507313053307929 0 0 0
595 55 5 0.0582835 11.549102800345867 18.286622894569255 21.606598116588742 0 0 -1
446 43 2 -0.3889835 22.465029841531972 17.924261082362197 12.484912105372885 -1 0 0
445 43 1 0.1266165 22.294322337775085 18.881352731703416 11.48083544961573 -1 0 0
452 43 5 0.0582835 21.211454268936105 19.21405367336739 11.442261360528695 -1 0 0
699 64 3 0.7551165 15.739939984478626 13.30130012948016 18.94631210409469 0 0 0
470 45 2 -0.3889835 22.49789799066262 13.531189747660152 15.72826366188859 0 0 0
697 64 1 0.1266165 17.961320576029998 13.74997711477542 19.63277808610824 0 0 0
491 46 5 0.0582835 2.1142983625931278 12.633898524798688 12.337872696049207 1 0 0
883 79 5 0.0582835 17.807959804309554 11.711398271858798 15.637301652334179 0 0 0
472 45 4 -0.5800835 0.16629095973595492 14.358633024801863 17.62959556396756 1 0 0
934 83 5 0.0582835 6.023005132246968 21.78371029027875 22.553208062458463 0 0 0
322 32 5 0.0582835 17.964619518280234 14.055495128094726 11.919502871244152 0 0 0
984 94 7 -0.5 20.558291047158963 18.233972480875444 19.69278106136214 0 0 0
465 44 5 0.0582835 17.787346071987 19.054547935427767 20.279181082611334 -1 -1 0
155 16 4 -0.5484 14.179680224024008 17.92031292821882 14.24420149987398 0 0 0
803 72 5 0.0582835 15.698234002190798 12.298954866691133 22.13866832598304 0 0 0
980 94 7 -0.5 19.12132957864425 16.564747683098712 20.11273481495088 0 0 0
625 58 1 0.1266165 0.31773185274612814 22.56616086433784 17.199706324091483 0 -1 0
462 44 1 0.1266165 19.19112345596106 21.167463350999597 15.821341978357847 -1 -1 0
251 26 1 0.0955 16.307002354877266 17.646909353497538 11.831760066710036 -1 0 0
466 44 5 0.0582835 19.870382153800026 20.357620996420618 15.752763982094164 -1 -1 0
955 85 5 0.0582835 9.252893860904162 21.283417256854385 17.594822594499032 0 0 0
483 46 3 0.7551165 22.63420522854229 14.134584692309469 11.39626701712342 0 0 0
1012 100 7 -0.5 22.592916277664767 13.877747321715741 22.48567705482808 0 0 0
814 73 5 0.0582835 20.03584201792142 16.515598169976684 22.46695138255715 0 -1 -1
639 59 3 0.7551165 20.022310630052523 22.47442304314769 21.430993514184784 -1 0 0
1014 100 7 -0.5 22.607622363403614 13.64362632990082 20.32861516182734 0 0 0
701 64 2 -0.3889835 14.727047675777607 13.655590402631136 18.089018145123262 0 0 0
1010 100 7 -0.5 20.87380883148867 12.940801337559522 21.46649335774086 0 0 0
315 32 3 0.7551165 15.730557688156196 13.756239136497873 13.599605190194506 0 0 0
983 94 7 -0.5 19.460263297772926 17.093185994160926 17.944976294074554 0 0 0
600 55 5 0.0582835 15.941414572048068 16.420604667150492 20.400405981782196 0 0 -1
594 55 1 0.1266165 16.09873323649818 16.467155654302474 21.46046114571184 0 0 -1
599 55 5 0.0582835 16.706489796699437 15.648938394378582 21.74463742462072 0 0 -1
159 16 5 0.0798 17.34761589128363 17.895663513572632 16.988675288726967 0 0 0
453 43 5 0.0582835 22.809450726302526 19.81196375939687 11.769943038131023 -1 0 0
463 44 5 0.0582835 17.722633913771944 20.820734110078075 20.573589642188956 -1 -1 0
1011 100 8 1 22.238088371256982 13.00955037482309 21.475541917539207 0 0 0
703 64 5 0.0582835 18.217076466392047 12.720844110327985 19.50469106595129 0 0 0
151 16 1 0.0955 15.346604999768795 17.168793578739212 17.426345266424534 0 0 0
258 26 5 0.0798 16.199496982482884 16.84404234983656 12.579886470034312 -1 0 0
323 32 5 0.0582835 18.995827959791235 13.490157544368808 13.120589542426558 0 0 0
260 26 5 0.0798 17.60944855416739 18.343649514128515 13.291348440226242 -1 0 0
700 64 4 -0.5800835 15.690333473737152 12.367030020984075 19.71428217414344 0 0 0
458 44 2 -0.3889835 17.12687632865893 20.229955280482468 18.6124329649099 -1 -1 0
698 64 2 -0.3889835 16.872126916355317 14.052214183487274 18.829591156375734 0 0 0
154 16 3 0.8478 14.894414736566581 17.624942223570127 15.207609916470233 0 0 0
475 45 5 0.0582835 21.23895655094332 15.297542712326276 16.300421480866703 0 0 0
641 59 2 -0.3889835 19.68816173589182 22.296021924065958 22.700310864392087 -1 0 0
476 45 5 0.0582835 20.310515578926044 14.061692014397645 15.449323798420467 0 0 0
484 46 4 -0.5800835 21.754863634007794 13.57699883779912 12.058531258909468 0 0 0
152 16 1 0.0955 16.64652282303436 17.069667321759923 16.690877342930765 0 0 0
468 44 5 0.0582835 19.665406241976214 22.01315489014508 16.286940363053088 -1 -1 0
628 58 4 -0.5800835 22.19703809163652 20.25659348589603 17.762382871617987 -1 -1 0
7 1 5 0.0798 5.772956159825839 22.026890340798595 15.040748945529801 0 -1 0
640 59 4 -0.5800835 20.57209362911128 21.64907452601163 20.702163151800647 -1 0 0
978 92 6 1 20.971170354953625 20.044740304938824 19.335716041483373 0 0 0
457 44 1 0.1266165 17.279698239534376 19.967321791684494 20.01017347720509 -1 -1 0
460 44 4 -0.5800835 19.378908135846917 20.588298109169383 18.455125678505844 -1 -1 0
477 45 5 0.0582835 20.963152789688188 13.798198963960555 17.138209168740968 0 0 0
160 16 5 0.0798 17.095157230180615 16.07300416155828 16.81386166882821 0 0 0
634 58 5 0.0582835 22.143243596804233 17.69443115287836 16.848870688861883 -1 -1 0
459 44 3 0.7551165 18.23219031952881 20.522757452228888 17.9492245932253 -1 -1 0
317 32 2 -0.3889835 17.079420289235387 13.829375361213096 13.862509703651451 0 0 0
976 90 6 1 22.812066572694444 15.264703281330933 19.298003242986496 -1 0 0
981 94 8 1 20.004524554557918 17.011194440021942 19.205589202225863 0 0 0
464 44 5 0.0582835 16.274653214478246 19.886059020084797 20.48857658614427 -1 -1 0
704 64 5 0.0582835 18.900196770642076 14.201380202358767 19.38897251605007 0 0 0
153 16 2 -0.4048 16.23448052276607 17.383350823655977 15.259224908121393 0 0 0
467 44 5 0.0582835 18.880422952937664 21.335604450095634 14.774413667179113 -1 -1 0
157 16 5 0.0798 15.43688826391429 17.777379187827403 18.291593297281196 0 0 0
982 94 7 -0.5 21.1677476377276 16.16232806827506 19.272684831100356 0 0 0
158 16 5 0.0798 15.075116069737993 16.22862023050042 17.738277891230236 0 0 0
257 26 5 0.0798 15.345002607909425 18.054044952735108 11.498784817446607 -1 0 0
318 32 1 0.1266165 17.98810955155553 13.420477077046785 12.827527578942078 0 0 0
376 37 4 -0.5800835 16.507376362935354 22.075097989846707 13.135073776961837 0 -1 0
469 45 1 0.1266165 21.217904328870933 14.187733662516422 16.16272037623452 0 0 0
461 44 2 -0.3889835 17.990684721510714 20.789440728985085 16.63307111386098 -1 -1 0
576 53 5 0.0582835 8.281449125518861 21.342589771036796 22.625884756607046 0 -1 0
589 55 1 0.1266165 11.777376175218755 18.1179790356653 22.667303058959778 0 0 -1
688 63 4 -0.5800835 9.302654075830274 13.292726646059247 22.796111076113032 0 -1 0
335 33 5 0.0582835 10.41136389246739 11.468678791234845 19.600540506898444 0 0 -1
586 54 5 0.0582835 22.03513363243389 11.744087982082307 18.703108563569746 0 0 0
326 33 2 -0.3889835 6.032105745240631 11.442527344887786 19.373256616750936 0 0 -1
568 53 4 -0.5800835 9.885708942576173 22.861917110051053 21.539689243741112 0 -1 0
631 58 5 0.0582835 -0.04007700734462357 22.70957476677316 18.20362185044305 0 -1 0
888 79 5 0.0582835 13.317459224062556 11.388663289680444 12.99289629784452 0 0 0
693 63 5 0.0582835 11.923071251602744 13.121255603185608 22.768452805621347 0 -1 0
307 31 5 0.0582835 9.248510567281052 21.285123652448455 11.393389654898563 0 0 0

Velocities

865 0.002513784420472389 -0.0007422924735170208 0.0020100208264608828
866 -0.00220250755913188 0.0031870349741578035 -0.0018058971415097565
53 0.003453539028349244 0.0005221506542786901 -0.0032584621893929386
871 0.002608458862274138 0.01876772312089256 -0.034865110273671826
868 -0.0014880619980123162 -0.0005969006032341302 -0.0006335523782248274
873 -0.019097646671839684 0.013542161669882835 0.014934332449338235
867 0.0015416889595855302 -0.0021274239443410535 -0.0023064192973099545
872 0.008265338066808285 -0.0004327746691359675 0.005189330501095277
869 -0.0005121159358472817 -0.0036200974911965917 -0.00446782762540724
402 0.000881342492274322 -0.005564076318660215 -0.0025227525512839777
189 -0.00959775637902387 -0.0017614976893629557 0.010569857417996901
103 -0.0024466281155447927 0.0014771553586307952 0.001905627308421985
104 -0.0013165288704952965 -0.002989474144563017 -0.0014285608057104506
187 -0.0010296433928907737 -0.003322828695321375 -0.0040899335693706
105 0.004382565695611239 -0.0017953489587600323 -0.0016001937240024545
106 0.0038241622355279507 -0.002169863836323003 -0.002683225936094997
57 -0.023587592027019853 -0.012237120658839508 0.003247479322303045
54 0.0012172769435070249 -0.004943187842493764 0.004206432219666082
55 0.0008468910951292526 0.0009953354188164782 -0.0006581533043592159
66 -0.008340257579030386 0.009806922748711474 0.003333903071098308
51 -0.001803500297024253 0.004332990027425227 -0.001483898231012271
56 0.005157192759635104 -0.0015623084271787445 -0.0010397292153980012
60 -0.02376351642325858 0.0009058630069636352 -0.005522190003946803
64 -0.00031488900088086575 0.005441423561551506 -0.001708456972546406
65 -0.0004589402237489689 -0.0037056988732313847 0.007090316441666079
38 0.010093619042107099 -0.0024098204172047677 -0.010134995358056712
52 -0.011990450195279414 -0.0030396658481631183 -0.0036016066191135905
67 0.008119346058428385 0.016240188534724777 0.0033014218150876386
61 -0.006446313127545504 -0.005033274015132517 0.0008255011068026823
68 -0.012938812172110424 -0.029798804912953832 0.02986383908424584
69 -0.03447877836808942 0.009931803276396062 0.007875077377695569
63 -0.0012616396397833575 -0.006344161057850775 -0.004192544748332393
62 0.0003061835468370646 -0.005828294824416706 3.3025548447080505e-05
101 0.003324581474808173 0.006080316594191971 0.001214511415840938
948 -0.0017610926570497364 -0.031141004378529173 0.01327421202031483
837 -0.011071345243767296 0.010291415451245876 0.003485512464117567
58 0.0010355367712054319 -0.01588366226489915 -0.0284886683613442
70 -0.013511047885109272 0.02226947238632628 0.027402874160377903
102 0.00994179472720316 0.005463629921170982 -0.009549292847334375
110 0.007752239877623737 -0.010199227475807194 -0.0008946273186540591
829 -0.00047676200772293876 -0.0010606104826250966 0.004137775107962172
946 -0.03343610268747064 0.0067363491014129605 -0.009645957212915805
18 -0.0016969835532122121 0.0019140252065091017 -0.01214091870663387
109 0.007426013906758035 0.006802630893877798 -0.00784229227020593
31 0.0035154431575840483 0.000750942479600921 0.004083550377299029
408 0.002245583589939659 -0.0023212655411484796 0.022541799682799006
942 0.00893707082494879 -0.00333879628871599 0.002509933311272175
870 0.004489619607655968 0.007841942618759121 -0.00866596400363871
836 0.016459919695388195 -0.004315574357362515 0.02067675631125695
876 -0.006499456442468738 0.00649895694807785 0.013891584766268844
184 0.0036966962786955763 0.0019878301728932057 -7.240327899820775e-05
610 0.023325948551785488 0.016049761395512424 -0.01649921828764841
36 0.0027630675074100846 0.005736710806692937 -0.007710080673497918
926 0.0021278910794774886 0.0020556732814635565 -0.002009015246652534
183 0.00045983159188337495 -0.004239329693803316 0.0024786702467819114
874 -0.023665723491881705 0.008791261836413789 0.00046660431141770523
32 0.0030387307208053146 0.0058049790422342725 0.004898789172679453
545 0.001173361400289233 -0.0012527204725539334 -0.0023274053029077608
542 0.0011527461411495526 -0.0011565393719504533 0.004375645215080052
609 -0.015353031264094258 0.003753932820238243 -0.001476991860249695
830 0.003471530356723132 -0.0003809083085333213 -0.0062655431804640544
407 0.003441280311844273 0.01268127422771832 -0.01704002630220467
400 -0.003605460985228017 0.0025842881900442127 0.005840560279661497
832 -0.004377584881303043 -0.003032879873135025 0.007120398149473075
927 0.0038997905510309958 -0.004214606538584062 -0.00020010291804401642
190 -0.003122873705767679 0.003439401915046808 0.006014564659665456
182 0.00390143217213297 -0.0008832930996273978 0.007973277166303661
947 -0.02067421224020749 -0.008196589464117257 -0.016917979769549618
543 -0.002820734112006922 -0.0009263083039632362 0.0007434877574998579
181 0.00830794743270057 -0.0017354179649323545 0.010677543886348728
17 -0.018057002797484307 -0.015741230340829512 -0.03060891114340225
721 -0.004714562252564616 -0.00362211759833725 -0.007107267000529729
270 -0.0018687137417129508 -0.00597602943609392 -0.0046724902454733305
11 0.0045042612558723084 -0.004573327414194181 0.0023572830238673733
40 0.013320550884337765 -0.006637007496633639 -0.007426333231957006
618 0.0019429660722992243 0.0017686490780504912 0.004637184577599156
875 0.018213037956285528 -0.0169203855464593 0.017802383611805125
406 -0.014347838743745973 0.02009304731647306 0.0053521557074263
37 -0.008125859650315814 -0.0019091563457128962 0.0020376600735072603
929 -0.0025685913785690466 0.0048129061624933205 -0.0008992017370665598
33 0.00027324774849468627 0.0018772454245931304 -0.0009722972019872015
39 0.0012289894443943848 0.008203815790827946 -0.011618813411196194
825 0.027364866650796335 0.03740783371986064 0.006457612538823384
296 -0.0068071378767955255 0.00155331644181652 0.006861884326458406
535 -0.02740090214834573 0.012924216063775282 0.02488108004533195
835 -0.0002007871305960873 -0.0064258480504894334 -0.01396035028676124
1007 -0.0022535301603085717 0.001330819981429773 -0.005528407709567317
824 0.00045701212695902676 -0.015048690728961613 0.012343238164759544
127 -0.023697452304335054 -0.002670635186909587 0.022349317850779555
728 -0.013260661821858963 -0.0017138055801300474 -0.007089198232871634
433 0.003835426443501377 0.008138174635310084 0.01187923412924634
436 -5.745855992916459e-05 0.0001933149070310028 0.003183777184915864
915 0.004894146179393384 -0.004459025746882755 -0.0021757794728845398
401 0.004927262258913622 -0.0029857903267684095 -0.003884859977158978
622 -0.005908742314396539 -0.020316526419749504 -0.013441558231408822
548 0.027297398917705943 -0.023667754706898334 0.013946068934259877
266 -0.007998765221713269 0.0020912149880622346 -0.004230042561134185
932 0.01645776635206502 0.015061146043088912 -0.0005153478514840744
860 -0.01263047230908311 0.041335351270866 0.0010502482772012552
121 -0.001186239579460752 0.005764201411313376 -0.0007833143241855884
126 -0.0034971551097569527 -0.007138884591787991 -0.00861353987346093
541 0.007693016280827559 -0.0008939943391956096 -0.005596853509764439
828 -0.015463374958495656 -0.00744590234189141 -0.004831079644993605
243 -0.0007860735321761551 -0.008527463673460446 -0.007612173854125115
917 -0.007392274164750923 -0.0024602559071383247 0.004910070728032404
854 -0.006393397722228383 0.0045465178203136026 0.005140204269569805
853 -0.003974748549462987 -0.0031321489444033936 0.0028497925038059565
1004 5.660475814739456e-05 -0.008184835751675943 0.0010861941764555906
16 0.004859340877361372 0.0027142105856100525 0.000807284367978907
861 -0.009568473152196763 0.003015427420632457 0.033845928949049774
125 -0.005373600541882487 -0.0012765030534974012 0.0014795084126117196
863 -0.0029257640714597417 0.017014603730056223 -0.023950254805206277
862 0.021535721553220068 -0.021617371415250906 -0.009093291222204057
859 -0.005172812549374575 0.005699290091417871 -0.010128581140837149
857 -0.004042444388732721 -0.0010187399625018094 0.0003167464640693203
856 -0.004878329336185288 0.004591526346351413 -0.007259511072390432
864 -0.018714876102830874 0.012171105996314498 -0.0037463569644001354
855 0.006330474049583463 -0.0018107498356602493 0.0005581914387329326
1002 -0.0015326141554522197 -0.0002266332821780742 0.003172647658137591
858 -0.00220217575151267 0.0049154937605684415 0.0003484817640503437
974 -0.0017876508676614334 -0.011410853349145546 0.001987649475444187
1001 0.0032082626399704264 0.0018745650165283465 -0.0016416697769845764
844 0.0011101956968601998 0.0025299917472185215 0.0031833586036437832
245 -0.011384123897901867 0.003725880457673975 0.003067382127440499
843 0.0025831557576616706 -0.004371358508955956 -0.01082453838452828
847 0.020481701076955818 0.006156955902836389 0.0207200107338234
124 0.004400472687713866 0.004427121877230472 -0.006261634276819887
244 -0.0019663865619912856 0.0006944070415743266 -0.0005258826689095377
852 -0.004866822990999788 -0.005628723837776363 -0.009897985843585982
846 0.0028570318860983417 -0.0013967910404886477 0.0020756558778287516
850 0.009847760578717439 -0.003416283015714324 0.053932504014827166
845 0.0023402669925675764 -4.807083965032951e-05 -0.003435170175035858
1003 0.0035047687849658446 -0.005763788353441275 -0.0027925939875374384
13 0.003909005035951258 -0.0031904433975939784 -0.005121539717207647
851 -0.038712523607051116 -0.005715665084823754 0.014379634965480198
14 -0.008034608568284267 0.011105630902045497 0.010958236263204045
15 -0.008292985481380116 -0.003416657214782606 0.006894462257652859
19 0.012104217095775102 -0.022293362082992554 -0.006791856986553007
925 0.006584617071893882 -0.00013734908364830512 0.006544452789128723
300 0.017487832212081063 0.001010426707848386 -0.002489409976915693
918 -0.007087865303131252 0.004679247757100919 0.003847677009007105
12 0.0008319011902018154 -0.005889490686302056 -0.0017267570035979828
931 0.011300364060590038 -0.004630513590928854 -0.014552904257097647
623 -0.034544177469764445 0.0019843868179997334 0.035680041748680454
268 -0.009030728808788635 0.028290499433716934 0.010846202476153215
246 -0.007224558231942547 0.0010480593463836447 0.0010408873272984263
261 -0.0033255368520399183 -0.006208997323974005 -0.003292981448152099
225 0.0021665271514587922 -0.00302545471037348 0.009617079373030388
1000 -0.0037934532941352483 -0.003993719255872227 0.0003704988984242861
22 0.004487903787508312 0.0055033186718236315 0.006156897343496936
299 0.012483987363042622 -0.01685609343613156 -0.0059910335399079384
292 -0.0018622081979203834 0.0003584709783936983 -0.004496294675541123
842 -0.0006575465466683277 0.005837683709347178 -0.005792516257958426
267 0.0010902812303231085 0.007548330040559728 0.005543148729343663
128 0.005826792332886388 0.0010510737140281467 -0.007832578354103338
933 -0.011268599513149645 0.02688507785983559 0.019570605057007886
439 0.014603292850017885 -0.014488223896042539 0.008737396826469783
440 -0.0003711578716378385 0.02401476779032264 0.008307939274323472
536 0.005898486052178615 0.021529306994533873 0.009517588985880848
435 0.0013309374690468573 -0.0037298235029030523 0.0008943236432254119
729 0.005909924650401713 0.007782681646710874 0.004202432919210384
242 -0.00010766958580535754 0.0008851114564345322 0.001860601214078715
21 0.0017018827243587993 0.003146663332331711 -0.0046285852863569635
150 0.004901596394302581 -0.01300619745505261 0.01592317887873246
434 -0.0046114866743444255 0.0006029072719076912 -0.010231683926078315
441 -0.008035115912058886 0.00135727624558847 -0.00341535473638778
137 0.003447049887232554 -0.0263442083857102 0.0022327627269236264
923 -0.019780114429196045 0.010710939065530141 0.007788993175954889
924 0.006344117802579583 0.008377291561667465 -0.020666831552893204
975 -0.001435368724902023 -0.008606508217895926 -0.00940922342378943
146 0.0003334529371139016 -0.0005475342385557302 0.0022400627762652545
444 0.004862022361248943 -0.013863868917543634 0.012800942435579526
290 0.014088390393489204 0.01963297352385061 0.04686957214956229
530 0.0028064781362998658 0.0019907591886081976 0.004867365299505272
922 -0.007976331132226743 0.015658018950977046 -0.012697646815011928
511 0.013796483578989688 0.006003716154260753 0.016641008955437273
107 -0.012363752079699456 0.012589686352555996 0.010272243761003066
823 0.01921789310898545 0.014433378204175205 0.008577417870256093
608 -0.02846579379240012 0.032664922277098975 0.003392196121008829
108 -0.007041668857806265 -0.014068260399497434 -0.004073510046793544
228 -0.012958237829366111 0.019820411828542266 0.0028077484495957843
512 -0.0018080261404565085 0.01643306621571495 0.014815962416901366
74 -0.005701646423487505 -0.00016230109192455575 0.0033220186941688833
230 0.002881296508760669 -0.004191487398644498 -0.005437149090431396
131 0.0024286821448906495 0.003967399714975207 -0.0026160255708722155
601 -0.0008765173880111212 0.0038342309434500127 -0.008568915635768176
291 0.007493894561402354 0.00484457884407047 0.0033666390613364705
289 -0.03059852946278927 0.0032361454534984915 0.019101617517160857
841 0.001563104101999659 0.005785296598567295 -0.009600405968210742
818 0.00024497464178578404 0.0038960759521129273 0.0018558329217374153
224 0.005459698947531885 -0.01042555108919364 -0.0022916036492315766
760 -0.00022828531120340717 0.00015585863214052405 0.00025251502330884187
293 0.0029222289621084864 0.00048334730499844313 0.0035574947283604696
848 -7.143558930864291e-05 -0.01787899154416441 -0.011547180037365441
75 0.004813767950264796 0.0038802953343910476 0.0009734621616945507
223 -0.002478701079402903 -0.005001398381854916 -0.002827261314856899
544 0.0017316366497825515 0.005732534191074267 0.0029819546599054022
134 0.003744169533352183 0.00043596448095170376 0.006892745187583061
604 0.004105497863842531 0.0024576864474442775 0.004478011188061391
34 0.0004974753342608385 0.008114593016346837 0.0023451461441673545
605 0.002088035934066496 0.006567337474855258 0.0020214781932323465
76 -0.006024949172911049 0.0017314689912266844 -0.0030520242359797305
138 0.009233915376701736 0.005840620990477013 0.010349096888778386
23 0.003746698078954331 0.0031353625459436553 0.002106763206320169
612 -0.007705163332471708 -0.011695281626340103 0.018814459614324597
136 -0.001958941464404007 0.0033395909428452324 -0.0027213321355864756
817 0.0024120181079888958 -0.007873688719811802 -0.008026763665853646
611 0.0024699790381993722 0.0022335357102653865 -0.015577836642544413
345 -0.009027412245345073 0.020894899543509177 0.0076874958401017745
819 -0.0027915181004061432 0.004479534190944675 -0.0060114629011027276
149 0.01132347296056932 0.014691633324634582 0.01817153036574305
143 -0.00593662099680342 0.002040192900900441 -0.007117695121663526
141 -0.007591119616324877 0.0059726462949062815 0.001137141220433255
607 -0.010545757038998889 0.0065784642152932555 0.0272701709693443
226 -0.0024738349265027377 -0.005691668421336384 0.0040440337561690985
602 0.00036065711393946107 -0.0022281279303594543 -0.0007099079318747348
297 0.026488980969491593 -0.009282021724177348 -0.009169771584732065
221 -0.004201707687591942 0.0019495193448381004 -0.004167408458157332
144 -0.004629289971151401 0.00880286783177119 -0.0017535881638450742
227 -0.01544865096794759 -0.0026504559190696315 -0.002664274878279845
603 0.007155420470863851 0.01111926379753218 -0.0010057807770483262
826 -0.016107392010615226 -0.012007219674442326 0.011513741388939094
758 0.0031099744023088214 -0.0009986637360630138 -0.003843141105526686
822 -0.005077663943699295 -3.5811360963528e-06 0.0066982430539659545
820 -0.004620145031709906 -0.001543572820765227 -0.004873834014567738
294 -0.0013063059457954092 -0.0024773565005215153 -0.00553142374190595
849 0.01984464830003502 0.00392272407752783 0.019747952128369956
763 0.000777987608708162 0.0011085628475745609 0.025287038719770717
765 0.0015338454511024794 0.018715589217326887 -0.027655565752502262
727 0.02099449722098343 0.0035917492445843953 0.01268782464211994
25 -0.003745356761434218 -0.003239984353863381 0.0034107705422897956
757 0.008209453858305698 0.003102601634593325 -0.0027766402475174158
766 -0.0005226713618996623 0.012482127354768884 0.02236769150986053
827 -0.015433727223261688 0.030066803442752258 -0.032551277140748514
135 -0.0016235471572715514 0.002280338124679198 0.004527830813706438
26 0.003575329392730221 -0.0035292967086997303 -0.0004564974170908316
767 -0.015170017584743128 -0.004380634509299427 -0.0037740020982190313
142 -0.0036157641709723782 -0.0026894383271291807 0.0032643664423599146
764 -0.030159803540674057 0.005859141427129336 -0.03301696571845029
768 -0.005965189434949038 -0.006031159196390226 0.011388163179512372
222 -0.005091788260688103 0.0024667481323243133 0.006434796815238267
606 0.0018659512251654826 0.00834122107350809 -0.004654062235051399
821 -0.0025595151367839514 -0.002604621037181632 -0.0013187665080188226
529 -0.00034678677977600193 0.002449431743554945 -0.006501387080042465
761 0.0026874887908370894 0.0013155845105479304 0.006387417494276495
133 -0.005524160165419577 0.003068402336051435 0.0010152843998317983
145 0.001956342409242547 -0.00562471517301262 0.0037565404371735947
24 0.005958995368139673 -0.005885317861132502 -0.004394329725954864
762 -0.0015130735060918444 -0.0020787852235397255 0.002939297166402499
295 0.0011064269405228382 -0.009553304955326847 9.791416420077946e-05
759 -0.0040759130802198226 0.007001907418252605 -0.0008134065785851607
77 -0.02128178548517912 -0.009780475463650302 -0.017413141270390155
549 0.016207042349008053 0.0267772147264341 -0.011375002622746344
122 -0.002806385781929072 0.003925310040498107 0.00038208310559374704
123 0.002791597142959588 -0.0058975854836014795 0.006684470214436982
928 0.0011907735042010759 0.0020440791168043434 0.00015813245447478556
679 -0.009311175846792674 -0.01837318300108799 -0.013367912300636227
29 0.022612481259585156 -0.0287273236062331 0.006514032501929
505 0.005135216579902898 0.00124705829823572 0.0020535121508880863
437 0.0021263321703699567 0.003393368765759207 0.0019521293538631867
513 0.010211501069367815 0.011319745564908258 0.0011383648645267373
916 -0.003797693336772223 -0.010933975191721266 0.003323534099942018
716 -0.0026782905035300803 -0.00042120297443766323 -0.0036241516257983324
27 -0.0013885534292786385 -0.009864345230488295 -0.020752192371622374
241 0.002434046857430426 -0.0055013781458824644 0.002741583094302087
147 0.0017054365492381821 -0.010816342147699085 0.025750071193512025
59 0.012901385490610609 -0.00594142978941678 0.01318732621508821
188 -0.00048078386497545664 -0.006394377639737001 -0.02341755506052355
963 0.0023917453275216017 -0.006953786913423524 0.003004754294923186
965 -0.0028105431531757056 0.0043146711357365695 0.0005888216575317225
964 -0.004868120871948159 -0.006515713326899044 -0.0028727123786131395
972 -0.013743056747346327 0.01825192432099023 0.004451658347894499
966 0.002511561721969058 -0.0100897491121092 0.0019622587768941624
663 0.001632748423263754 0.004330032992969083 -0.008566390932124024
664 0.0028107407504752687 0.0085238614831748 -0.0023528746959308343
284 -0.0005882962023537392 0.00016601638924339766 0.0027785315321823627
669 0.01509537144593889 0.011384622668012503 0.012630508184463084
428 0.0007509260228890542 -0.021354823879416403 0.00807045712186915
421 0.002831351410599038 0.0015271268759588501 -0.0029252777939163073
112 -0.002784123338699149 -0.008313711834757929 0.005936669448330299
427 -0.007720681962235083 -0.002006457950218205 0.012039625171521937
429 0.009702937243292976 -0.0075771813474349164 -0.002161039500855079
422 -0.0033115152550866663 0.007095840844189701 -0.00018738689894825866
970 0.03646833885732847 -0.015842258068849806 -0.016222417721844903
423 -0.005367581648493673 0.0002496668579485934 -0.008506691152275866
718 0.0001220345107783817 0.001114346252355013 -0.01070591159165053
424 0.0019025922029374473 -0.0016384720900277407 0.00697451007191878
425 0.0012776382565620613 -0.0019404913091427124 0.0020499558781322457
113 0.005962779692153791 -0.005264497689515863 0.0003433896469257991
111 -0.00322632042880859 0.0033565760821000594 -0.0041867659010618565
973 0.003267620389587238 -0.008016913070230499 0.005906169670736645
283 0.002212242792002388 0.005948321524863297 -0.0046269921864320294
285 -0.001758533571751172 -0.005467407029225582 -0.0011093247801413511
661 0.002264072361422271 -0.0030827010431533257 -0.007582635645085888
286 0.007143917025948025 -0.0035958797129529443 0.0008780240595445113
962 0.0013278585947150757 -0.0024549619024831003 0.0027714800622989405
967 0.013580878727724425 -0.018156441737072922 -0.0010822771207514102
667 0.012268923658643254 -0.006560727243315256 -0.014003983577399796
961 -0.0038987111492994526 -0.005942627319286887 0.0010618997071845525
969 0.012947394364750052 0.020705824368201543 -0.006880259227499115
971 -0.01111005612014981 0.013068936948507057 -0.007137203087543208
989 -1.1417257581196826e-05 0.00588985094729223 0.00030892088893417027
662 0.001729240090735906 0.005599807761314523 -0.00636173497019572
668 -0.007324492524004852 -0.006603565952682955 -0.013891823810237958
116 0.004348325244512346 -0.0012156405663869014 0.002099909369126079
118 -0.0034645118631981883 -0.029287302361938043 0.014508457224752592
672 0.02851339789844616 -0.013194759597804733 -0.00803244113399413
670 0.0028813026095462586 -0.011613205732347653 -0.013686847746159553
119 0.007700274645599465 -0.020463865163887006 0.007221195323902393
666 0.0020368723928205165 0.0019297073739081168 0.0011974095690444663
665 0.00032303111845950446 -0.00303128856377246 0.004716727751337067
117 0.006749407269880835 0.005090846769933645 0.008773838614503607
28 0.022310065852634314 0.017742624973135574 -0.012646231951085394
712 -0.002686755393389533 -0.008685747615435776 0.004276579194087694
714 0.00015770042529900108 -0.003970716602857244 0.0008969146381057208
711 0.002914674931236188 0.0021194766477575715 0.00015931916873666488
720 0.008089317856522829 0.01834015997012299 -0.015189986285373493
713 -0.001231611723974331 -0.0017215904178015894 0.00013380851538046011
114 0.003272918986255249 0.00391201135831643 -0.007653884615965029
717 -0.05703524392359393 0.009172863228424057 -0.020638183027648895
968 -0.02620741144982355 0.005020363267432403 0.01932786573410469
82 0.0021721773079606387 0.0051474305415846276 0.0013008997381950287
957 -0.01275468948136165 -0.01496452207001309 0.029332955910533837
148 0.0013115002981777465 0.011528594638546769 -0.018031732581819254
333 0.016458136558818084 -0.03364557029174371 0.008378393027297797
325 0.0023702963608271507 -0.006507891656056266 -0.009039763306051411
1005 -0.0023742023681457883 0.004508090127910495 -0.006832736705240279
1006 -0.0013417743289673278 -0.001096539379139763 -0.004616934427337731
632 -0.0059242575081766965 -0.02176417372383946 0.000641955525179299
90 -0.006026743354435971 0.01300449685963583 -0.00034361506346771743
79 -0.001455185708941884 0.026106575562427937 -0.013190966552112857
546 -0.0029889406526770507 0.003945595554754749 -0.0013300393577999978
89 -0.0008614753510164553 -0.00015316497539302385 0.0066176514550659055
986 0.0007196399121694102 -0.0007819183033993458 -0.001178338579644041
985 -0.004210576549462993 0.002146803185437082 0.004493613097630906
1008 -0.002772068955971047 -0.006598110269999775 0.0036766371148515926
130 -0.001971938698748187 -0.00969111344821606 0.006175932485089342
328 0.0031193279963101198 0.005727173114723717 0.003017032120505816
426 0.005499585408717365 -0.00430331189547946 -0.003042233860587948
431 0.008581240972248314 -0.0003543744126907718 0.004018999418844511
430 -0.014280591540248116 0.0030269871321343092 0.00043302620399335605
48 0.016725195847381802 0.018984586562747607 0.03921431545492936
994 0.005166624523684886 0.0028184509951320975 -0.002652893838418211
115 -0.001956483424533698 -0.0002548674573847543 0.004546849856053233
709 -0.0008458185224860083 -0.0006604195401205223 -0.005933118980695407
377 0.004635122161680313 -0.0009356705633738135 0.004041050670107575
552 0.006265516775540096 0.008074833642096052 -0.025205451526130764
185 -0.001519744809548534 -0.008250765997838468 0.0017185548452809444
710 -0.0018668757296357733 0.0051741559001573295 0.0012085660861867798
914 -0.0010424455606838313 -0.0006076678488958897 0.00021401643829884059
331 0.016026268626178498 -0.0037198287891801463 0.018028391511569118
551 -0.018102613313701055 0.012624567377195578 0.01845445292888825
432 -0.019435801000792393 -0.03173707222878993 -0.02197033432470224
988 0.0012681713052323414 -1.6853864518953125e-05 0.006178611956530547
911 0.030043064240331756 -0.014969384827734997 0.008158707834236771
83 -0.0017811079327540932 -0.0013688404635447682 0.003442378491104071
671 0.02283169956236531 -0.0030520226703746626 -0.02506729706166189
85 -0.004305773296902298 0.003610946403266254 -0.005945952567916141
120 -0.009593044386219362 -0.02321988379185538 0.01550372411851973
878 0.00527921048016484 -0.0008529387368663783 -0.0048911369775748404
516 -0.005505827976442876 0.01691113268134095 0.006446391450255183
248 0.0010184216989147935 -0.004067750738949658 -0.010554589910062653
198 3.120271241354583e-06 -0.021113095562870592 -0.010614221795134743
327 0.004587007606927283 -0.0012107762637458416 -0.006862684668276686
882 -0.006805228976172642 0.0003364403349344707 -5.458015910909516e-05
84 -0.0005082886523252485 0.00044470455960747904 -0.006558811274423539
443 0.012358572044925596 0.01516905195705685 -0.007669817311518154
719 -0.023473069681788507 -0.0342753155728343 -0.022263032961952284
997 0.0064027604879861606 -0.009321999043973794 0.0011277904273835568
219 -0.01835594431378618 -0.0065487959859222705 -0.004099072582206751
438 -0.007035564842683372 0.0010405766999613889 -2.0654383446520815e-05
191 -0.003966005689264357 0.004563790319917825 -0.004628040920783739
197 -0.020464873765211507 -0.005243377256059403 -0.024807645671881574
560 0.01812774345286391 0.041208537165117944 -0.00627360564502946
200 -0.011094480430040186 0.004688158926326354 0.010769287896205373
192 0.0053576035896810105 0.000981085111945067 0.002616885686024546
231 0.0033131451175350364 -0.001338578196893298 0.007152206575570484
571 -0.011420096690283418 0.0014876967082788487 0.0006437136816963111
213 0.004998344390271808 0.0015551091448980181 -0.0009662501200995373
196 -0.0016227211741404765 0.0004414836078257559 0.0034945837958196783
250 -0.01609495463709378 0.027208505497518142 -0.021678357134749745
212 0.004064765433145502 -0.0072361607534396945 0.0038740917341509007
234 0.0006276873313741893 0.0011361957510074004 0.001443539242937923
624 -0.01875260355060483 -0.012694171903365001 -0.009750437424138668
999 -0.006852619127685885 -0.008644650722149014 0.0014898548025502978
50 -0.014683479874509846 0.02217672883591139 -0.0019664711948741516
215 0.0004693805057772927 0.00537002409275553 0.0007368981825948029
211 -0.0004538351780872345 -0.0028720016948397473 0.0006515876472722835
214 -0.005556591557234921 -0.0021540519929973256 0.0012285549526790994
194 0.0023761837884992347 0.0007016987520024285 0.00378560596882082
199 -0.014303187150592624 -0.004784694163829914 -9.525681620913863e-05
195 -0.0016204268286717453 -0.002445840545227336 0.0012201806040738707
193 0.007717137252007682 0.0053921572635500375 0.003752473997441234
921 -0.029783484508845604 -0.00938837472453551 0.006438271827900848
920 -0.00676113650362194 0.007202758005275532 0.0001789057451102536
998 -0.00037615308502224136 -0.0015934172790843368 -0.008629046459812929
996 -0.013074857579144705 0.0011160507261421134 0.007946249360271704
977 0.0033479322082510567 -0.0074272977182108625 0.003990879217751196
562 0.006929348313819483 0.020158343014957475 0.019486589617435664
558 -0.0009806868542718973 -0.0024658636552291344 -0.00037873093492133
563 -0.007018844104935159 -0.004065063284027361 0.027092699283949678
557 -0.0032404360909617513 -0.0030839648544258615 -0.001921957986507981
995 -0.00521459297700019 -0.00037345368043059006 0.0014084766677455217
913 -0.00828102348967824 -0.006564267596306279 0.0017541745577088323
886 0.003656080493076791 -0.01940151529334836 0.014186071906836113
216 0.008742235055850638 -0.001320297471696041 0.0004628334505299633
239 -0.012989817765122542 0.022189140360060054 -0.026467828590025562
233 -0.0031080811097858 -0.001985152818752373 -0.0037046713553265925
247 0.02874575205949227 -0.009220421679552886 -0.02419839098849193
232 0.0073461333292855055 -0.0022634867615280514 -0.004568891716332395
240 0.0006816949063279413 -0.007295349738584507 0.014786019102296932
73 0.0025398455514764056 0.002614740735246586 -0.006496804624082532
210 0.006212250030794342 0.00044060683768278345 -0.008042521371397535
217 -0.01200534641751799 0.008753842244205442 0.01672523820179055
235 -0.0036916785747015558 0.0009134410771776749 -0.002113457796032278
330 0.005043159389536937 -0.00027691419658104415 0.001709728890332111
616 -0.0048607445866790016 0.003639579913635738 0.001145886100448314
334 -0.01685087358770762 0.02674355133439971 0.009727693840031868
336 -0.019705855488283325 0.01201342628824982 -0.012918502929174616
508 -0.002616114684909871 -0.00019801034640384255 -0.0031091039901323665
919 -0.026974086133216266 -0.04719364634595489 0.0066911062037404686
202 0.0016701622562352485 0.007590864657638333 -0.0015967509554705318
72 -0.00044397003082087484 -0.005062821671936101 0.003183666193855239
218 0.012160601368149945 0.0055896155272086865 0.014833245440560514
208 0.003063756831507528 0.023570256658251583 -0.005429875340260068
644 -0.006229726627873518 0.016540738150089766 0.007935422468130237
881 0.002347117438726768 0.011977571677052096 0.002806302061745535
621 0.03606873139100376 0.011254176543576263 -0.023291378844232612
615 -0.00012298863627132093 -0.00014101507047841632 0.0014181836140367003
220 -0.005811492163202599 0.0043521117412441915 0.0034880612609444737
236 -0.003268422507215978 -0.0030672502080953826 0.0028046299660179626
238 -0.022129657991096046 0.012654650933769902 0.010459543138611116
207 -0.022790950342856643 -0.01984060208407945 -0.010897335658759418
209 -0.01503890129911158 0.006342009249615437 -0.000572939484141324
201 -0.0020239704999001624 -0.0019510991739721164 0.005272472416830649
249 -0.01781899044765153 -0.00345583863469495 0.004578179554017231
442 0.0028145286787089655 0.014208556375526323 0.006459331340897364
559 -0.003506053406036446 0.005592776809605021 -0.01791533603920315
514 -0.011524271336755605 0.002688595876723545 -0.021432729125162153
614 -0.0006157314172187992 -0.0008935363783592981 0.00010623994334445653
620 0.014714478980262794 -0.006405449086250421 0.005576973692241182
619 0.008442742759893509 -0.0028953789537073445 0.018637322531467312
613 0.0008422207669573452 -0.004533005575613354 -0.0034960490463153185
573 -0.016954163631942368 -0.01905693953123016 0.00024779255052302706
617 -0.001309359588668472 -0.00788878784492637 0.002602561772011146
43 -0.001636978668531371 0.0016843712061204157 0.005577188035764214
715 0.01269630374713312 0.00477803013408534 -0.020569546190625038
78 -0.0003723927345958885 0.006724021110061599 0.002116378851840123
905 0.007143025563332726 -0.008446110561854887 -0.0029019584263934592
583 0.026245919931151968 0.007591248333359768 0.006099504003514168
381 0.004497904592789184 -0.015145640894731496 -0.02062893887694576
374 0.003984121418290627 -0.008431343723280952 0.0012761588358108987
579 0.00400304575778227 -0.0018385129477929726 -0.00014814176772106537
506 0.0013228026286762986 -0.007142095649330144 0.013545805903846443
885 -0.011580475609424531 -0.002198482583033938 0.03698568838559902
373 -0.0027559000009049865 -0.00046660929499825335 -0.0017821197747957833
507 -0.0068059932676873365 -0.001477000331894421 -0.0014651525840704443
877 -0.001134756244210953 -0.0010621157247859788 0.00377915152564132
581 0.003424745181770964 0.00046622665179948865 0.0008928452525598026
550 0.019838308088877262 0.0006507151818402804 -0.02562612131565067
564 0.031955436558678094 0.001663715519585854 0.023034116778722406
1009 0.0015716891279113983 -0.0011674020489082287 0.006186513958914418
186 -0.0009729517821236177 0.00766243772609581 0.007892921086076666
880 -0.0013760618590268128 -0.00026232534038645556 0.0056263143389489265
237 0.01083685486554798 0.017729900526371963 -0.016049881459146258
887 0.019669649963898545 0.017759079284907657 -0.01634964326390178
282 -0.010408273883849161 -0.0016628412429912772 -0.00298409206972551
80 0.016748884475913765 0.01943968575688039 -0.022979604849253536
643 -0.02774667236509835 0.003734551173197659 0.007348468088892442
904 0.003095550904753098 -0.0017762640365553905 -0.0015220002582715356
509 0.00045519035652266194 0.003500626262911133 0.0030580525711426873
47 0.008656833690502434 0.02076864128397379 0.011633394270058803
587 -0.020177786288214587 0.020092472876938154 0.0071383180995438795
901 -0.003286112212753374 -0.003055622470865803 -0.0046597872270740335
375 0.007843868652808485 -0.006109159256971834 -0.0032039776595225813
556 0.0009281585492932644 0.005991325546455366 -0.00489315990647217
42 -0.0019416701312702073 0.0013088383471631718 0.005021402401303864
884 -0.015845872933455688 -0.020377612596437337 -0.034073549701563614
577 0.005564200070455057 0.008386285366653808 -0.004221902302641533
71 -0.006877784075906257 0.0023609382128624216 -0.002358440578405053
281 0.0034762121388846887 0.0014415825812602227 0.004232237001190436
588 -0.026176949646044403 -0.03279273344400229 -0.010795268979763106
638 0.007220214992689436 -0.0028820869520873177 -0.0043788303630605775
555 -0.0012323790580206788 -0.002176112408090747 0.005581702303253598
45 -0.0023714816504252336 -0.002886395859167702 0.0029008453655582902
49 -0.014005024247550523 0.004907696249483786 -0.032437051776695876
912 0.0004283730259173458 0.03814071544850886 -0.0072380066187200855
44 -0.006552538236561642 -0.0005781278965463217 0.005887661172224544
907 -0.033298977748583515 -0.0018992531692098012 0.004739054059637461
510 -0.0010718440541020273 0.002499279023164589 0.0023898489588395555
553 1.519423264659378e-05 0.0002747483307992492 0.0036551277172262846
515 0.0020092351185521536 0.002933858227718759 -0.002554622435650625
879 0.0038980477314234426 0.00019962303766843294 -0.0014795895990111123
561 0.0013509692414926638 -0.014745032047086494 -0.013024735133829277
554 -0.0036623179705289133 -0.0074164155093299575 -0.0040027469914975175
906 -0.007120062199078244 0.0008359968861430248 0.002840372310289045
582 0.006650122491494773 0.005078967378599791 -0.0008130262186395291
46 -0.010262297021161354 0.003177114581633831 -0.00043138080090612726
287 -0.005247025265710038 -0.00975519473808081 0.018157927256335124
908 0.02246023090205358 0.004999775879828536 -0.012725409442494335
379 0.044609190132934254 -0.015687691777549802 0.0035161316422007097
902 -0.0009301630966668974 -0.0015950568778887587 -0.0034522601786449373
645 0.013846993257357327 0.009649356739704362 0.015459204923958001
380 -0.0160584893225679 -0.01758108375501894 0.012622769598978489
288 0.006879300967914068 -0.009632323920926859 -0.011133467964486879
910 -0.003639270753432262 -0.0030212546306247253 -0.022404382910287058
987 -0.00038329840796090574 -0.0026742835122196026 0.0020219903401141157
41 0.0036049296306907455 0.0056308286033320476 0.008617770576089825
909 0.01963628490993803 -0.011160816787989799 0.01693078395303478
584 -0.012581220189635627 0.013434418527016892 0.017284787693331576
578 -0.0045134972777726755 0.0011189116833906524 0.008069392400023013
580 0.0009809529328794404 0.005674559073260899 -0.0072015288191870745
903 -0.0023826971121140837 0.002605137360512424 -0.0022404826125896294
637 -0.0008745760784663495 -0.0006990869617219805 -0.005134102128074706
936 0.005243029047147513 -0.015334137174739169 -0.0023620947424342624
332 -0.000745156786495805 -0.019818714892907548 0.031176525951826423
20 0.02756916979551644 0.007387049938550703 0.007188472704328982
893 0.0014840276091791773 0.003009325056706172 -0.0008326225465585331
891 3.2846402522852076e-06 0.010014066079482267 -0.009121171337957519
892 0.003019254574780989 0.0020108758939797636 0.0014168440944857378
890 -0.004420188869696129 -0.0012511788753996698 0.0007153333939488895
897 -0.0024399512665029713 -0.030081250931290777 0.025400234394055858
889 -0.002600031332705358 0.0038924611700297167 0.007362487037400936
895 0.016627953501741084 0.02274020710220417 -0.016592237048070467
979 -0.001804557099937271 -0.000778648485167141 0.007841147464947153
939 0.003057148900814266 0.007466453624401236 -0.005724794190699179
393 -0.013209357071671155 0.002954522169806518 0.010035829820488125
387 0.0012493180541173125 0.0006271333130859563 0.00043231717576970325
385 0.0021673819419081807 -0.0016187331972455797 0.00249091818454394
937 0.003834952914739464 0.0001308294302185805 -0.0009538386576082515
167 -0.014648609944722705 -0.020378003151457613 0.009201356492595125
166 -0.0012574356424661368 -0.0006609064130657337 -0.0014228258118697537
161 0.010732561497483178 -0.0023881242653818508 0.00293669293260524
938 -0.0014820532740121796 0.001169508294292935 0.0030658525629878855
770 0.003944595631610749 0.005429878509502691 0.007086089602485356
769 0.0005706413537167836 -0.0011043133703718452 0.0003164854992046711
777 0.008826843265651217 -0.012514809390377447 -0.03412164724343672
165 -0.0030066876430140765 -0.0007135281867938299 0.004358679353469884
168 -0.0008272558007658454 0.019961660124758637 -0.004413119051616874
164 -0.002600940465632814 0.0006627984161429996 -0.0018967541347690267
898 0.0071848576991702905 0.0065770438463589 -0.027208926961493362
894 -0.0021671183500375775 -0.00012176243326308587 0.007902819542056185
899 0.014627293939997236 -0.024681222472635503 -0.004090213570673287
900 -0.014220884900031793 0.0029453620884436703 0.010302272366276764
162 -0.003285597089568408 0.009333852339187827 0.0011634622394126827
163 -0.005534034277727588 -0.0009302298369139296 -0.00507892760403782
30 0.016344939846172024 0.005953184162836108 -0.012938107846739967
170 -0.012730548620913166 0.004323912031853301 -0.016411586310770505
391 -0.005638754570856694 0.009813892567415713 0.019613175895149278
839 0.006951095404182489 -0.02486666180202504 0.019372801913756635
840 -0.019939246916161744 0.010437073587560809 -0.0041752830506838175
834 0.00040743061357056693 0.0020288962744755184 0.00404985168041158
392 0.013687656503352259 0.007281955475849297 0.006805274472513867
386 -0.0027972802091423827 0.004677440759362775 0.0009493458183994989
388 0.00434389674085531 -0.0065763980479667675 -0.002455171538863595
943 0.018531875455919097 -0.004518501935916582 -0.017426677091386306
389 -0.009509350240316213 0.005613683787598771 0.005996361764296881
776 0.014455299589286324 -0.006161607449854152 -0.013422392842097265
896 -0.002814959528203722 0.005749492172075105 0.023366620569857433
394 0.005308253473056426 0.0018326634323163715 0.021068267540387563
398 -0.0004131392355192502 0.002540748465674279 -0.001887279379731928
390 0.004065107181990898 0.0009045523064541965 0.0001857486393635112
173 0.0018994487352906105 -0.0023600842898163416 -0.004023965807549168
180 -0.008006995671920316 0.020055041340885524 -0.017034620488358423
838 -0.022007331715496015 -0.0016840566103717568 -0.02103006294839435
798 0.0009072470546649003 0.007840871033848229 0.0006964235374064745
417 -0.02616753732989231 -0.01077427799637001 -0.022213167743311255
412 -0.0002450059235794864 -0.00040740718155709513 -0.0005829315550358062
404 -0.0020824373502255707 -0.0033659629687230086 0.013403054922302985
397 0.0029322831871516192 0.0041155106186145625 -0.00526795679961441
940 -0.00040256138516961025 0.0013420126055545445 -0.0023156768262497106
396 0.005372146912332539 -0.0127588126958262 -0.008301708918026864
411 -0.0028125978446494485 0.0011014181451765599 0.002674918338622383
409 0.0026414916487307798 0.0038479119265676124 0.0022877060657918525
410 0.0016032529023838084 -0.003521672808074759 0.002074959357931862
532 -0.0033822712303492202 0.00109443737599283 0.0068319355170862565
833 -0.004131412428608957 0.0008538736457729206 -0.004653336302702879
642 -0.0022825665650857037 -0.0008666843734349375 -0.005110480980538727
414 -0.0010921223816621854 0.003148111794870266 0.0015910580597874682
405 0.0041140145696928355 -0.0026303804778533254 0.036147391819192784
399 0.0011624992431572834 -0.0014638460262948226 0.006899553847673632
395 0.028092461781507358 -0.0031846572964737696 -0.00401065464176108
415 -0.009418897208370521 -0.009926212963153543 -0.003064581341384684
416 0.012952973547285357 -0.0029051626422970395 -0.01922965918712997
804 -0.023501463323623743 -0.0007215465500729455 -0.015615865981458489
229 -0.005809540710029388 -0.0137547241239003 -0.003740947362219222
179 0.014832160171583723 -0.02152944583584662 -0.032820551560919946
178 0.018166294784731054 -0.020913450841223084 -0.020516739676264502
172 0.0027176828758453467 -6.178606525647555e-05 0.008456681210443759
169 0.02668072295999063 0.002062762976969935 0.013319204101411498
35 -0.0016212840289114695 0.006447588631779785 0.0009389736407584881
992 -0.004139495988290486 0.000723795169892039 0.0010551928954472304
944 -0.013136845031547766 -0.001876612513081039 0.006034029583918426
802 0.018276092535890225 0.005214564341400966 -0.014332242259298938
941 0.003085365375469768 0.006489820511326807 0.006175358917077502
797 -3.335004619146463e-05 -0.0007078216207928518 -0.0019519105105335823
523 0.024491647755507752 0.014430008119624324 0.004699100630013981
262 0.0002948436433118978 -0.004088014956142354 0.004725784456477646
175 0.003343045498922807 -0.0001982618944820261 -0.007113694632326012
795 0.010646771789510122 -0.004695818053706429 4.09037131627184e-05
794 0.008319251859807506 -0.0055745647027985136 -0.0074240019782967626
673 -0.0007103828156598222 -0.007195422838752459 0.005905076873352085
525 0.009726209614438727 -0.012967134917395855 0.00958080593902603
678 -0.0033845565787974947 0.0033974599599906055 0.0007505690436702213
265 0.002515365450073518 0.0023820293294650637 0.0004030939302396237
174 -0.002568751071122171 -0.004177650430133324 -0.01120339904201116
520 0.0007214929693953264 0.00019783440478626403 -0.0013899998880970304
517 0.0014443378494898144 -3.8886879472133594e-05 0.005281214163653228
534 0.006158849262322382 0.00484573001526494 0.0017452727056091039
690 -0.001029857563140566 0.0034901025512315974 0.0014166655124233526
518 0.004484483628869877 0.004301849871913307 0.0022108962565380356
519 0.003571435666498793 0.0009065307053187894 -0.0029790988740957514
740 -0.0442419240900542 0.010447921381495367 0.017173666418806282
264 0.006016817236699289 -0.0022713977257024023 -0.0014818754572176597
677 -0.004996454859057958 0.0024907597615637317 -0.0028849334450700083
177 0.010607570895134453 -0.008853629443478232 -0.03705905847356324
521 0.00023876428897033955 -0.0067481170608637755 0.009782727541273902
540 -0.015756076878563154 0.012837585998651315 0.007649050344827182
171 -0.003954196963286394 0.0021424980694180716 -0.004143971250413593
176 0.0036671363025512853 -0.004120059595005259 -0.001989511275051123
689 0.006237747022090021 -0.0015362661954890977 0.0015243349177400595
696 -0.003428954455029158 -0.009769387522618746 -0.015774509549123957
269 0.03154439736103328 0.020725675660183525 -0.030236780134325646
692 -0.003598612117483339 -0.008698247864874449 -0.0023236577950103273
547 -0.017079465753152556 0.00848194297040563 0.02180136680747167
526 -0.018957835541409365 -0.014164421891255377 -0.014104862237352632
528 0.007873121323776967 -0.007697605425520965 -0.0005905804959418627
691 0.026039217990166532 -0.020092663566020415 0.006658903225681894
685 -0.006059277804887346 -0.002171750621381998 -0.014242084506145978
746 -0.004494440481350964 -0.0020291581169799185 -0.0004194973008822754
687 0.0007018980080123458 0.0006247684048661672 0.0025377093953744823
748 0.005302529636730312 0.0042026414106889195 -0.0041254459527420035
747 -0.003871235490487351 0.0010486580519384761 0.00017886594128733776
754 -0.017188078023916697 0.0036329347075812176 -0.010595133165327597
750 0.002653340520019527 -0.006833471168324466 0.0018966464163679727
749 0.0009719420503917585 -0.01206217700745175 0.0012791946233872084
501 0.008739878844576233 0.024217323350043504 0.005910163775048754
500 0.007074007720801631 0.0009392664347590643 -0.009990735743691593
493 0.0027138910952651998 -0.0005122984690834825 -0.004833175227037684
494 0.00017075654347417331 -0.007783328137001914 -0.002627543405863702
495 0.001519060798732223 0.006777252382917275 -0.006291036319824211
497 0.004377266863483777 -0.00012123092866683365 -0.00792587867846844
686 0.005732944923778874 -0.0014176055258138054 0.0020058137195141357
810 -0.001693742869341995 0.0016297438198538106 -0.0009263775268048666
522 -0.003030751920750528 0.006169118228715845 0.008668837860339708
527 -0.0009830466160433344 -0.005704997641625721 0.02172350153787861
499 0.02673020428797576 -0.0032776469815240655 0.005784323521302372
755 0.0004712380598977854 0.015647697325269307 -0.015735150020928942
675 -0.005887473179759836 -0.008803342317930292 -0.0037824010188569753
756 -0.017415979201106876 -0.011882239286772046 -0.01972125115240818
831 -0.0023980821494730565 0.0042342234593516085 -0.002269346266661369
418 0.014870068964935472 -0.01699465438826755 -0.03532835790149865
674 -0.005802117502533755 -0.0010925648641252558 -0.0010622612111427059
538 0.01826611105216799 -0.015763812182759632 0.027874229437747578
659 -0.01650331115945784 0.01137622015923864 -0.016962301188314183
653 -2.237968802768597e-05 0.0005134081599139548 0.0013409136404464103
403 -0.005620091028950634 0.0020588890275031607 -0.0026391815592565052
263 -0.0017592612209654107 -0.006973113460212895 -0.0018126299669599596
681 -0.01596923539144447 -0.026098020030542048 0.001642970156436059
660 -0.0065208644580721275 0.023044882668171902 -0.0075429319322273276
654 0.0021947676197843673 -0.0029800774550911165 0.0029374204506239137
658 -0.0027658038793554763 0.0015690597229788667 0.006286728277845042
524 -0.00984515520818074 -0.027102581535233653 0.023072176312016697
680 0.0056383059128225724 -0.014947608360978193 -0.018782845253685995
650 -0.0011046824052967045 -0.002059872045635262 -0.0015759023196711542
539 -0.002802219264328456 0.017548942296016754 0.00099272316374719
651 0.0030878662924973517 -0.005713126263438541 -0.00036238840922949486
451 -0.004389545603689909 0.004068020882140585 -0.014059700088445162
682 0.026518383053318675 0.013446776102788202 0.003758856819788912
298 -0.005910150053437018 0.0004647667288625087 0.030672537234163428
419 -0.0048916931393779665 0.010003757742793202 0.02823679123796998
496 -0.007834467120055751 0.001366225957809179 0.005772076828894647
502 -0.01366805601992999 0.020505309113894695 0.010775182418128472
498 0.0004430547209479423 -0.0016700046256957275 0.007075142972743902
503 -0.0031904175330440317 -0.003322145167628067 -0.007481016665904653
683 0.002724684325076292 0.012669895685382787 -0.005892985534971238
771 0.005921176102033496 -0.00246349600801479 -0.0028560860748268425
775 -0.013458333634980583 0.008130353123318735 -0.007112456930573257
482 -0.002583606254882856 0.007303054401400859 -0.005942848760245638
356 -0.002411908414037673 -0.01322355686787932 0.01346249182708999
806 0.0018346746404009086 0.0003132555806915666 0.0027914805089266216
596 0.003948977253437362 -0.00212245041777107 -0.0041265293977560255
344 -0.006294483944649383 -0.01653959738707623 -0.0016582161274886658
647 -0.02096045541926259 -0.005552894622076325 0.010688145684069937
646 0.001424619129236976 -0.0007438441995534753 0.026876001290832792
801 0.010421743036011764 -0.002075789658283634 0.005450258073212386
745 0.0008867330291063642 0.006290611778545873 -0.0020655629806448873
812 -0.03732568855288163 -0.0322781011844322 -0.004554578305549921
341 -0.002459379431745017 -0.004268961482649307 -0.00426711370669302
796 0.0008236881264039081 -0.006686656439052824 0.004479297837163448
413 -0.004190164938359112 -0.0037278615830307416 -0.00047813424763808074
725 0.00215016159241383 0.002349621593476665 -0.0034493734717402063
808 0.003606916849345253 0.007668532223979747 0.01407204634659376
420 0.013550819531360201 0.0005642373799419854 0.001174998541695909
132 -0.0001025142771133447 -0.0027062492760672506 -0.00527675943904796
813 0.0019239445236039787 0.013204417396157235 -0.018517629656474778
723 0.0016202323336977215 0.0021406183315619246 -0.0006854009513786422
809 -0.0022911000340602892 -0.004335692484200959 -0.0011294927704049618
348 0.00487248713545568 0.01619128107383879 0.0365387902844615
504 -0.00867629515640796 -0.008952037518834874 -0.017416892717212657
800 -0.003683598549411991 0.036876988194419216 0.007367644997244694
730 -0.0164823719914627 0.021363160658455997 -0.009436361519868364
338 -0.002932691317952618 -0.0007610376755185643 -0.003766701850853899
657 0.018076151505102035 -0.010679483818482717 0.01911168123837547
772 0.004023596348003868 0.003529025387168996 -2.4682365939927495e-05
778 -0.017812145587598086 -0.024785531929322487 -0.04738097376230311
774 -0.005971378905395165 -0.005126770650858068 -0.006140559410832198
780 -0.0028200785769328033 0.021480733118304226 -0.01028549099237813
773 -0.0062883809405313565 0.004709322968302449 -0.0005515184357194134
779 -0.003931003122391899 0.01175212517200832 0.005367585823609228
945 0.01132352046139539 0.0012743395620101565 0.014001320489865264
533 0.0006985745116946453 0.0021073259466677435 -0.0009206343957812526
537 -0.01022542726527504 0.026810868363613755 -0.006782285270385161
722 -0.0012043671579348358 1.3832556357149464e-05 -0.005127320635827104
655 0.00797186830709832 0.013073008713872684 0.010543287251431575
139 0.019937492842898842 -0.01248187633549615 -0.007314412230629451
799 0.020671962280077144 -0.011520631249817916 0.01324933298860518
337 0.00471131853771433 0.0005529580804033244 0.003397403780328663
340 -0.002351630116204887 -0.0023427299094640817 -0.0007793029419370079
481 -0.00011455718043549225 0.004638081148281066 -0.002866973535313544
684 0.006854559810085681 0.006679558771043168 -0.005186935679377891
129 -0.023634300323860095 -0.011956246888324536 0.014670008220713614
488 -0.0017532258766955315 -0.016987556733264363 -0.0020337445270007747
342 0.010355775885886572 -0.00385306446235027 -0.009058214579280697
753 0.01983899919140189 0.003259395811266238 0.015031475412640032
140 -0.02398481839194501 -0.003949711946297774 -0.013517071975323838
255 0.0006602191192144589 -0.0006632171811509776 0.0017925981813501405
254 -0.001062759303646577 0.005420620771005089 -0.004127807310243342
726 -0.0019437034647470128 -0.004037884566499584 -0.0006114483311081683
649 -0.0020774900123735705 -0.0008899429570101041 -0.004455573917663328
732 -0.01178319040504899 -0.010014317999932838 -0.008607986448988008
346 -0.002852241621584605 0.0006889552913302136 -0.0007539626654560185
793 -0.0027435191192294105 4.0995906310237196e-05 0.005807199514683736
811 0.00417335951133347 0.030829227166685468 -0.005052873106560999
656 0.007767690844586362 -0.017577990208687617 -0.001141730875814277
652 0.006846028373237196 0.0012249767971944973 0.005501329456653911
731 -0.009647437488474367 -0.01129312432718459 -0.002206442187365312
489 0.014424479090175414 -0.028417731335321272 0.021192657376944535
816 -0.0025007170891826244 -0.023801726622517824 -0.0529906851593246
347 -0.016106687275507344 -0.018448036355431498 -0.008909077879466765
339 -0.001555243952753337 0.006500068840881112 0.0029031957322156903
256 -0.0044642227283365945 -0.0024833234041845053 -0.003936923529598048
807 0.004072903703294136 -0.007787885975339452 -0.0018116456807213365
751 -0.009549938874108493 -0.031193860041345754 0.013298846975275138
531 0.007462941668955481 0.007748407873460666 0.0038520478050474097
805 -0.002543987331180763 -0.001233879900683117 -0.006939358085930982
815 0.02206339242473311 -0.03874256730667799 -0.016038610590927614
724 0.0020542687473058888 -0.003712812237774089 0.00016891796487225722
343 0.01592946666210341 -0.006252605715818866 0.020666561938231097
694 0.01085845084122746 0.011010202494394453 -0.021335359079986505
676 0.00028703910936047445 0.0034599644788591206 -0.004391806334340392
309 -0.03029199227264475 -0.0032661957660334497 -0.0029119334446497443
597 0.010992953337336558 0.027122760168017047 -0.004452070578283548
752 -0.0008177134031981323 -0.01589587236581058 -0.005866529731402275
695 0.0016445251067327468 0.015373693616196865 0.015865240039558536
384 0.009335129907397995 -0.012531502619197176 0.0039314525952620786
274 -0.009285469783453562 0.0007413842924219462 0.0031386583157600846
271 0.009244235793941553 0.0065072054132260596 -0.00196763446843775
276 -0.002623571381952565 -0.005586085110122852 0.0008647880513476354
273 -0.0037483327840218354 -0.003437906208244652 -0.0018375371305541274
272 -0.005864544766475863 -0.00305661074269986 -0.00012501360379096177
278 -0.03120959280006651 0.0025929122736676733 -0.005583367827509948
277 -0.0007124542372616794 -0.008938389327297274 -0.0005590344703756002
306 -0.0002948272439542267 -0.0022668662120356297 0.002598936056238831
311 -0.019467889217695086 -0.008631769130514243 -0.009842690434978384
633 0.012703851684622517 -0.003511664331191063 0.027121901355435345
1 0.0005268489371836308 -0.004305586094465731 0.004346096442634354
8 -0.007306947407474399 -0.03076048308565356 0.004714362064759808
6 0.0029068248573392353 -0.0007530331825265789 -0.004172235689583821
4 0.00722546366406946 0.001354195794394795 0.0028488208592612613
2 -0.004383983560178868 0.0011714685975708048 0.0020079351859071835
275 0.0015664113010221458 -0.005323574492635629 -0.004653261266447067
88 -0.0034173531647310423 0.004338729235964106 0.0027511878904735738
480 -0.006175030074661132 0.015050027076462733 -0.0013562582254231302
479 0.016287226449380833 -0.005621146746474477 0.009522297433307413
626 0.006205222516067074 0.0027037745159610104 -0.0033991413740686134
95 0.0006874447320500475 -0.004288553818579469 0.008389755617201771
744 0.013029241029079356 0.028783626950149667 0.0016748795388459895
738 0.0007679276144975451 -0.00019907771306847452 -0.0038505315836005797
10 0.012634377600493907 -0.03512479222931304 0.0013348159155438665
3 -0.0002862832982994036 -0.0017465397002724185 0.00013642839925725385
9 0.013779540424625413 0.012077054655680569 0.001270735097908815
993 -0.003426606089133914 0.004189076440942014 -0.0032573737549473477
312 -0.008831715143871962 -0.028334674588530406 -0.034667905976783535
447 0.004842589330140501 -0.006393472432338966 0.0012406331861188002
474 0.0002936341882756934 0.004051551689395134 -0.0016587044695058352
478 -0.009859262704178091 0.023351415377231045 -0.01305608383208219
304 0.0034638473365512135 -0.007843516891051769 -0.0008196936866555956
352 0.00047538308439836423 -0.0003933311222183713 0.005878128316241623
449 0.005742209456930402 0.006770221927143584 0.0044758793955096635
259 -0.0027122424279385337 0.012365790400524865 -0.012381518889608242
358 0.01070339493158139 -0.011831081402691514 0.0009124216884509577
305 -0.00025380253660712247 -0.0031567072888970984 -0.0003550562693851349
735 0.003211406394026683 -0.007492607896535625 0.0014763782632105475
354 0.0032806601391876136 0.004705822204987251 -0.0075307943359868915
351 -0.000697826597318221 0.003053820094576755 0.005823330594324952
353 0.002965689809435504 0.004196654950599217 -0.0006542213099064191
737 0.004133142241848587 -0.008308348623640412 -0.0009543093325847844
450 -0.0013858698007276978 -0.0006448048413564564 -0.0007321699724808713
448 -0.002116002506154337 -0.00038059525950146297 -0.00404463288434233
310 -0.006827745984218633 0.014830107423670042 -0.011855526703378307
350 0.0003849209449376674 0.002154811024907302 0.0021179879121361466
454 -0.00837029222725862 0.02120513378863865 0.02369061210611481
370 -0.0355244165964639 0.012336913388751508 0.0010031275613670372
355 0.02394493873151808 -0.0026712000523410225 -0.022187869525917395
349 0.007738849345058603 0.00453659393985792 -0.001004784887249528
360 0.006855994578534965 0.01346355220664676 0.027349870691955346
473 -0.0032990009823029263 0.0002010758669504384 0.0017938858402211796
372 0.0016013589080205093 0.00040715897345751286 0.012655472161986238
5 -0.0016596045454081287 0.0022272043424581213 -0.004144520818084945
280 -0.025283929259950228 0.011814036380237234 0.018664614748671936
87 -0.0024097710578893775 0.011300056252295724 0.0006343710861597381
471 -0.0009966893621002025 -0.0008618413059931543 0.001794811050500344
991 -0.0007865667716541284 -0.013524499503912685 -0.0017691918597324708
629 0.0006506461781906219 0.0018608166162344347 -0.0014154307977634595
357 0.0024142203199648397 0.009669719339563253 -0.02047614654513764
627 0.004148375960677171 -0.004441003857974232 0.0064536164045945945
635 -0.012754329459227318 0.012992657674175413 -0.01970634837658014
636 0.02183233569315488 0.021982916310318987 -0.006624863680412068
630 -0.0007757308866923799 -0.005165097202061656 -0.004808573382293908
456 -0.005548407181976248 -0.014038446298041518 -0.013110770465862944
952 0.0068967982388427225 0.0011070405125041594 0.0020476926906612424
366 0.007368937650707509 -0.000961755393078258 -0.003756786708434318
93 0.001936427742962352 -0.000311912464081062 -0.0030649779514395955
455 -0.00013873731896459638 -0.02222317263436519 -0.02737195439423936
86 0.0037021395790389996 0.0010174326136378484 -0.004074590070355457
736 0.004808890909745355 0.00016467764181907966 0.0063638778227738885
1013 -0.003047739060767915 -0.00023379048533799543 -0.002381419036223078
81 0.0003290761834335732 -0.0010275230422665841 -0.005849905567277624
734 -0.0007098448586207028 0.003427494240255088 0.007801684823833612
303 0.0010951745471332295 0.0028965647106571754 -0.002414497357630887
94 0.0023686333408531124 -0.00018455776585571502 0.009897816266076657
733 0.009061679338930722 0.0013210229291682632 -0.0043509588972055445
492 0.002783952194761985 -0.0008043822104271542 -0.034947580029398476
279 -0.01067135752402384 0.012008252712222254 0.03517430793739213
485 0.0009013179377293848 0.00137585973158317 -0.004801621472164924
739 -0.007375189441867604 0.024771313878954128 0.0004089678762991631
590 0.005733075434033153 -0.003661593545002712 -0.004103297674755789
486 -0.0005280834143884577 0.0049223401732605716 -0.0019210911598198702
598 0.013859007688784791 0.015575239680866921 -0.015007521204955958
792 0.004943104544882516 0.015743700085575886 -0.026944767237297995
930 -0.0056774757133733495 0.007110446327119669 -0.0023721346408673537
364 0.008653283292861993 0.0059373084982357474 -0.00875006382791131
741 -0.007020040999845505 -0.011370144131145 -0.01744161872604123
361 -0.006791575855637662 0.002616276885935925 -0.003800611223317361
253 -0.0035827491133532488 0.006658526528673378 0.0016799442806418878
362 0.00247239362604728 0.00043720159367404224 -0.01076446187937463
359 0.041191660476081755 0.007180739293674435 0.012129169830546982
203 -0.004909601955023856 -0.004819629539129672 -0.005198008298034542
365 0.0010674868973247643 -0.00760816386123757 -0.0009011352111806617
574 -0.015632666481346702 0.0339244861382628 0.006648062506400621
743 0.002697582501783148 0.015956188607724294 -0.00736571731874639
575 7.38999151536525e-05 -0.0008867744722758511 -0.00545272302511019
96 -0.0012971633913590175 0.004369186002771049 -0.0024558341437653933
791 0.0016912548500906007 0.040957800628559415 -0.01416888924840472
785 0.0030840288679894164 0.002874286583749163 0.007087379984650075
570 -0.0016915723405739923 -0.006051400041043512 0.003984508020004378
706 0.018790713131956547 0.009630640703237998 0.003827653196752004
302 0.0011994624261110068 -7.743179539491983e-05 -0.00209473004107725
707 -0.011149281505395604 -0.0021119850336208694 0.0075553790937591715
100 0.016634993719829707 -0.018356225205847912 0.002119395798607089
99 0.025055885285939092 0.02036693432437852 -0.026296193335674137
92 0.00950504948261223 -0.0005113483632167325 -0.0018962360973474857
91 0.005887241418137116 0.003955906965857765 -0.003159970030699308
97 0.0076688304196260845 -0.0024451579201687328 0.005108925917002005
781 -0.005249875212165835 0.0015143681303393755 0.00308994169508298
702 0.0006011061725074603 6.858761173040252e-05 -0.008083249086386086
567 0.005895784813957467 0.0008642811868317362 -0.005955772816178475
566 -2.6507639355393385e-05 -0.001285627852797752 -0.010238803486485766
204 0.0008199975866189035 0.008145088255357417 -0.004142611112512305
320 -0.02615402717229423 0.010937191248308895 0.0031817739726705905
98 -0.0018630805873409914 0.0067299077053236305 0.009993775925091073
205 -0.0024371272416751355 0.0027618142256695412 -0.006570773831633722
206 0.002122344649342052 -0.001175954081260908 0.002811647330037285
787 -0.014481543793596778 -0.009870328464513835 0.025447389651044358
783 0.001749303813628991 -0.0054276436669392185 0.0032978843648709486
569 -0.007513028407826203 -0.0004883002155623011 0.0018932461255227895
784 0.002036478878947874 -0.002988130484764405 -0.00023234984402786926
950 0.00022812249493825779 -0.0028071121130056696 0.002057446821494412
301 0.002764728467207467 -0.0071486816367583835 0.0035022459739576565
953 0.0014091211350626242 -0.0032718328663479766 0.0030235806274894767
316 -0.00042543647721768985 -0.0010907705970758356 -0.005928945926387352
789 -0.01724027329123493 -0.030650480773493624 -0.003767603589215063
951 -0.0024256108399381662 0.005423506846190021 0.005884327692041765
782 0.0035668403459486447 -0.0018240534516840848 0.0016159284379785965
788 -0.0224791362231804 -0.00797991196071424 0.003557107234310735
954 0.003373610612213266 -0.008869147027160067 -0.00066474857150729
960 -0.03310003313015594 -0.007524392098875237 -0.010067192793067397
959 -0.0026714963081572473 -0.05666485277981127 0.010404270897525218
487 -0.004654379108791776 0.002874949282429238 0.016305694514938462
378 -0.007703492047761418 -0.00023207895313617235 -0.0006871735203569204
383 -0.015570513968569379 0.008976316763143949 0.009304496812193749
308 -0.0072375491367794136 0.009221723838552331 0.015424753507540415
708 -0.005858896201179132 -0.005339303238389936 -0.03210652736798696
958 0.010489886417560637 -0.02075180203780018 -0.005902546087438568
371 0.007870056787856412 0.0058590996396005535 0.0032686670919506765
363 0.0031638001731977444 0.011671470605904377 -0.0005140986710818266
319 -0.0067166760069969226 -0.011865943479328542 0.008795059678696489
593 -0.0031959064984079318 0.0031804838956519484 -0.00523028948245485
790 -0.008098407441458927 -0.007175311976316835 0.0019423302420543197
313 -0.003917960697798321 -0.0059631743968100205 -0.0011662612417087915
321 -0.01045837687768991 0.018839813792777053 -0.0015614972127593238
367 0.01492970439384106 0.0008905747266887477 -0.0021201010301242296
786 0.0016302035633598711 0.004362432658642921 -0.0004990196078928801
585 -0.0071876762246226135 0.0035205304094518015 0.02000915496231597
382 -0.03358693087547231 0.015088661262373279 -0.013946231576012049
156 -0.006876538290479123 -0.003924928754412351 0.0008088624948919757
990 0.0007948797773810166 0.0004002395858593507 0.005156847261427753
572 -0.0032085586526647853 -0.014104391022906233 -0.01602999145677809
591 -0.0013013367733676255 0.0008924657096639001 -0.0065323304135642205
314 -0.0001872079942499862 -0.0016976154341565518 0.004686019984733905
324 0.012009512412943667 -0.018857337340643012 -0.02694481438569552
369 -0.024879063579770894 -0.0052587027870447155 0.011608016576636251
648 -0.020250457258368933 0.005816286438002974 -0.004577518472506149
742 0.011319499251218914 0.004547720675675152 0.003977091427649983
565 0.003504229295693327 0.004384912541050194 0.005956964481774075
490 0.016092862715840834 -0.007381166729652086 0.0032477311409990733
705 0.01967214230756317 -0.019404137063836664 0.009819025313948137
956 0.008815373337178422 0.008155143140041113 0.0025165391244999164
252 0.003241791250773683 0.001880769552250243 -0.004243105014566156
329 -0.0019798933766276843 0.0027080493799204026 -0.00032618301616221666
935 -0.014877901057286097 0.005339001736855097 0.027333002404866275
949 0.0036439771483256305 -0.0020070966893023278 0.0022127477908471384
592 0.0004155407659402209 0.0008919297044275971 0.0056070723899397
368 0.0048818701662782776 -0.01841694672599081 0.013106241139511945
595 0.0017520189565405505 0.021715998923511365 -0.006206484557234232
446 0.0030908271227261482 0.002420413672203328 -0.008845402705390562
445 -0.004407624764818422 0.00831495484780832 -0.002856497255649911
452 0.006831941064401094 -0.00974199733125621 -0.005385170770116222
699 -0.00497919188082957 0.0013420154494624926 0.0030816814229962055
470 0.01388236084266205 0.001513971193536243 0.0019426082067156665
697 -0.0018718312398015172 -0.0005112210674907358 -0.0013835336198680485
491 -0.010540664485512746 -0.01767761969198898 -0.005774604190497524
883 -0.02787953509129132 -0.008296322251725984 0.0039260694810562555
472 0.0020906254457624313 0.0014241380622204087 0.001997184665698477
934 0.009061903722682702 -0.01476146660893203 -0.006411939952118677
322 0.004177535987069957 0.00626146002400234 0.011833032857265814
984 -0.004060998462266767 0.00014661975331631583 0.0002896662111114042
465 0.002434419622443276 0.004350502604545231 0.02558985490326881
155 -0.004555107327496558 0.006682919368645169 0.00011931366116821234
803 0.01877700256298709 0.032888508713104524 -0.0005532668907359001
980 0.0027149698775384245 0.0010620576610198117 0.0053766109941164614
625 0.0029996825786299764 0.0025409692324338496 0.002722141760415251
462 0.002485787936283725 0.001232224035833071 -0.009609347167724455
251 -0.0014060991557211333 -0.00011094571208670654 0.0009908975472776183
466 0.01748293070435143 -0.020341274683471293 0.01421867870187025
955 0.014168311960825186 -0.03313050569846304 0.011452915103743253
483 0.0010437031963313854 0.0012676529428981161 -0.0029403773028406103
1012 -0.006887339193341552 0.00302684969869242 -0.0015288031920432919
814 0.008948422031590117 0.009435413238693801 -0.008995944110343919
639 0.0014822711030336795 -0.004198241718058948 0.004107540966693094
1014 0.0002517954250467365 0.005053628606942788 -0.0002567092292391086
701 -0.0008536570824276863 0.005051888572438638 0.0003755468826182554
1010 -0.0024117600771189343 -0.0020790462334835734 0.011004011166228551
315 0.000798895014107057 0.0022324665389369873 0.000655147912985189
983 0.00046375483436965673 -0.004354017220150574 -0.008227224667188645
600 -0.009906408433403714 0.0022724375018565867 -5.557504633717713e-05
594 -0.000917544451586597 -0.002267309480595312 -0.006169181364982712
599 -0.0041993271494268365 -0.0033641870039327944 0.00022767770062624292
159 -0.032042785467263114 -0.008717347453286593 -0.002841025936800738
453 0.005391942263458243 0.022329820426609227 -0.008574803768425236
463 -0.010823727023099977 -0.021052918590139157 -0.0027117494901298363
1011 0.000650788565044406 -0.001003916265599994 -0.0005883606876748538
703 -0.03233117567259333 -0.01915118798467956 0.014204368930966795
151 0.009840555973954843 0.00135141043311108 0.01641930947927895
258 -0.0011704099047349745 0.0031209866047076187 0.0013036046225714483
323 0.010618174535813124 -0.009838210586950655 0.01686194193426682
260 -0.008136605209709147 -0.02029751111318619 -0.0009192826323524252
700 -0.010063086689859448 -0.0018828605663781606 0.003961567968099574
458 -0.0006880755879072598 -0.0017394354349346418 0.0051939836400183795
698 -0.007644312993672293 0.0045459007660400876 0.004198277191551412
154 0.004880820559242471 -0.003320311203823828 0.010879591340926422
475 0.011460315105800803 -0.02307540407364981 0.007926191467501186
641 -0.0016049696577182509 -0.0025595029578519097 -0.0005338807771872385
476 0.024500917976448607 0.015131051832331023 -0.005935726822064482
484 -0.000991753775820927 -0.0025884935081047127 -0.003444691294045362
152 -0.00289016494665312 0.005591759983192683 -0.006138521357914027
468 -0.029484857139929235 -0.0004200575090893407 0.0012193556577876953
628 -0.0018648165659208675 -0.0026679848412227395 -0.0003980735474202004
7 -0.007163715308579689 0.01213226439786871 -0.005445102701840502
640 -0.0007458120737367639 -0.001190133063755168 0.000778281792547156
978 0.0055526761970924625 0.010881678478224743 -0.005390701352902739
457 0.003035219387035792 0.0015933167784532205 -0.0011216876093265162
460 0.0009617038106377292 -0.0033166866964962384 -0.008106497453499327
477 0.002237640035580231 0.016711085540899926 0.0034312299137629282
160 -0.004690734103195079 0.018092359996523137 -0.0022229775983802357
634 0.006379530661108272 0.03403916038833165 -0.008429492318921736
459 0.005079677639303045 0.007705597740047395 -0.003114406616794382
317 -0.001461555448812484 -0.0006944062575694371 0.0007638757193058246
976 -0.0032282361199098913 -0.008426915489292742 -0.0008565876488831429
981 0.0008943990614458299 0.001185963372074106 0.003395790391448387
464 -0.014430655540977704 -0.0033746072113082556 0.0031269733203360644
704 -0.0031892697254180657 -0.002855043995019493 0.0006335910466280762
153 -0.001877593349429791 0.007547588091339248 -0.0005984230445300829
467 0.003368074721838939 -0.03296957423965192 0.018262107203386967
157 -0.00018150501227981713 0.007281802074249477 -0.03352985819774504
982 -0.006655529378478044 -0.0024874982580527713 0.006187257609439577
158 -0.012285836092401737 0.008809681962747933 -0.030817467106939073
257 0.02642203940834965 -0.015034275425491943 -0.027927542340628685
318 0.0028449838167553163 0.007180487768482004 0.0018809923976087994
376 -0.001165047319374517 0.0005038948206237208 0.004688678105288726
469 -0.0005498287143464029 -0.0038330975603583423 0.0021550767501688026
461 -0.002500272062188195 0.009366892738768682 -0.004140648492213066
576 -0.014631594401247441 0.0020407054226372727 0.010196645206168923
589 0.00035389957299980843 0.0035562048402283733 0.007353285939467146
688 0.0015485806200480681 -0.0010227628306772392 0.001016703289850973
335 0.017828740053616232 -0.022976165911502314 0.010265986688745182
586 0.0003335822442506139 0.012342745539256007 1.3125563341099687e-05
326 -0.009882238821364011 0.0008132960116214228 -0.0012964920646729994
568 -7.629679486103789e-05 -0.001492414471731663 0.0010730863802264957
631 -0.000744578246347482 0.001287909666352061 0.007816797888596363
888 -0.0034293168598644205 -0.00889664155332179 0.026775222048513285
693 -0.017900185248425043 -0.001188930580207126 -0.00966351309025977
307 0.004048196979860708 0.015737216498172668 0.015478718573702316

Bonds

1 2 865 866
2 3 865 871
3 3 865 872
4 3 865 873
5 4 866 867
6 4 53 54
7 5 867 868
8 4 867 869
9 2 869 870
10 3 402 406
11 3 402 407
12 3 402 408
13 4 103 104
14 5 104 105
15 4 104 106
16 5 54 55
17 4 54 56
18 1 51 52
19 2 51 56
20 3 51 57
21 3 51 58
22 5 64 65
23 4 64 66
24 2 52 53
25 3 52 59
26 3 52 60
27 1 61 62
28 2 61 66
29 3 61 67
30 3 61 68
31 4 63 64
32 2 62 63
33 3 62 69
34 3 62 70
35 1 101 102
36 2 101 106
37 3 101 107
38 3 101 108
39 2 102 103
40 3 102 109
41 3 102 110
42 2 829 830
43 3 829 835
44 3 829 836
45 3 829 837
46 1 31 32
47 2 31 36
48 3 31 37
49 3 31 38
50 3 942 946
51 3 942 947
52 3 942 948
53 3 870 874
54 3 870 875
55 3 870 876
56 5 184 185
57 4 184 186
58 4 926 927
59 4 183 184
60 2 32 33
61 3 32 39
62 3 32 40
63 2 545 546
64 4 542 543
65 4 830 831
66 5 927 928
67 4 927 929
68 2 182 183
69 3 182 189
70 3 182 190
71 5 543 544
72 4 543 545
73 1 181 182
74 2 181 186
75 3 181 187
76 3 181 188
77 2 721 722
78 3 721 727
79 3 721 728
80 3 721 729
81 1 11 12
82 2 11 16
83 3 11 17
84 3 11 18
85 3 618 622
86 3 618 623
87 3 618 624
88 2 929 930
89 4 33 34
90 2 433 434
91 3 433 439
92 3 433 440
93 3 433 441
94 5 915 916
95 4 915 917
96 2 401 402
97 1 121 122
98 2 121 126
99 3 121 127
100 3 121 128
101 2 541 542
102 3 541 547
103 3 541 548
104 3 541 549
105 4 243 244
106 2 917 918
107 4 854 855
108 2 853 854
109 3 853 859
110 3 853 860
111 3 853 861
112 2 857 858
113 5 855 856
114 4 855 857
115 3 858 862
116 3 858 863
117 3 858 864
118 6 1001 1002
119 6 1001 1003
120 6 1001 1004
121 5 843 844
122 4 843 845
123 5 124 125
124 4 124 126
125 5 244 245
126 4 244 246
127 3 846 850
128 3 846 851
129 3 846 852
130 2 845 846
131 4 13 14
132 5 14 15
133 4 14 16
134 2 925 926
135 3 925 931
136 3 925 932
137 3 925 933
138 3 918 922
139 3 918 923
140 3 918 924
141 2 12 13
142 3 12 19
143 3 12 20
144 1 261 262
145 2 261 266
146 3 261 267
147 3 261 268
148 6 1000 1001
149 2 22 23
150 3 22 29
151 3 22 30
152 2 292 293
153 3 292 299
154 3 292 300
155 4 842 843
156 5 435 436
157 4 435 437
158 2 242 243
159 3 242 249
160 3 242 250
161 1 21 22
162 2 21 26
163 3 21 27
164 3 21 28
165 4 434 435
166 4 530 531
167 5 74 75
168 4 74 76
169 1 131 132
170 2 131 136
171 3 131 137
172 3 131 138
173 2 601 602
174 3 601 607
175 3 601 608
176 3 601 609
177 1 291 292
178 2 291 296
179 3 291 297
180 3 291 298
181 2 841 842
182 3 841 847
183 3 841 848
184 3 841 849
185 4 818 819
186 5 224 225
187 4 224 226
188 4 293 294
189 4 223 224
190 5 134 135
191 4 134 136
192 5 34 35
193 4 34 36
194 2 605 606
195 4 23 24
196 2 817 818
197 3 817 823
198 3 817 824
199 3 817 825
200 5 819 820
201 4 819 821
202 4 143 144
203 1 141 142
204 2 141 146
205 3 141 147
206 3 141 148
207 4 602 603
208 1 221 222
209 2 221 226
210 3 221 227
211 3 221 228
212 5 144 145
213 4 144 146
214 5 603 604
215 4 603 605
216 4 758 759
217 3 822 826
218 3 822 827
219 3 822 828
220 5 294 295
221 4 294 296
222 2 757 758
223 3 757 763
224 3 757 764
225 3 757 765
226 2 142 143
227 3 142 149
228 3 142 150
229 2 222 223
230 3 222 229
231 3 222 230
232 3 606 610
233 3 606 611
234 3 606 612
235 2 821 822
236 2 529 530
237 3 529 535
238 3 529 536
239 3 529 537
240 2 761 762
241 4 133 134
242 5 24 25
243 4 24 26
244 3 762 766
245 3 762 767
246 3 762 768
247 5 759 760
248 4 759 761
249 2 122 123
250 3 122 129
251 3 122 130
252 4 123 124
253 2 505 506
254 3 505 511
255 3 505 512
256 3 505 513
257 2 437 438
258 1 241 242
259 2 241 246
260 3 241 247
261 3 241 248
262 5 963 964
263 4 963 965
264 2 965 966
265 3 966 970
266 3 966 971
267 3 966 972
268 5 663 664
269 4 663 665
270 5 284 285
271 4 284 286
272 2 421 422
273 3 421 427
274 3 421 428
275 3 421 429
276 2 112 113
277 3 112 119
278 3 112 120
279 4 422 423
280 5 423 424
281 4 423 425
282 2 425 426
283 4 113 114
284 1 111 112
285 2 111 116
286 3 111 117
287 3 111 118
288 4 283 284
289 2 661 662
290 3 661 667
291 3 661 668
292 3 661 669
293 4 962 963
294 2 961 962
295 3 961 967
296 3 961 968
297 3 961 969
298 4 662 663
299 3 666 670
300 3 666 671
301 3 666 672
302 2 665 666
303 3 714 718
304 3 714 719
305 3 714 720
306 5 711 712
307 4 711 713
308 2 713 714
309 5 114 115
310 4 114 116
311 2 82 83
312 3 82 89
313 3 82 90
314 2 325 326
315 3 325 331
316 3 325 332
317 3 325 333
318 6 1005 1006
319 6 1006 1007
320 6 1006 1008
321 6 1006 1009
322 3 546 550
323 3 546 551
324 3 546 552
325 6 986 987
326 6 986 988
327 6 986 989
328 6 985 986
329 3 426 430
330 3 426 431
331 3 426 432
332 2 709 710
333 3 709 715
334 3 709 716
335 3 709 717
336 2 377 378
337 4 710 711
338 4 914 915
339 4 83 84
340 4 878 879
341 5 327 328
342 4 327 329
343 3 882 886
344 3 882 887
345 3 882 888
346 5 84 85
347 4 84 86
348 3 438 442
349 3 438 443
350 3 438 444
351 1 191 192
352 2 191 196
353 3 191 197
354 3 191 198
355 2 192 193
356 3 192 199
357 3 192 200
358 1 231 232
359 2 231 236
360 3 231 237
361 3 231 238
362 4 213 214
363 2 212 213
364 3 212 219
365 3 212 220
366 5 234 235
367 4 234 236
368 1 211 212
369 2 211 216
370 3 211 217
371 3 211 218
372 5 214 215
373 4 214 216
374 5 194 195
375 4 194 196
376 4 193 194
377 6 996 997
378 6 996 998
379 6 996 999
380 3 558 562
381 3 558 563
382 3 558 564
383 2 557 558
384 6 995 996
385 2 913 914
386 3 913 919
387 3 913 920
388 3 913 921
389 4 233 234
390 2 232 233
391 3 232 239
392 3 232 240
393 4 73 74
394 3 330 334
395 3 330 335
396 3 330 336
397 2 202 203
398 3 202 209
399 3 202 210
400 2 72 73
401 3 72 79
402 3 72 80
403 2 881 882
404 5 615 616
405 4 615 617
406 1 201 202
407 2 201 206
408 3 201 207
409 3 201 208
410 4 614 615
411 2 613 614
412 3 613 619
413 3 613 620
414 3 613 621
415 2 617 618
416 4 43 44
417 2 905 906
418 4 374 375
419 5 579 580
420 4 579 581
421 4 506 507
422 2 373 374
423 3 373 379
424 3 373 380
425 3 373 381
426 5 507 508
427 4 507 509
428 2 877 878
429 3 877 883
430 3 877 884
431 3 877 885
432 2 581 582
433 2 282 283
434 3 282 289
435 3 282 290
436 2 509 510
437 2 901 902
438 3 901 907
439 3 901 908
440 3 901 909
441 5 375 376
442 4 375 377
443 2 42 43
444 3 42 49
445 3 42 50
446 2 577 578
447 3 577 583
448 3 577 584
449 3 577 585
450 1 71 72
451 2 71 76
452 3 71 77
453 3 71 78
454 1 281 282
455 2 281 286
456 3 281 287
457 3 281 288
458 4 638 639
459 5 555 556
460 4 555 557
461 5 44 45
462 4 44 46
463 3 510 514
464 3 510 515
465 3 510 516
466 2 553 554
467 3 553 559
468 3 553 560
469 3 553 561
470 5 879 880
471 4 879 881
472 4 554 555
473 3 906 910
474 3 906 911
475 3 906 912
476 3 582 586
477 3 582 587
478 3 582 588
479 4 902 903
480 1 41 42
481 2 41 46
482 3 41 47
483 3 41 48
484 4 578 579
485 5 903 904
486 4 903 905
487 2 637 638
488 3 637 643
489 3 637 644
490 3 637 645
491 2 893 894
492 5 891 892
493 4 891 893
494 4 890 891
495 2 889 890
496 3 889 895
497 3 889 896
498 3 889 897
499 5 939 940
500 4 939 941
501 5 387 388
502 4 387 389
503 2 385 386
504 3 385 391
505 3 385 392
506 3 385 393
507 2 937 938
508 3 937 943
509 3 937 944
510 3 937 945
511 1 161 162
512 2 161 166
513 3 161 167
514 3 161 168
515 4 938 939
516 4 770 771
517 2 769 770
518 3 769 775
519 3 769 776
520 3 769 777
521 5 164 165
522 4 164 166
523 3 894 898
524 3 894 899
525 3 894 900
526 2 162 163
527 3 162 169
528 3 162 170
529 4 163 164
530 3 834 838
531 3 834 839
532 3 834 840
533 4 386 387
534 2 389 390
535 4 398 399
536 3 390 394
537 3 390 395
538 3 390 396
539 4 173 174
540 3 798 802
541 3 798 803
542 3 798 804
543 2 397 398
544 3 397 403
545 3 397 404
546 3 397 405
547 5 411 412
548 4 411 413
549 2 409 410
550 3 409 415
551 3 409 416
552 3 409 417
553 4 410 411
554 2 833 834
555 3 642 646
556 3 642 647
557 3 642 648
558 3 414 418
559 3 414 419
560 3 414 420
561 5 399 400
562 4 399 401
563 2 172 173
564 3 172 179
565 3 172 180
566 2 941 942
567 2 797 798
568 2 262 263
569 3 262 269
570 3 262 270
571 5 795 796
572 4 795 797
573 4 794 795
574 2 673 674
575 3 673 679
576 3 673 680
577 3 673 681
578 3 678 682
579 3 678 683
580 3 678 684
581 5 174 175
582 4 174 176
583 2 517 518
584 3 517 523
585 3 517 524
586 3 517 525
587 3 534 538
588 3 534 539
589 3 534 540
590 3 690 694
591 3 690 695
592 3 690 696
593 4 518 519
594 5 519 520
595 4 519 521
596 5 264 265
597 4 264 266
598 2 677 678
599 2 521 522
600 1 171 172
601 2 171 176
602 3 171 177
603 3 171 178
604 2 689 690
605 2 685 686
606 3 685 691
607 3 685 692
608 3 685 693
609 4 746 747
610 5 687 688
611 4 687 689
612 5 747 748
613 4 747 749
614 3 750 754
615 3 750 755
616 3 750 756
617 2 749 750
618 2 493 494
619 3 493 499
620 3 493 500
621 3 493 501
622 4 494 495
623 5 495 496
624 4 495 497
625 2 497 498
626 4 686 687
627 3 810 814
628 3 810 815
629 3 810 816
630 3 522 526
631 3 522 527
632 3 522 528
633 5 675 676
634 4 675 677
635 5 831 832
636 4 831 833
637 4 674 675
638 2 653 654
639 4 263 264
640 3 654 658
641 3 654 659
642 3 654 660
643 4 650 651
644 5 651 652
645 4 651 653
646 3 498 502
647 3 498 503
648 3 498 504
649 5 771 772
650 4 771 773
651 4 482 483
652 4 806 807
653 2 745 746
654 3 745 751
655 3 745 752
656 3 745 753
657 2 341 342
658 2 413 414
659 2 725 726
660 2 132 133
661 3 132 139
662 3 132 140
663 5 723 724
664 4 723 725
665 2 809 810
666 4 338 339
667 3 774 778
668 3 774 779
669 3 774 780
670 2 773 774
671 2 533 534
672 4 722 723
673 2 337 338
674 3 337 343
675 3 337 344
676 3 337 345
677 2 481 482
678 3 481 487
679 3 481 488
680 3 481 489
681 3 342 346
682 3 342 347
683 3 342 348
684 5 254 255
685 4 254 256
686 3 726 730
687 3 726 731
688 3 726 732
689 2 649 650
690 3 649 655
691 3 649 656
692 3 649 657
693 2 793 794
694 3 793 799
695 3 793 800
696 3 793 801
697 5 339 340
698 4 339 341
699 5 807 808
700 4 807 809
701 5 531 532
702 4 531 533
703 2 805 806
704 3 805 811
705 3 805 812
706 3 805 813
707 5 274 275
708 4 274 276
709 1 271 272
710 2 271 276
711 3 271 277
712 3 271 278
713 4 273 274
714 2 272 273
715 3 272 279
716 3 272 280
717 3 306 310
718 3 306 311
719 3 306 312
720 1 1 2
721 2 1 6
722 3 1 7
723 3 1 8
724 5 4 5
725 4 4 6
726 2 2 3
727 3 2 9
728 3 2 10
729 4 626 627
730 3 738 742
731 3 738 743
732 3 738 744
733 4 3 4
734 5 447 448
735 4 447 449
736 3 474 478
737 3 474 479
738 3 474 480
739 2 449 450
740 2 305 306
741 5 735 736
742 4 735 737
743 3 354 358
744 3 354 359
745 3 354 360
746 5 351 352
747 4 351 353
748 2 353 354
749 2 737 738
750 3 450 454
751 3 450 455
752 3 450 456
753 4 350 351
754 2 349 350
755 3 349 355
756 3 349 356
757 3 349 357
758 2 473 474
759 5 471 472
760 4 471 473
761 6 991 992
762 6 991 993
763 6 991 994
764 2 629 630
765 5 627 628
766 4 627 629
767 3 630 634
768 3 630 635
769 3 630 636
770 3 366 370
771 3 366 371
772 3 366 372
773 4 93 94
774 1 81 82
775 2 81 86
776 3 81 87
777 3 81 88
778 4 734 735
779 5 303 304
780 4 303 305
781 5 94 95
782 4 94 96
783 2 733 734
784 3 733 739
785 3 733 740
786 3 733 741
787 2 485 486
788 4 590 591
789 3 486 490
790 3 486 491
791 3 486 492
792 3 930 934
793 3 930 935
794 3 930 936
795 2 361 362
796 3 361 367
797 3 361 368
798 3 361 369
799 4 253 254
800 4 362 363
801 4 203 204
802 2 365 366
803 2 785 786
804 3 570 574
805 3 570 575
806 3 570 576
807 4 302 303
808 2 92 93
809 3 92 99
810 3 92 100
811 1 91 92
812 2 91 96
813 3 91 97
814 3 91 98
815 2 781 782
816 3 781 787
817 3 781 788
818 3 781 789
819 3 702 706
820 3 702 707
821 3 702 708
822 5 567 568
823 4 567 569
824 4 566 567
825 5 204 205
826 4 204 206
827 5 783 784
828 4 783 785
829 2 569 570
830 4 950 951
831 2 301 302
832 3 301 307
833 3 301 308
834 3 301 309
835 2 953 954
836 5 951 952
837 4 951 953
838 4 782 783
839 3 954 958
840 3 954 959
841 3 954 960
842 3 378 382
843 3 378 383
844 3 378 384
845 5 363 364
846 4 363 365
847 2 593 594
848 2 313 314
849 3 313 319
850 3 313 320
851 3 313 321
852 3 786 790
853 3 786 791
854 3 786 792
855 6 990 991
856 5 591 592
857 4 591 593
858 4 314 315
859 2 565 566
860 3 565 571
861 3 565 572
862 3 565 573
863 2 252 253
864 3 252 259
865 3 252 260
866 2 329 330
867 2 949 950
868 3 949 955
869 3 949 956
870 3 949 957
871 4 446 447
872 2 445 446
873 3 445 451
874 3 445 452
875 3 445 453
876 5 699 700
877 4 699 701
878 4 470 471
879 2 697 698
880 3 697 703
881 3 697 704
882 3 697 705
883 6 980 981
884 2 625 626
885 3 625 631
886 3 625 632
887 3 625 633
888 3 462 466
889 3 462 467
890 3 462 468
891 1 251 252
892 2 251 256
893 3 251 257
894 3 251 258
895 5 483 484
896 4 483 485
897 5 639 640
898 4 639 641
899 2 701 702
900 6 1010 1011
901 5 315 316
902 4 315 317
903 3 594 598
904 3 594 599
905 3 594 600
906 6 1011 1012
907 6 1011 1013
908 6 1011 1014
909 1 151 152
910 2 151 156
911 3 151 157
912 3 151 158
913 4 458 459
914 4 698 699
915 5 154 155
916 4 154 156
917 2 641 642
918 2 152 153
919 3 152 159
920 3 152 160
921 2 457 458
922 3 457 463
923 3 457 464
924 3 457 465
925 5 459 460
926 4 459 461
927 2 317 318
928 6 981 982
929 6 981 983
930 6 981 984
931 4 153 154
932 3 318 322
933 3 318 323
934 3 318 324
935 2 469 470
936 3 469 475
937 3 469 476
938 3 469 477
939 2 461 462
940 2 589 590
941 3 589 595
942 3 589 596
943 3 589 597
944 4 326 327

Angles

1 2 866 865 871
2 2 866 865 872
3 2 866 865 873
4 4 871 865 872
5 4 871 865 873
6 4 872 865 873
7 5 865 866 867
8 1 52 53 54
9 3 866 867 868
10 6 866 867 869
11 3 868 867 869
12 5 867 869 870
13 2 401 402 406
14 2 401 402 407
15 2 401 402 408
16 4 406 402 407
17 4 406 402 408
18 4 407 402 408
19 1 102 103 104
20 3 103 104 105
21 1 103 104 106
22 3 105 104 106
23 1 101 106 104
24 3 53 54 55
25 1 53 54 56
26 3 55 54 56
27 1 61 66 64
28 1 52 51 56
29 2 52 51 57
30 2 52 51 58
31 2 56 51 57
32 2 56 51 58
33 4 57 51 58
34 1 51 56 54
35 3 63 64 65
36 1 63 64 66
37 3 65 64 66
38 1 51 52 53
39 2 51 52 59
40 2 51 52 60
41 2 53 52 59
42 2 53 52 60
43 4 59 52 60
44 1 62 61 66
45 2 62 61 67
46 2 62 61 68
47 2 66 61 67
48 2 66 61 68
49 4 67 61 68
50 1 62 63 64
51 1 61 62 63
52 2 61 62 69
53 2 61 62 70
54 2 63 62 69
55 2 63 62 70
56 4 69 62 70
57 1 102 101 106
58 2 102 101 107
59 2 102 101 108
60 2 106 101 107
61 2 106 101 108
62 4 107 101 108
63 1 101 102 103
64 2 101 102 109
65 2 101 102 110
66 2 103 102 109
67 2 103 102 110
68 4 109 102 110
69 2 830 829 835
70 2 830 829 836
71 2 830 829 837
72 4 835 829 836
73 4 835 829 837
74 4 836 829 837
75 1 32 31 36
76 2 32 31 37
77 2 32 31 38
78 2 36 31 37
79 2 36 31 38
80 4 37 31 38
81 2 941 942 946
82 2 941 942 947
83 2 941 942 948
84 4 946 942 947
85 4 946 942 948
86 4 947 942 948
87 2 869 870 874
88 2 869 870 875
89 2 869 870 876
90 4 874 870 875
91 4 874 870 876
92 4 875 870 876
93 3 183 184 185
94 1 183 184 186
95 3 185 184 186
96 1 31 36 34
97 5 925 926 927
98 1 182 183 184
99 1 31 32 33
100 2 31 32 39
101 2 31 32 40
102 2 33 32 39
103 2 33 32 40
104 4 39 32 40
105 5 543 545 546
106 5 541 542 543
107 5 829 830 831
108 3 926 927 928
109 6 926 927 929
110 3 928 927 929
111 1 181 182 183
112 2 181 182 189
113 2 181 182 190
114 2 183 182 189
115 2 183 182 190
116 4 189 182 190
117 3 542 543 544
118 6 542 543 545
119 3 544 543 545
120 1 182 181 186
121 2 182 181 187
122 2 182 181 188
123 2 186 181 187
124 2 186 181 188
125 4 187 181 188
126 2 722 721 727
127 2 722 721 728
128 2 722 721 729
129 4 727 721 728
130 4 727 721 729
131 4 728 721 729
132 1 12 11 16
133 2 12 11 17
134 2 12 11 18
135 2 16 11 17
136 2 16 11 18
137 4 17 11 18
138 2 617 618 622
139 2 617 618 623
140 2 617 618 624
141 4 622 618 623
142 4 622 618 624
143 4 623 618 624
144 5 927 929 930
145 1 32 33 34
146 1 291 296 294
147 2 434 433 439
148 2 434 433 440
149 2 434 433 441
150 4 439 433 440
151 4 439 433 441
152 4 440 433 441
153 3 914 915 916
154 6 914 915 917
155 3 916 915 917
156 5 399 401 402
157 1 261 266 264
158 1 122 121 126
159 2 122 121 127
160 2 122 121 128
161 2 126 121 127
162 2 126 121 128
163 4 127 121 128
164 1 121 126 124
165 2 542 541 547
166 2 542 541 548
167 2 542 541 549
168 4 547 541 548
169 4 547 541 549
170 4 548 541 549
171 1 242 243 244
172 5 915 917 918
173 5 853 854 855
174 2 854 853 859
175 2 854 853 860
176 2 854 853 861
177 4 859 853 860
178 4 859 853 861
179 4 860 853 861
180 1 11 16 14
181 5 855 857 858
182 3 854 855 856
183 6 854 855 857
184 3 856 855 857
185 2 857 858 862
186 2 857 858 863
187 2 857 858 864
188 4 862 858 863
189 4 862 858 864
190 4 863 858 864
191 7 1000 1001 1002
192 7 1000 1001 1003
193 7 1000 1001 1004
194 7 1002 1001 1003
195 7 1002 1001 1004
196 7 1003 1001 1004
197 3 842 843 844
198 6 842 843 845
199 3 844 843 845
200 3 123 124 125
201 1 123 124 126
202 3 125 124 126
203 3 243 244 245
204 1 243 244 246
205 3 245 244 246
206 2 845 846 850
207 2 845 846 851
208 2 845 846 852
209 4 850 846 851
210 4 850 846 852
211 4 851 846 852
212 5 843 845 846
213 1 12 13 14
214 3 13 14 15
215 1 13 14 16
216 3 15 14 16
217 2 926 925 931
218 2 926 925 932
219 2 926 925 933
220 4 931 925 932
221 4 931 925 933
222 4 932 925 933
223 2 917 918 922
224 2 917 918 923
225 2 917 918 924
226 4 922 918 923
227 4 922 918 924
228 4 923 918 924
229 1 11 12 13
230 2 11 12 19
231 2 11 12 20
232 2 13 12 19
233 2 13 12 20
234 4 19 12 20
235 1 241 246 244
236 1 262 261 266
237 2 262 261 267
238 2 262 261 268
239 2 266 261 267
240 2 266 261 268
241 4 267 261 268
242 1 21 22 23
243 2 21 22 29
244 2 21 22 30
245 2 23 22 29
246 2 23 22 30
247 4 29 22 30
248 1 291 292 293
249 2 291 292 299
250 2 291 292 300
251 2 293 292 299
252 2 293 292 300
253 4 299 292 300
254 5 841 842 843
255 3 434 435 436
256 6 434 435 437
257 3 436 435 437
258 1 241 242 243
259 2 241 242 249
260 2 241 242 250
261 2 243 242 249
262 2 243 242 250
263 4 249 242 250
264 1 22 21 26
265 2 22 21 27
266 2 22 21 28
267 2 26 21 27
268 2 26 21 28
269 4 27 21 28
270 5 433 434 435
271 1 141 146 144
272 5 529 530 531
273 3 73 74 75
274 1 73 74 76
275 3 75 74 76
276 1 132 131 136
277 2 132 131 137
278 2 132 131 138
279 2 136 131 137
280 2 136 131 138
281 4 137 131 138
282 2 602 601 607
283 2 602 601 608
284 2 602 601 609
285 4 607 601 608
286 4 607 601 609
287 4 608 601 609
288 1 292 291 296
289 2 292 291 297
290 2 292 291 298
291 2 296 291 297
292 2 296 291 298
293 4 297 291 298
294 2 842 841 847
295 2 842 841 848
296 2 842 841 849
297 4 847 841 848
298 4 847 841 849
299 4 848 841 849
300 5 817 818 819
301 3 223 224 225
302 1 223 224 226
303 3 225 224 226
304 1 292 293 294
305 1 222 223 224
306 3 133 134 135
307 1 133 134 136
308 3 135 134 136
309 3 33 34 35
310 1 33 34 36
311 3 35 34 36
312 5 603 605 606
313 1 71 76 74
314 1 22 23 24
315 1 131 136 134
316 2 818 817 823
317 2 818 817 824
318 2 818 817 825
319 4 823 817 824
320 4 823 817 825
321 4 824 817 825
322 3 818 819 820
323 6 818 819 821
324 3 820 819 821
325 1 142 143 144
326 1 142 141 146
327 2 142 141 147
328 2 142 141 148
329 2 146 141 147
330 2 146 141 148
331 4 147 141 148
332 1 221 226 224
333 5 601 602 603
334 1 222 221 226
335 2 222 221 227
336 2 222 221 228
337 2 226 221 227
338 2 226 221 228
339 4 227 221 228
340 3 143 144 145
341 1 143 144 146
342 3 145 144 146
343 3 602 603 604
344 6 602 603 605
345 3 604 603 605
346 5 757 758 759
347 2 821 822 826
348 2 821 822 827
349 2 821 822 828
350 4 826 822 827
351 4 826 822 828
352 4 827 822 828
353 3 293 294 295
354 1 293 294 296
355 3 295 294 296
356 2 758 757 763
357 2 758 757 764
358 2 758 757 765
359 4 763 757 764
360 4 763 757 765
361 4 764 757 765
362 1 21 26 24
363 1 141 142 143
364 2 141 142 149
365 2 141 142 150
366 2 143 142 149
367 2 143 142 150
368 4 149 142 150
369 1 221 222 223
370 2 221 222 229
371 2 221 222 230
372 2 223 222 229
373 2 223 222 230
374 4 229 222 230
375 2 605 606 610
376 2 605 606 611
377 2 605 606 612
378 4 610 606 611
379 4 610 606 612
380 4 611 606 612
381 5 819 821 822
382 2 530 529 535
383 2 530 529 536
384 2 530 529 537
385 4 535 529 536
386 4 535 529 537
387 4 536 529 537
388 5 759 761 762
389 1 132 133 134
390 3 23 24 25
391 1 23 24 26
392 3 25 24 26
393 2 761 762 766
394 2 761 762 767
395 2 761 762 768
396 4 766 762 767
397 4 766 762 768
398 4 767 762 768
399 3 758 759 760
400 6 758 759 761
401 3 760 759 761
402 1 121 122 123
403 2 121 122 129
404 2 121 122 130
405 2 123 122 129
406 2 123 122 130
407 4 129 122 130
408 1 122 123 124
409 2 506 505 511
410 2 506 505 512
411 2 506 505 513
412 4 511 505 512
413 4 511 505 513
414 4 512 505 513
415 5 435 437 438
416 1 242 241 246
417 2 242 241 247
418 2 242 241 248
419 2 246 241 247
420 2 246 241 248
421 4 247 241 248
422 3 962 963 964
423 6 962 963 965
424 3 964 963 965
425 5 963 965 966
426 2 965 966 970
427 2 965 966 971
428 2 965 966 972
429 4 970 966 971
430 4 970 966 972
431 4 971 966 972
432 3 662 663 664
433 6 662 663 665
434 3 664 663 665
435 3 283 284 285
436 1 283 284 286
437 3 285 284 286
438 2 422 421 427
439 2 422 421 428
440 2 422 421 429
441 4 427 421 428
442 4 427 421 429
443 4 428 421 429
444 1 111 112 113
445 2 111 112 119
446 2 111 112 120
447 2 113 112 119
448 2 113 112 120
449 4 119 112 120
450 5 421 422 423
451 3 422 423 424
452 6 422 423 425
453 3 424 423 425
454 5 423 425 426
455 1 112 113 114
456 1 112 111 116
457 2 112 111 117
458 2 112 111 118
459 2 116 111 117
460 2 116 111 118
461 4 117 111 118
462 1 282 283 284
463 2 662 661 667
464 2 662 661 668
465 2 662 661 669
466 4 667 661 668
467 4 667 661 669
468 4 668 661 669
469 1 281 286 284
470 5 961 962 963
471 2 962 961 967
472 2 962 961 968
473 2 962 961 969
474 4 967 961 968
475 4 967 961 969
476 4 968 961 969
477 5 661 662 663
478 1 111 116 114
479 2 665 666 670
480 2 665 666 671
481 2 665 666 672
482 4 670 666 671
483 4 670 666 672
484 4 671 666 672
485 5 663 665 666
486 2 713 714 718
487 2 713 714 719
488 2 713 714 720
489 4 718 714 719
490 4 718 714 720
491 4 719 714 720
492 3 710 711 712
493 6 710 711 713
494 3 712 711 713
495 5 711 713 714
496 3 113 114 115
497 1 113 114 116
498 3 115 114 116
499 1 81 82 83
500 2 81 82 89
501 2 81 82 90
502 2 83 82 89
503 2 83 82 90
504 4 89 82 90
505 2 326 325 331
506 2 326 325 332
507 2 326 325 333
508 4 331 325 332
509 4 331 325 333
510 4 332 325 333
511 7 1005 1006 1007
512 7 1005 1006 1008
513 7 1005 1006 1009
514 7 1007 1006 1008
515 7 1007 1006 1009
516 7 1008 1006 1009
517 2 545 546 550
518 2 545 546 551
519 2 545 546 552
520 4 550 546 551
521 4 550 546 552
522 4 551 546 552
523 7 985 986 987
524 7 985 986 988
525 7 985 986 989
526 7 987 986 988
527 7 987 986 989
528 7 988 986 989
529 2 425 426 430
530 2 425 426 431
531 2 425 426 432
532 4 430 426 431
533 4 430 426 432
534 4 431 426 432
535 2 710 709 715
536 2 710 709 716
537 2 710 709 717
538 4 715 709 716
539 4 715 709 717
540 4 716 709 717
541 5 375 377 378
542 5 709 710 711
543 5 913 914 915
544 1 82 83 84
545 5 877 878 879
546 3 326 327 328
547 6 326 327 329
548 3 328 327 329
549 2 881 882 886
550 2 881 882 887
551 2 881 882 888
552 4 886 882 887
553 4 886 882 888
554 4 887 882 888
555 3 83 84 85
556 1 83 84 86
557 3 85 84 86
558 2 437 438 442
559 2 437 438 443
560 2 437 438 444
561 4 442 438 443
562 4 442 438 444
563 4 443 438 444
564 1 192 191 196
565 2 192 191 197
566 2 192 191 198
567 2 196 191 197
568 2 196 191 198
569 4 197 191 198
570 1 191 192 193
571 2 191 192 199
572 2 191 192 200
573 2 193 192 199
574 2 193 192 200
575 4 199 192 200
576 1 232 231 236
577 2 232 231 237
578 2 232 231 238
579 2 236 231 237
580 2 236 231 238
581 4 237 231 238
582 1 212 213 214
583 1 191 196 194
584 1 211 212 213
585 2 211 212 219
586 2 211 212 220
587 2 213 212 219
588 2 213 212 220
589 4 219 212 220
590 3 233 234 235
591 1 233 234 236
592 3 235 234 236
593 1 212 211 216
594 2 212 211 217
595 2 212 211 218
596 2 216 211 217
597 2 216 211 218
598 4 217 211 218
599 3 213 214 215
600 1 213 214 216
601 3 215 214 216
602 3 193 194 195
603 1 193 194 196
604 3 195 194 196
605 1 192 193 194
606 7 995 996 997
607 7 995 996 998
608 7 995 996 999
609 7 997 996 998
610 7 997 996 999
611 7 998 996 999
612 2 557 558 562
613 2 557 558 563
614 2 557 558 564
615 4 562 558 563
616 4 562 558 564
617 4 563 558 564
618 5 555 557 558
619 2 914 913 919
620 2 914 913 920
621 2 914 913 921
622 4 919 913 920
623 4 919 913 921
624 4 920 913 921
625 1 211 216 214
626 1 232 233 234
627 1 231 232 233
628 2 231 232 239
629 2 231 232 240
630 2 233 232 239
631 2 233 232 240
632 4 239 232 240
633 1 72 73 74
634 2 329 330 334
635 2 329 330 335
636 2 329 330 336
637 4 334 330 335
638 4 334 330 336
639 4 335 330 336
640 1 201 202 203
641 2 201 202 209
642 2 201 202 210
643 2 203 202 209
644 2 203 202 210
645 4 209 202 210
646 1 71 72 73
647 2 71 72 79
648 2 71 72 80
649 2 73 72 79
650 2 73 72 80
651 4 79 72 80
652 5 879 881 882
653 3 614 615 616
654 6 614 615 617
655 3 616 615 617
656 1 231 236 234
657 1 202 201 206
658 2 202 201 207
659 2 202 201 208
660 2 206 201 207
661 2 206 201 208
662 4 207 201 208
663 5 613 614 615
664 2 614 613 619
665 2 614 613 620
666 2 614 613 621
667 4 619 613 620
668 4 619 613 621
669 4 620 613 621
670 5 615 617 618
671 1 42 43 44
672 5 903 905 906
673 5 373 374 375
674 3 578 579 580
675 6 578 579 581
676 3 580 579 581
677 5 505 506 507
678 2 374 373 379
679 2 374 373 380
680 2 374 373 381
681 4 379 373 380
682 4 379 373 381
683 4 380 373 381
684 3 506 507 508
685 6 506 507 509
686 3 508 507 509
687 2 878 877 883
688 2 878 877 884
689 2 878 877 885
690 4 883 877 884
691 4 883 877 885
692 4 884 877 885
693 5 579 581 582
694 1 181 186 184
695 1 281 282 283
696 2 281 282 289
697 2 281 282 290
698 2 283 282 289
699 2 283 282 290
700 4 289 282 290
701 5 507 509 510
702 2 902 901 907
703 2 902 901 908
704 2 902 901 909
705 4 907 901 908
706 4 907 901 909
707 4 908 901 909
708 3 374 375 376
709 6 374 375 377
710 3 376 375 377
711 1 41 42 43
712 2 41 42 49
713 2 41 42 50
714 2 43 42 49
715 2 43 42 50
716 4 49 42 50
717 2 578 577 583
718 2 578 577 584
719 2 578 577 585
720 4 583 577 584
721 4 583 577 585
722 4 584 577 585
723 1 72 71 76
724 2 72 71 77
725 2 72 71 78
726 2 76 71 77
727 2 76 71 78
728 4 77 71 78
729 1 282 281 286
730 2 282 281 287
731 2 282 281 288
732 2 286 281 287
733 2 286 281 288
734 4 287 281 288
735 5 637 638 639
736 3 554 555 556
737 6 554 555 557
738 3 556 555 557
739 3 43 44 45
740 1 43 44 46
741 3 45 44 46
742 2 509 510 514
743 2 509 510 515
744 2 509 510 516
745 4 514 510 515
746 4 514 510 516
747 4 515 510 516
748 2 554 553 559
749 2 554 553 560
750 2 554 553 561
751 4 559 553 560
752 4 559 553 561
753 4 560 553 561
754 3 878 879 880
755 6 878 879 881
756 3 880 879 881
757 5 553 554 555
758 2 905 906 910
759 2 905 906 911
760 2 905 906 912
761 4 910 906 911
762 4 910 906 912
763 4 911 906 912
764 2 581 582 586
765 2 581 582 587
766 2 581 582 588
767 4 586 582 587
768 4 586 582 588
769 4 587 582 588
770 1 41 46 44
771 5 901 902 903
772 1 42 41 46
773 2 42 41 47
774 2 42 41 48
775 2 46 41 47
776 2 46 41 48
777 4 47 41 48
778 5 577 578 579
779 3 902 903 904
780 6 902 903 905
781 3 904 903 905
782 2 638 637 643
783 2 638 637 644
784 2 638 637 645
785 4 643 637 644
786 4 643 637 645
787 4 644 637 645
788 5 891 893 894
789 3 890 891 892
790 6 890 891 893
791 3 892 891 893
792 5 889 890 891
793 2 890 889 895
794 2 890 889 896
795 2 890 889 897
796 4 895 889 896
797 4 895 889 897
798 4 896 889 897
799 3 938 939 940
800 6 938 939 941
801 3 940 939 941
802 3 386 387 388
803 6 386 387 389
804 3 388 387 389
805 2 386 385 391
806 2 386 385 392
807 2 386 385 393
808 4 391 385 392
809 4 391 385 393
810 4 392 385 393
811 2 938 937 943
812 2 938 937 944
813 2 938 937 945
814 4 943 937 944
815 4 943 937 945
816 4 944 937 945
817 1 161 166 164
818 1 162 161 166
819 2 162 161 167
820 2 162 161 168
821 2 166 161 167
822 2 166 161 168
823 4 167 161 168
824 5 937 938 939
825 5 769 770 771
826 2 770 769 775
827 2 770 769 776
828 2 770 769 777
829 4 775 769 776
830 4 775 769 777
831 4 776 769 777
832 3 163 164 165
833 1 163 164 166
834 3 165 164 166
835 2 893 894 898
836 2 893 894 899
837 2 893 894 900
838 4 898 894 899
839 4 898 894 900
840 4 899 894 900
841 1 161 162 163
842 2 161 162 169
843 2 161 162 170
844 2 163 162 169
845 2 163 162 170
846 4 169 162 170
847 1 162 163 164
848 2 833 834 838
849 2 833 834 839
850 2 833 834 840
851 4 838 834 839
852 4 838 834 840
853 4 839 834 840
854 5 385 386 387
855 5 387 389 390
856 5 397 398 399
857 2 389 390 394
858 2 389 390 395
859 2 389 390 396
860 4 394 390 395
861 4 394 390 396
862 4 395 390 396
863 1 172 173 174
864 2 797 798 802
865 2 797 798 803
866 2 797 798 804
867 4 802 798 803
868 4 802 798 804
869 4 803 798 804
870 2 398 397 403
871 2 398 397 404
872 2 398 397 405
873 4 403 397 404
874 4 403 397 405
875 4 404 397 405
876 3 410 411 412
877 6 410 411 413
878 3 412 411 413
879 2 410 409 415
880 2 410 409 416
881 2 410 409 417
882 4 415 409 416
883 4 415 409 417
884 4 416 409 417
885 5 409 410 411
886 5 831 833 834
887 2 641 642 646
888 2 641 642 647
889 2 641 642 648
890 4 646 642 647
891 4 646 642 648
892 4 647 642 648
893 2 413 414 418
894 2 413 414 419
895 2 413 414 420
896 4 418 414 419
897 4 418 414 420
898 4 419 414 420
899 3 398 399 400
900 6 398 399 401
901 3 400 399 401
902 1 171 172 173
903 2 171 172 179
904 2 171 172 180
905 2 173 172 179
906 2 173 172 180
907 4 179 172 180
908 5 939 941 942
909 5 795 797 798
910 1 261 262 263
911 2 261 262 269
912 2 261 262 270
913 2 263 262 269
914 2 263 262 270
915 4 269 262 270
916 3 794 795 796
917 6 794 795 797
918 3 796 795 797
919 5 793 794 795
920 2 674 673 679
921 2 674 673 680
922 2 674 673 681
923 4 679 673 680
924 4 679 673 681
925 4 680 673 681
926 2 677 678 682
927 2 677 678 683
928 2 677 678 684
929 4 682 678 683
930 4 682 678 684
931 4 683 678 684
932 3 173 174 175
933 1 173 174 176
934 3 175 174 176
935 2 518 517 523
936 2 518 517 524
937 2 518 517 525
938 4 523 517 524
939 4 523 517 525
940 4 524 517 525
941 2 533 534 538
942 2 533 534 539
943 2 533 534 540
944 4 538 534 539
945 4 538 534 540
946 4 539 534 540
947 2 689 690 694
948 2 689 690 695
949 2 689 690 696
950 4 694 690 695
951 4 694 690 696
952 4 695 690 696
953 5 517 518 519
954 3 518 519 520
955 6 518 519 521
956 3 520 519 521
957 3 263 264 265
958 1 263 264 266
959 3 265 264 266
960 5 675 677 678
961 5 519 521 522
962 1 172 171 176
963 2 172 171 177
964 2 172 171 178
965 2 176 171 177
966 2 176 171 178
967 4 177 171 178
968 1 171 176 174
969 5 687 689 690
970 2 686 685 691
971 2 686 685 692
972 2 686 685 693
973 4 691 685 692
974 4 691 685 693
975 4 692 685 693
976 5 745 746 747
977 3 686 687 688
978 6 686 687 689
979 3 688 687 689
980 3 746 747 748
981 6 746 747 749
982 3 748 747 749
983 2 749 750 754
984 2 749 750 755
985 2 749 750 756
986 4 754 750 755
987 4 754 750 756
988 4 755 750 756
989 5 747 749 750
990 2 494 493 499
991 2 494 493 500
992 2 494 493 501
993 4 499 493 500
994 4 499 493 501
995 4 500 493 501
996 5 493 494 495
997 3 494 495 496
998 6 494 495 497
999 3 496 495 497
1000 5 495 497 498
1001 5 685 686 687
1002 2 809 810 814
1003 2 809 810 815
1004 2 809 810 816
1005 4 814 810 815
1006 4 814 810 816
1007 4 815 810 816
1008 2 521 522 526
1009 2 521 522 527
1010 2 521 522 528
1011 4 526 522 527
1012 4 526 522 528
1013 4 527 522 528
1014 3 674 675 676
1015 6 674 675 677
1016 3 676 675 677
1017 3 830 831 832
1018 6 830 831 833
1019 3 832 831 833
1020 5 673 674 675
1021 5 651 653 654
1022 1 262 263 264
1023 2 653 654 658
1024 2 653 654 659
1025 2 653 654 660
1026 4 658 654 659
1027 4 658 654 660
1028 4 659 654 660
1029 5 649 650 651
1030 3 650 651 652
1031 6 650 651 653
1032 3 652 651 653
1033 2 497 498 502
1034 2 497 498 503
1035 2 497 498 504
1036 4 502 498 503
1037 4 502 498 504
1038 4 503 498 504
1039 3 770 771 772
1040 6 770 771 773
1041 3 772 771 773
1042 5 481 482 483
1043 5 805 806 807
1044 2 746 745 751
1045 2 746 745 752
1046 2 746 745 753
1047 4 751 745 752
1048 4 751 745 753
1049 4 752 745 753
1050 5 339 341 342
1051 5 411 413 414
1052 5 723 725 726
1053 1 131 132 133
1054 2 131 132 139
1055 2 131 132 140
1056 2 133 132 139
1057 2 133 132 140
1058 4 139 132 140
1059 3 722 723 724
1060 6 722 723 725
1061 3 724 723 725
1062 5 807 809 810
1063 5 337 338 339
1064 2 773 774 778
1065 2 773 774 779
1066 2 773 774 780
1067 4 778 774 779
1068 4 778 774 780
1069 4 779 774 780
1070 5 771 773 774
1071 5 531 533 534
1072 5 721 722 723
1073 2 338 337 343
1074 2 338 337 344
1075 2 338 337 345
1076 4 343 337 344
1077 4 343 337 345
1078 4 344 337 345
1079 2 482 481 487
1080 2 482 481 488
1081 2 482 481 489
1082 4 487 481 488
1083 4 487 481 489
1084 4 488 481 489
1085 2 341 342 346
1086 2 341 342 347
1087 2 341 342 348
1088 4 346 342 347
1089 4 346 342 348
1090 4 347 342 348
1091 3 253 254 255
1092 1 253 254 256
1093 3 255 254 256
1094 2 725 726 730
1095 2 725 726 731
1096 2 725 726 732
1097 4 730 726 731
1098 4 730 726 732
1099 4 731 726 732
1100 2 650 649 655
1101 2 650 649 656
1102 2 650 649 657
1103 4 655 649 656
1104 4 655 649 657
1105 4 656 649 657
1106 2 794 793 799
1107 2 794 793 800
1108 2 794 793 801
1109 4 799 793 800
1110 4 799 793 801
1111 4 800 793 801
1112 3 338 339 340
1113 6 338 339 341
1114 3 340 339 341
1115 1 251 256 254
1116 3 806 807 808
1117 6 806 807 809
1118 3 808 807 809
1119 3 530 531 532
1120 6 530 531 533
1121 3 532 531 533
1122 2 806 805 811
1123 2 806 805 812
1124 2 806 805 813
1125 4 811 805 812
1126 4 811 805 813
1127 4 812 805 813
1128 3 273 274 275
1129 1 273 274 276
1130 3 275 274 276
1131 1 272 271 276
1132 2 272 271 277
1133 2 272 271 278
1134 2 276 271 277
1135 2 276 271 278
1136 4 277 271 278
1137 1 271 276 274
1138 1 272 273 274
1139 1 271 272 273
1140 2 271 272 279
1141 2 271 272 280
1142 2 273 272 279
1143 2 273 272 280
1144 4 279 272 280
1145 2 305 306 310
1146 2 305 306 311
1147 2 305 306 312
1148 4 310 306 311
1149 4 310 306 312
1150 4 311 306 312
1151 1 2 1 6
1152 2 2 1 7
1153 2 2 1 8
1154 2 6 1 7
1155 2 6 1 8
1156 4 7 1 8
1157 1 1 6 4
1158 3 3 4 5
1159 1 3 4 6
1160 3 5 4 6
1161 1 1 2 3
1162 2 1 2 9
1163 2 1 2 10
1164 2 3 2 9
1165 2 3 2 10
1166 4 9 2 10
1167 5 625 626 627
1168 2 737 738 742
1169 2 737 738 743
1170 2 737 738 744
1171 4 742 738 743
1172 4 742 738 744
1173 4 743 738 744
1174 1 2 3 4
1175 3 446 447 448
1176 6 446 447 449
1177 3 448 447 449
1178 2 473 474 478
1179 2 473 474 479
1180 2 473 474 480
1181 4 478 474 479
1182 4 478 474 480
1183 4 479 474 480
1184 5 447 449 450
1185 5 303 305 306
1186 3 734 735 736
1187 6 734 735 737
1188 3 736 735 737
1189 2 353 354 358
1190 2 353 354 359
1191 2 353 354 360
1192 4 358 354 359
1193 4 358 354 360
1194 4 359 354 360
1195 3 350 351 352
1196 6 350 351 353
1197 3 352 351 353
1198 5 351 353 354
1199 5 735 737 738
1200 2 449 450 454
1201 2 449 450 455
1202 2 449 450 456
1203 4 454 450 455
1204 4 454 450 456
1205 4 455 450 456
1206 5 349 350 351
1207 2 350 349 355
1208 2 350 349 356
1209 2 350 349 357
1210 4 355 349 356
1211 4 355 349 357
1212 4 356 349 357
1213 5 471 473 474
1214 3 470 471 472
1215 6 470 471 473
1216 3 472 471 473
1217 7 990 991 992
1218 7 990 991 993
1219 7 990 991 994
1220 7 992 991 993
1221 7 992 991 994
1222 7 993 991 994
1223 5 627 629 630
1224 3 626 627 628
1225 6 626 627 629
1226 3 628 627 629
1227 2 629 630 634
1228 2 629 630 635
1229 2 629 630 636
1230 4 634 630 635
1231 4 634 630 636
1232 4 635 630 636
1233 2 365 366 370
1234 2 365 366 371
1235 2 365 366 372
1236 4 370 366 371
1237 4 370 366 372
1238 4 371 366 372
1239 1 92 93 94
1240 1 81 86 84
1241 1 82 81 86
1242 2 82 81 87
1243 2 82 81 88
1244 2 86 81 87
1245 2 86 81 88
1246 4 87 81 88
1247 5 733 734 735
1248 3 302 303 304
1249 6 302 303 305
1250 3 304 303 305
1251 3 93 94 95
1252 1 93 94 96
1253 3 95 94 96
1254 2 734 733 739
1255 2 734 733 740
1256 2 734 733 741
1257 4 739 733 740
1258 4 739 733 741
1259 4 740 733 741
1260 5 483 485 486
1261 5 589 590 591
1262 2 485 486 490
1263 2 485 486 491
1264 2 485 486 492
1265 4 490 486 491
1266 4 490 486 492
1267 4 491 486 492
1268 2 929 930 934
1269 2 929 930 935
1270 2 929 930 936
1271 4 934 930 935
1272 4 934 930 936
1273 4 935 930 936
1274 2 362 361 367
1275 2 362 361 368
1276 2 362 361 369
1277 4 367 361 368
1278 4 367 361 369
1279 4 368 361 369
1280 1 252 253 254
1281 5 361 362 363
1282 1 202 203 204
1283 5 363 365 366
1284 1 91 96 94
1285 5 783 785 786
1286 2 569 570 574
1287 2 569 570 575
1288 2 569 570 576
1289 4 574 570 575
1290 4 574 570 576
1291 4 575 570 576
1292 5 301 302 303
1293 1 91 92 93
1294 2 91 92 99
1295 2 91 92 100
1296 2 93 92 99
1297 2 93 92 100
1298 4 99 92 100
1299 1 92 91 96
1300 2 92 91 97
1301 2 92 91 98
1302 2 96 91 97
1303 2 96 91 98
1304 4 97 91 98
1305 2 782 781 787
1306 2 782 781 788
1307 2 782 781 789
1308 4 787 781 788
1309 4 787 781 789
1310 4 788 781 789
1311 2 701 702 706
1312 2 701 702 707
1313 2 701 702 708
1314 4 706 702 707
1315 4 706 702 708
1316 4 707 702 708
1317 3 566 567 568
1318 6 566 567 569
1319 3 568 567 569
1320 5 565 566 567
1321 3 203 204 205
1322 1 203 204 206
1323 3 205 204 206
1324 1 201 206 204
1325 3 782 783 784
1326 6 782 783 785
1327 3 784 783 785
1328 5 567 569 570
1329 5 949 950 951
1330 2 302 301 307
1331 2 302 301 308
1332 2 302 301 309
1333 4 307 301 308
1334 4 307 301 309
1335 4 308 301 309
1336 5 951 953 954
1337 3 950 951 952
1338 6 950 951 953
1339 3 952 951 953
1340 5 781 782 783
1341 2 953 954 958
1342 2 953 954 959
1343 2 953 954 960
1344 4 958 954 959
1345 4 958 954 960
1346 4 959 954 960
1347 2 377 378 382
1348 2 377 378 383
1349 2 377 378 384
1350 4 382 378 383
1351 4 382 378 384
1352 4 383 378 384
1353 3 362 363 364
1354 6 362 363 365
1355 3 364 363 365
1356 5 591 593 594
1357 2 314 313 319
1358 2 314 313 320
1359 2 314 313 321
1360 4 319 313 320
1361 4 319 313 321
1362 4 320 313 321
1363 2 785 786 790
1364 2 785 786 791
1365 2 785 786 792
1366 4 790 786 791
1367 4 790 786 792
1368 4 791 786 792
1369 1 151 156 154
1370 3 590 591 592
1371 6 590 591 593
1372 3 592 591 593
1373 5 313 314 315
1374 2 566 565 571
1375 2 566 565 572
1376 2 566 565 573
1377 4 571 565 572
1378 4 571 565 573
1379 4 572 565 573
1380 1 251 252 253
1381 2 251 252 259
1382 2 251 252 260
1383 2 253 252 259
1384 2 253 252 260
1385 4 259 252 260
1386 5 327 329 330
1387 2 950 949 955
1388 2 950 949 956
1389 2 950 949 957
1390 4 955 949 956
1391 4 955 949 957
1392 4 956 949 957
1393 5 445 446 447
1394 2 446 445 451
1395 2 446 445 452
1396 2 446 445 453
1397 4 451 445 452
1398 4 451 445 453
1399 4 452 445 453
1400 3 698 699 700
1401 6 698 699 701
1402 3 700 699 701
1403 5 469 470 471
1404 2 698 697 703
1405 2 698 697 704
1406 2 698 697 705
1407 4 703 697 704
1408 4 703 697 705
1409 4 704 697 705
1410 2 626 625 631
1411 2 626 625 632
1412 2 626 625 633
1413 4 631 625 632
1414 4 631 625 633
1415 4 632 625 633
1416 2 461 462 466
1417 2 461 462 467
1418 2 461 462 468
1419 4 466 462 467
1420 4 466 462 468
1421 4 467 462 468
1422 1 252 251 256
1423 2 252 251 257
1424 2 252 251 258
1425 2 256 251 257
1426 2 256 251 258
1427 4 257 251 258
1428 3 482 483 484
1429 6 482 483 485
1430 3 484 483 485
1431 3 638 639 640
1432 6 638 639 641
1433 3 640 639 641
1434 5 699 701 702
1435 3 314 315 316
1436 6 314 315 317
1437 3 316 315 317
1438 2 593 594 598
1439 2 593 594 599
1440 2 593 594 600
1441 4 598 594 599
1442 4 598 594 600
1443 4 599 594 600
1444 7 1010 1011 1012
1445 7 1010 1011 1013
1446 7 1010 1011 1014
1447 7 1012 1011 1013
1448 7 1012 1011 1014
1449 7 1013 1011 1014
1450 1 152 151 156
1451 2 152 151 157
1452 2 152 151 158
1453 2 156 151 157
1454 2 156 151 158
1455 4 157 151 158
1456 5 457 458 459
1457 5 697 698 699
1458 3 153 154 155
1459 1 153 154 156
1460 3 155 154 156
1461 5 639 641 642
1462 1 151 152 153
1463 2 151 152 159
1464 2 151 152 160
1465 2 153 152 159
1466 2 153 152 160
1467 4 159 152 160
1468 2 458 457 463
1469 2 458 457 464
1470 2 458 457 465
1471 4 463 457 464
1472 4 463 457 465
1473 4 464 457 465
1474 3 458 459 460
1475 6 458 459 461
1476 3 460 459 461
1477 5 315 317 318
1478 7 980 981 982
1479 7 980 981 983
1480 7 980 981 984
1481 7 982 981 983
1482 7 982 981 984
1483 7 983 981 984
1484 1 152 153 154
1485 2 317 318 322
1486 2 317 318 323
1487 2 317 318 324
1488 4 322 318 323
1489 4 322 318 324
1490 4 323 318 324
1491 2 470 469 475
1492 2 470 469 476
1493 2 470 469 477
1494 4 475 469 476
1495 4 475 469 477
1496 4 476 469 477
1497 5 459 461 462
1498 2 590 589 595
1499 2 590 589 596
1500 2 590 589 597
1501 4 595 589 596
1502 4 595 589 597
1503 4 596 589 597
1504 5 325 326 327

Dihedrals

1 10 865 866 867 868
2 11 865 866 867 868
3 12 865 866 867 869
4 8 867 866 865 871
5 8 867 866 865 872
6 8 867 866 865 873
7 3 52 53 54 55
8 3 52 53 54 56
9 8 54 53 52 59
10 8 54 53 52 60
11 12 866 867 869 870
12 10 868 867 869 870
13 11 868 867 869 870
14 8 867 869 870 874
15 8 867 869 870 875
16 8 867 869 870 876
17 3 102 103 104 105
18 3 102 103 104 106
19 8 104 103 102 109
20 8 104 103 102 110
21 3 101 106 104 103
22 3 101 106 104 105
23 8 104 106 101 107
24 8 104 106 101 108
25 3 61 66 64 63
26 3 61 66 64 65
27 8 64 66 61 67
28 8 64 66 61 68
29 1 52 51 56 54
30 2 52 51 56 54
31 6 56 51 52 59
32 7 56 51 52 59
33 6 56 51 52 60
34 7 56 51 52 60
35 9 57 51 52 59
36 9 57 51 52 60
37 9 58 51 52 59
38 9 58 51 52 60
39 3 51 56 54 53
40 3 51 56 54 55
41 8 54 56 51 57
42 8 54 56 51 58
43 1 51 52 53 54
44 2 51 52 53 54
45 4 53 52 51 56
46 5 53 52 51 56
47 6 53 52 51 57
48 7 53 52 51 57
49 6 53 52 51 58
50 7 53 52 51 58
51 1 62 61 66 64
52 2 62 61 66 64
53 6 66 61 62 69
54 7 66 61 62 69
55 6 66 61 62 70
56 7 66 61 62 70
57 9 67 61 62 69
58 9 67 61 62 70
59 9 68 61 62 69
60 9 68 61 62 70
61 3 62 63 64 65
62 3 62 63 64 66
63 8 64 63 62 69
64 8 64 63 62 70
65 1 61 62 63 64
66 2 61 62 63 64
67 4 63 62 61 66
68 5 63 62 61 66
69 6 63 62 61 67
70 7 63 62 61 67
71 6 63 62 61 68
72 7 63 62 61 68
73 1 102 101 106 104
74 2 102 101 106 104
75 6 106 101 102 109
76 7 106 101 102 109
77 6 106 101 102 110
78 7 106 101 102 110
79 9 107 101 102 109
80 9 107 101 102 110
81 9 108 101 102 109
82 9 108 101 102 110
83 1 101 102 103 104
84 2 101 102 103 104
85 4 103 102 101 106
86 5 103 102 101 106
87 6 103 102 101 107
88 7 103 102 101 107
89 6 103 102 101 108
90 7 103 102 101 108
91 1 32 31 36 34
92 2 32 31 36 34
93 6 36 31 32 39
94 7 36 31 32 39
95 6 36 31 32 40
96 7 36 31 32 40
97 9 37 31 32 39
98 9 37 31 32 40
99 9 38 31 32 39
100 9 38 31 32 40
101 3 31 36 34 33
102 3 31 36 34 35
103 8 34 36 31 37
104 8 34 36 31 38
105 10 925 926 927 928
106 11 925 926 927 928
107 12 925 926 927 929
108 8 927 926 925 931
109 8 927 926 925 932
110 8 927 926 925 933
111 3 182 183 184 185
112 3 182 183 184 186
113 8 184 183 182 189
114 8 184 183 182 190
115 1 31 32 33 34
116 2 31 32 33 34
117 4 33 32 31 36
118 5 33 32 31 36
119 6 33 32 31 37
120 7 33 32 31 37
121 6 33 32 31 38
122 7 33 32 31 38
123 8 543 545 546 550
124 8 543 545 546 551
125 8 543 545 546 552
126 10 541 542 543 544
127 11 541 542 543 544
128 12 541 542 543 545
129 8 543 542 541 547
130 8 543 542 541 548
131 8 543 542 541 549
132 10 829 830 831 832
133 11 829 830 831 832
134 12 829 830 831 833
135 8 831 830 829 835
136 8 831 830 829 836
137 8 831 830 829 837
138 12 926 927 929 930
139 10 928 927 929 930
140 11 928 927 929 930
141 1 181 182 183 184
142 2 181 182 183 184
143 4 183 182 181 186
144 5 183 182 181 186
145 6 183 182 181 187
146 7 183 182 181 187
147 6 183 182 181 188
148 7 183 182 181 188
149 12 542 543 545 546
150 10 544 543 545 546
151 11 544 543 545 546
152 1 182 181 186 184
153 2 182 181 186 184
154 6 186 181 182 189
155 7 186 181 182 189
156 6 186 181 182 190
157 7 186 181 182 190
158 9 187 181 182 189
159 9 187 181 182 190
160 9 188 181 182 189
161 9 188 181 182 190
162 1 12 11 16 14
163 2 12 11 16 14
164 6 16 11 12 19
165 7 16 11 12 19
166 6 16 11 12 20
167 7 16 11 12 20
168 9 17 11 12 19
169 9 17 11 12 20
170 9 18 11 12 19
171 9 18 11 12 20
172 8 927 929 930 934
173 8 927 929 930 935
174 8 927 929 930 936
175 3 32 33 34 35
176 3 32 33 34 36
177 8 34 33 32 39
178 8 34 33 32 40
179 3 291 296 294 293
180 3 291 296 294 295
181 8 294 296 291 297
182 8 294 296 291 298
183 12 914 915 917 918
184 10 916 915 917 918
185 11 916 915 917 918
186 8 399 401 402 406
187 8 399 401 402 407
188 8 399 401 402 408
189 3 261 266 264 263
190 3 261 266 264 265
191 8 264 266 261 267
192 8 264 266 261 268
193 1 122 121 126 124
194 2 122 121 126 124
195 6 126 121 122 129
196 7 126 121 122 129
197 6 126 121 122 130
198 7 126 121 122 130
199 9 127 121 122 129
200 9 127 121 122 130
201 9 128 121 122 129
202 9 128 121 122 130
203 3 121 126 124 123
204 3 121 126 124 125
205 8 124 126 121 127
206 8 124 126 121 128
207 3 242 243 244 245
208 3 242 243 244 246
209 8 244 243 242 249
210 8 244 243 242 250
211 8 915 917 918 922
212 8 915 917 918 923
213 8 915 917 918 924
214 10 853 854 855 856
215 11 853 854 855 856
216 12 853 854 855 857
217 8 855 854 853 859
218 8 855 854 853 860
219 8 855 854 853 861
220 3 11 16 14 13
221 3 11 16 14 15
222 8 14 16 11 17
223 8 14 16 11 18
224 8 855 857 858 862
225 8 855 857 858 863
226 8 855 857 858 864
227 12 854 855 857 858
228 10 856 855 857 858
229 11 856 855 857 858
230 12 842 843 845 846
231 10 844 843 845 846
232 11 844 843 845 846
233 8 843 845 846 850
234 8 843 845 846 851
235 8 843 845 846 852
236 3 12 13 14 15
237 3 12 13 14 16
238 8 14 13 12 19
239 8 14 13 12 20
240 1 11 12 13 14
241 2 11 12 13 14
242 4 13 12 11 16
243 5 13 12 11 16
244 6 13 12 11 17
245 7 13 12 11 17
246 6 13 12 11 18
247 7 13 12 11 18
248 3 241 246 244 243
249 3 241 246 244 245
250 8 244 246 241 247
251 8 244 246 241 248
252 1 262 261 266 264
253 2 262 261 266 264
254 6 266 261 262 269
255 7 266 261 262 269
256 6 266 261 262 270
257 7 266 261 262 270
258 9 267 261 262 269
259 9 267 261 262 270
260 9 268 261 262 269
261 9 268 261 262 270
262 1 21 22 23 24
263 2 21 22 23 24
264 4 23 22 21 26
265 5 23 22 21 26
266 6 23 22 21 27
267 7 23 22 21 27
268 6 23 22 21 28
269 7 23 22 21 28
270 1 291 292 293 294
271 2 291 292 293 294
272 4 293 292 291 296
273 5 293 292 291 296
274 6 293 292 291 297
275 7 293 292 291 297
276 6 293 292 291 298
277 7 293 292 291 298
278 10 841 842 843 844
279 11 841 842 843 844
280 12 841 842 843 845
281 8 843 842 841 847
282 8 843 842 841 848
283 8 843 842 841 849
284 12 434 435 437 438
285 10 436 435 437 438
286 11 436 435 437 438
287 1 241 242 243 244
288 2 241 242 243 244
289 4 243 242 241 246
290 5 243 242 241 246
291 6 243 242 241 247
292 7 243 242 241 247
293 6 243 242 241 248
294 7 243 242 241 248
295 1 22 21 26 24
296 2 22 21 26 24
297 6 26 21 22 29
298 7 26 21 22 29
299 6 26 21 22 30
300 7 26 21 22 30
301 9 27 21 22 29
302 9 27 21 22 30
303 9 28 21 22 29
304 9 28 21 22 30
305 10 433 434 435 436
306 11 433 434 435 436
307 12 433 434 435 437
308 8 435 434 433 439
309 8 435 434 433 440
310 8 435 434 433 441
311 3 141 146 144 143
312 3 141 146 144 145
313 8 144 146 141 147
314 8 144 146 141 148
315 10 529 530 531 532
316 11 529 530 531 532
317 12 529 530 531 533
318 8 531 530 529 535
319 8 531 530 529 536
320 8 531 530 529 537
321 1 132 131 136 134
322 2 132 131 136 134
323 6 136 131 132 139
324 7 136 131 132 139
325 6 136 131 132 140
326 7 136 131 132 140
327 9 137 131 132 139
328 9 137 131 132 140
329 9 138 131 132 139
330 9 138 131 132 140
331 1 292 291 296 294
332 2 292 291 296 294
333 6 296 291 292 299
334 7 296 291 292 299
335 6 296 291 292 300
336 7 296 291 292 300
337 9 297 291 292 299
338 9 297 291 292 300
339 9 298 291 292 299
340 9 298 291 292 300
341 10 817 818 819 820
342 11 817 818 819 820
343 12 817 818 819 821
344 8 819 818 817 823
345 8 819 818 817 824
346 8 819 818 817 825
347 3 292 293 294 295
348 3 292 293 294 296
349 8 294 293 292 299
350 8 294 293 292 300
351 3 222 223 224 225
352 3 222 223 224 226
353 8 224 223 222 229
354 8 224 223 222 230
355 8 603 605 606 610
356 8 603 605 606 611
357 8 603 605 606 612
358 3 71 76 74 73
359 3 71 76 74 75
360 8 74 76 71 77
361 8 74 76 71 78
362 3 22 23 24 25
363 3 22 23 24 26
364 8 24 23 22 29
365 8 24 23 22 30
366 3 131 136 134 133
367 3 131 136 134 135
368 8 134 136 131 137
369 8 134 136 131 138
370 12 818 819 821 822
371 10 820 819 821 822
372 11 820 819 821 822
373 3 142 143 144 145
374 3 142 143 144 146
375 8 144 143 142 149
376 8 144 143 142 150
377 1 142 141 146 144
378 2 142 141 146 144
379 6 146 141 142 149
380 7 146 141 142 149
381 6 146 141 142 150
382 7 146 141 142 150
383 9 147 141 142 149
384 9 147 141 142 150
385 9 148 141 142 149
386 9 148 141 142 150
387 3 221 226 224 223
388 3 221 226 224 225
389 8 224 226 221 227
390 8 224 226 221 228
391 10 601 602 603 604
392 11 601 602 603 604
393 12 601 602 603 605
394 8 603 602 601 607
395 8 603 602 601 608
396 8 603 602 601 609
397 1 222 221 226 224
398 2 222 221 226 224
399 6 226 221 222 229
400 7 226 221 222 229
401 6 226 221 222 230
402 7 226 221 222 230
403 9 227 221 222 229
404 9 227 221 222 230
405 9 228 221 222 229
406 9 228 221 222 230
407 12 602 603 605 606
408 10 604 603 605 606
409 11 604 603 605 606
410 10 757 758 759 760
411 11 757 758 759 760
412 12 757 758 759 761
413 8 759 758 757 763
414 8 759 758 757 764
415 8 759 758 757 765
416 3 21 26 24 23
417 3 21 26 24 25
418 8 24 26 21 27
419 8 24 26 21 28
420 1 141 142 143 144
421 2 141 142 143 144
422 4 143 142 141 146
423 5 143 142 141 146
424 6 143 142 141 147
425 7 143 142 141 147
426 6 143 142 141 148
427 7 143 142 141 148
428 1 221 222 223 224
429 2 221 222 223 224
430 4 223 222 221 226
431 5 223 222 221 226
432 6 223 222 221 227
433 7 223 222 221 227
434 6 223 222 221 228
435 7 223 222 221 228
436 8 819 821 822 826
437 8 819 821 822 827
438 8 819 821 822 828
439 8 759 761 762 766
440 8 759 761 762 767
441 8 759 761 762 768
442 3 132 133 134 135
443 3 132 133 134 136
444 8 134 133 132 139
445 8 134 133 132 140
446 12 758 759 761 762
447 10 760 759 761 762
448 11 760 759 761 762
449 1 121 122 123 124
450 2 121 122 123 124
451 4 123 122 121 126
452 5 123 122 121 126
453 6 123 122 121 127
454 7 123 122 121 127
455 6 123 122 121 128
456 7 123 122 121 128
457 3 122 123 124 125
458 3 122 123 124 126
459 8 124 123 122 129
460 8 124 123 122 130
461 8 435 437 438 442
462 8 435 437 438 443
463 8 435 437 438 444
464 1 242 241 246 244
465 2 242 241 246 244
466 6 246 241 242 249
467 7 246 241 242 249
468 6 246 241 242 250
469 7 246 241 242 250
470 9 247 241 242 249
471 9 247 241 242 250
472 9 248 241 242 249
473 9 248 241 242 250
474 12 962 963 965 966
475 10 964 963 965 966
476 11 964 963 965 966
477 8 963 965 966 970
478 8 963 965 966 971
479 8 963 965 966 972
480 12 662 663 665 666
481 10 664 663 665 666
482 11 664 663 665 666
483 1 111 112 113 114
484 2 111 112 113 114
485 4 113 112 111 116
486 5 113 112 111 116
487 6 113 112 111 117
488 7 113 112 111 117
489 6 113 112 111 118
490 7 113 112 111 118
491 10 421 422 423 424
492 11 421 422 423 424
493 12 421 422 423 425
494 8 423 422 421 427
495 8 423 422 421 428
496 8 423 422 421 429
497 12 422 423 425 426
498 10 424 423 425 426
499 11 424 423 425 426
500 8 423 425 426 430
501 8 423 425 426 431
502 8 423 425 426 432
503 3 112 113 114 115
504 3 112 113 114 116
505 8 114 113 112 119
506 8 114 113 112 120
507 1 112 111 116 114
508 2 112 111 116 114
509 6 116 111 112 119
510 7 116 111 112 119
511 6 116 111 112 120
512 7 116 111 112 120
513 9 117 111 112 119
514 9 117 111 112 120
515 9 118 111 112 119
516 9 118 111 112 120
517 3 282 283 284 285
518 3 282 283 284 286
519 8 284 283 282 289
520 8 284 283 282 290
521 3 281 286 284 283
522 3 281 286 284 285
523 8 284 286 281 287
524 8 284 286 281 288
525 10 961 962 963 964
526 11 961 962 963 964
527 12 961 962 963 965
528 8 963 962 961 967
529 8 963 962 961 968
530 8 963 962 961 969
531 10 661 662 663 664
532 11 661 662 663 664
533 12 661 662 663 665
534 8 663 662 661 667
535 8 663 662 661 668
536 8 663 662 661 669
537 3 111 116 114 113
538 3 111 116 114 115
539 8 114 116 111 117
540 8 114 116 111 118
541 8 663 665 666 670
542 8 663 665 666 671
543 8 663 665 666 672
544 12 710 711 713 714
545 10 712 711 713 714
546 11 712 711 713 714
547 8 711 713 714 718
548 8 711 713 714 719
549 8 711 713 714 720
550 1 81 82 83 84
551 2 81 82 83 84
552 4 83 82 81 86
553 5 83 82 81 86
554 6 83 82 81 87
555 7 83 82 81 87
556 6 83 82 81 88
557 7 83 82 81 88
558 8 375 377 378 382
559 8 375 377 378 383
560 8 375 377 378 384
561 10 709 710 711 712
562 11 709 710 711 712
563 12 709 710 711 713
564 8 711 710 709 715
565 8 711 710 709 716
566 8 711 710 709 717
567 10 913 914 915 916
568 11 913 914 915 916
569 12 913 914 915 917
570 8 915 914 913 919
571 8 915 914 913 920
572 8 915 914 913 921
573 3 82 83 84 85
574 3 82 83 84 86
575 8 84 83 82 89
576 8 84 83 82 90
577 10 877 878 879 880
578 11 877 878 879 880
579 12 877 878 879 881
580 8 879 878 877 883
581 8 879 878 877 884
582 8 879 878 877 885
583 12 326 327 329 330
584 10 328 327 329 330
585 11 328 327 329 330
586 1 192 191 196 194
587 2 192 191 196 194
588 6 196 191 192 199
589 7 196 191 192 199
590 6 196 191 192 200
591 7 196 191 192 200
592 9 197 191 192 199
593 9 197 191 192 200
594 9 198 191 192 199
595 9 198 191 192 200
596 1 191 192 193 194
597 2 191 192 193 194
598 4 193 192 191 196
599 5 193 192 191 196
600 6 193 192 191 197
601 7 193 192 191 197
602 6 193 192 191 198
603 7 193 192 191 198
604 1 232 231 236 234
605 2 232 231 236 234
606 6 236 231 232 239
607 7 236 231 232 239
608 6 236 231 232 240
609 7 236 231 232 240
610 9 237 231 232 239
611 9 237 231 232 240
612 9 238 231 232 239
613 9 238 231 232 240
614 3 212 213 214 215
615 3 212 213 214 216
616 8 214 213 212 219
617 8 214 213 212 220
618 3 191 196 194 193
619 3 191 196 194 195
620 8 194 196 191 197
621 8 194 196 191 198
622 1 211 212 213 214
623 2 211 212 213 214
624 4 213 212 211 216
625 5 213 212 211 216
626 6 213 212 211 217
627 7 213 212 211 217
628 6 213 212 211 218
629 7 213 212 211 218
630 1 212 211 216 214
631 2 212 211 216 214
632 6 216 211 212 219
633 7 216 211 212 219
634 6 216 211 212 220
635 7 216 211 212 220
636 9 217 211 212 219
637 9 217 211 212 220
638 9 218 211 212 219
639 9 218 211 212 220
640 3 192 193 194 195
641 3 192 193 194 196
642 8 194 193 192 199
643 8 194 193 192 200
644 8 555 557 558 562
645 8 555 557 558 563
646 8 555 557 558 564
647 3 211 216 214 213
648 3 211 216 214 215
649 8 214 216 211 217
650 8 214 216 211 218
651 3 232 233 234 235
652 3 232 233 234 236
653 8 234 233 232 239
654 8 234 233 232 240
655 1 231 232 233 234
656 2 231 232 233 234
657 4 233 232 231 236
658 5 233 232 231 236
659 6 233 232 231 237
660 7 233 232 231 237
661 6 233 232 231 238
662 7 233 232 231 238
663 3 72 73 74 75
664 3 72 73 74 76
665 8 74 73 72 79
666 8 74 73 72 80
667 1 201 202 203 204
668 2 201 202 203 204
669 4 203 202 201 206
670 5 203 202 201 206
671 6 203 202 201 207
672 7 203 202 201 207
673 6 203 202 201 208
674 7 203 202 201 208
675 1 71 72 73 74
676 2 71 72 73 74
677 4 73 72 71 76
678 5 73 72 71 76
679 6 73 72 71 77
680 7 73 72 71 77
681 6 73 72 71 78
682 7 73 72 71 78
683 8 879 881 882 886
684 8 879 881 882 887
685 8 879 881 882 888
686 12 614 615 617 618
687 10 616 615 617 618
688 11 616 615 617 618
689 3 231 236 234 233
690 3 231 236 234 235
691 8 234 236 231 237
692 8 234 236 231 238
693 1 202 201 206 204
694 2 202 201 206 204
695 6 206 201 202 209
696 7 206 201 202 209
697 6 206 201 202 210
698 7 206 201 202 210
699 9 207 201 202 209
700 9 207 201 202 210
701 9 208 201 202 209
702 9 208 201 202 210
703 10 613 614 615 616
704 11 613 614 615 616
705 12 613 614 615 617
706 8 615 614 613 619
707 8 615 614 613 620
708 8 615 614 613 621
709 8 615 617 618 622
710 8 615 617 618 623
711 8 615 617 618 624
712 3 42 43 44 45
713 3 42 43 44 46
714 8 44 43 42 49
715 8 44 43 42 50
716 8 903 905 906 910
717 8 903 905 906 911
718 8 903 905 906 912
719 10 373 374 375 376
720 11 373 374 375 376
721 12 373 374 375 377
722 8 375 374 373 379
723 8 375 374 373 380
724 8 375 374 373 381
725 12 578 579 581 582
726 10 580 579 581 582
727 11 580 579 581 582
728 10 505 506 507 508
729 11 505 506 507 508
730 12 505 506 507 509
731 8 507 506 505 511
732 8 507 506 505 512
733 8 507 506 505 513
734 12 506 507 509 510
735 10 508 507 509 510
736 11 508 507 509 510
737 8 579 581 582 586
738 8 579 581 582 587
739 8 579 581 582 588
740 3 181 186 184 183
741 3 181 186 184 185
742 8 184 186 181 187
743 8 184 186 181 188
744 1 281 282 283 284
745 2 281 282 283 284
746 4 283 282 281 286
747 5 283 282 281 286
748 6 283 282 281 287
749 7 283 282 281 287
750 6 283 282 281 288
751 7 283 282 281 288
752 8 507 509 510 514
753 8 507 509 510 515
754 8 507 509 510 516
755 12 374 375 377 378
756 10 376 375 377 378
757 11 376 375 377 378
758 1 41 42 43 44
759 2 41 42 43 44
760 4 43 42 41 46
761 5 43 42 41 46
762 6 43 42 41 47
763 7 43 42 41 47
764 6 43 42 41 48
765 7 43 42 41 48
766 1 72 71 76 74
767 2 72 71 76 74
768 6 76 71 72 79
769 7 76 71 72 79
770 6 76 71 72 80
771 7 76 71 72 80
772 9 77 71 72 79
773 9 77 71 72 80
774 9 78 71 72 79
775 9 78 71 72 80
776 1 282 281 286 284
777 2 282 281 286 284
778 6 286 281 282 289
779 7 286 281 282 289
780 6 286 281 282 290
781 7 286 281 282 290
782 9 287 281 282 289
783 9 287 281 282 290
784 9 288 281 282 289
785 9 288 281 282 290
786 10 637 638 639 640
787 11 637 638 639 640
788 12 637 638 639 641
789 8 639 638 637 643
790 8 639 638 637 644
791 8 639 638 637 645
792 12 554 555 557 558
793 10 556 555 557 558
794 11 556 555 557 558
795 12 878 879 881 882
796 10 880 879 881 882
797 11 880 879 881 882
798 10 553 554 555 556
799 11 553 554 555 556
800 12 553 554 555 557
801 8 555 554 553 559
802 8 555 554 553 560
803 8 555 554 553 561
804 3 41 46 44 43
805 3 41 46 44 45
806 8 44 46 41 47
807 8 44 46 41 48
808 10 901 902 903 904
809 11 901 902 903 904
810 12 901 902 903 905
811 8 903 902 901 907
812 8 903 902 901 908
813 8 903 902 901 909
814 1 42 41 46 44
815 2 42 41 46 44
816 6 46 41 42 49
817 7 46 41 42 49
818 6 46 41 42 50
819 7 46 41 42 50
820 9 47 41 42 49
821 9 47 41 42 50
822 9 48 41 42 49
823 9 48 41 42 50
824 10 577 578 579 580
825 11 577 578 579 580
826 12 577 578 579 581
827 8 579 578 577 583
828 8 579 578 577 584
829 8 579 578 577 585
830 12 902 903 905 906
831 10 904 903 905 906
832 11 904 903 905 906
833 8 891 893 894 898
834 8 891 893 894 899
835 8 891 893 894 900
836 12 890 891 893 894
837 10 892 891 893 894
838 11 892 891 893 894
839 10 889 890 891 892
840 11 889 890 891 892
841 12 889 890 891 893
842 8 891 890 889 895
843 8 891 890 889 896
844 8 891 890 889 897
845 12 938 939 941 942
846 10 940 939 941 942
847 11 940 939 941 942
848 12 386 387 389 390
849 10 388 387 389 390
850 11 388 387 389 390
851 3 161 166 164 163
852 3 161 166 164 165
853 8 164 166 161 167
854 8 164 166 161 168
855 1 162 161 166 164
856 2 162 161 166 164
857 6 166 161 162 169
858 7 166 161 162 169
859 6 166 161 162 170
860 7 166 161 162 170
861 9 167 161 162 169
862 9 167 161 162 170
863 9 168 161 162 169
864 9 168 161 162 170
865 10 937 938 939 940
866 11 937 938 939 940
867 12 937 938 939 941
868 8 939 938 937 943
869 8 939 938 937 944
870 8 939 938 937 945
871 10 769 770 771 772
872 11 769 770 771 772
873 12 769 770 771 773
874 8 771 770 769 775
875 8 771 770 769 776
876 8 771 770 769 777
877 1 161 162 163 164
878 2 161 162 163 164
879 4 163 162 161 166
880 5 163 162 161 166
881 6 163 162 161 167
882 7 163 162 161 167
883 6 163 162 161 168
884 7 163 162 161 168
885 3 162 163 164 165
886 3 162 163 164 166
887 8 164 163 162 169
888 8 164 163 162 170
889 10 385 386 387 388
890 11 385 386 387 388
891 12 385 386 387 389
892 8 387 386 385 391
893 8 387 386 385 392
894 8 387 386 385 393
895 8 387 389 390 394
896 8 387 389 390 395
897 8 387 389 390 396
898 10 397 398 399 400
899 11 397 398 399 400
900 12 397 398 399 401
901 8 399 398 397 403
902 8 399 398 397 404
903 8 399 398 397 405
904 3 172 173 174 175
905 3 172 173 174 176
906 8 174 173 172 179
907 8 174 173 172 180
908 12 410 411 413 414
909 10 412 411 413 414
910 11 412 411 413 414
911 10 409 410 411 412
912 11 409 410 411 412
913 12 409 410 411 413
914 8 411 410 409 415
915 8 411 410 409 416
916 8 411 410 409 417
917 8 831 833 834 838
918 8 831 833 834 839
919 8 831 833 834 840
920 12 398 399 401 402
921 10 400 399 401 402
922 11 400 399 401 402
923 1 171 172 173 174
924 2 171 172 173 174
925 4 173 172 171 176
926 5 173 172 171 176
927 6 173 172 171 177
928 7 173 172 171 177
929 6 173 172 171 178
930 7 173 172 171 178
931 8 939 941 942 946
932 8 939 941 942 947
933 8 939 941 942 948
934 8 795 797 798 802
935 8 795 797 798 803
936 8 795 797 798 804
937 1 261 262 263 264
938 2 261 262 263 264
939 4 263 262 261 266
940 5 263 262 261 266
941 6 263 262 261 267
942 7 263 262 261 267
943 6 263 262 261 268
944 7 263 262 261 268
945 12 794 795 797 798
946 10 796 795 797 798
947 11 796 795 797 798
948 10 793 794 795 796
949 11 793 794 795 796
950 12 793 794 795 797
951 8 795 794 793 799
952 8 795 794 793 800
953 8 795 794 793 801
954 10 517 518 519 520
955 11 517 518 519 520
956 12 517 518 519 521
957 8 519 518 517 523
958 8 519 518 517 524
959 8 519 518 517 525
960 12 518 519 521 522
961 10 520 519 521 522
962 11 520 519 521 522
963 8 675 677 678 682
964 8 675 677 678 683
965 8 675 677 678 684
966 8 519 521 522 526
967 8 519 521 522 527
968 8 519 521 522 528
969 1 172 171 176 174
970 2 172 171 176 174
971 6 176 171 172 179
972 7 176 171 172 179
973 6 176 171 172 180
974 7 176 171 172 180
975 9 177 171 172 179
976 9 177 171 172 180
977 9 178 171 172 179
978 9 178 171 172 180
979 3 171 176 174 173
980 3 171 176 174 175
981 8 174 176 171 177
982 8 174 176 171 178
983 8 687 689 690 694
984 8 687 689 690 695
985 8 687 689 690 696
986 10 745 746 747 748
987 11 745 746 747 748
988 12 745 746 747 749
989 8 747 746 745 751
990 8 747 746 745 752
991 8 747 746 745 753
992 12 686 687 689 690
993 10 688 687 689 690
994 11 688 687 689 690
995 12 746 747 749 750
996 10 748 747 749 750
997 11 748 747 749 750
998 8 747 749 750 754
999 8 747 749 750 755
1000 8 747 749 750 756
1001 10 493 494 495 496
1002 11 493 494 495 496
1003 12 493 494 495 497
1004 8 495 494 493 499
1005 8 495 494 493 500
1006 8 495 494 493 501
1007 12 494 495 497 498
1008 10 496 495 497 498
1009 11 496 495 497 498
1010 8 495 497 498 502
1011 8 495 497 498 503
1012 8 495 497 498 504
1013 10 685 686 687 688
1014 11 685 686 687 688
1015 12 685 686 687 689
1016 8 687 686 685 691
1017 8 687 686 685 692
1018 8 687 686 685 693
1019 12 674 675 677 678
1020 10 676 675 677 678
1021 11 676 675 677 678
1022 12 830 831 833 834
1023 10 832 831 833 834
1024 11 832 831 833 834
1025 10 673 674 675 676
1026 11 673 674 675 676
1027 12 673 674 675 677
1028 8 675 674 673 679
1029 8 675 674 673 680
1030 8 675 674 673 681
1031 8 651 653 654 658
1032 8 651 653 654 659
1033 8 651 653 654 660
1034 3 262 263 264 265
1035 3 262 263 264 266
1036 8 264 263 262 269
1037 8 264 263 262 270
1038 10 649 650 651 652
1039 11 649 650 651 652
1040 12 649 650 651 653
1041 8 651 650 649 655
1042 8 651 650 649 656
1043 8 651 650 649 657
1044 12 650 651 653 654
1045 10 652 651 653 654
1046 11 652 651 653 654
1047 12 770 771 773 774
1048 10 772 771 773 774
1049 11 772 771 773 774
1050 10 481 482 483 484
1051 11 481 482 483 484
1052 12 481 482 483 485
1053 8 483 482 481 487
1054 8 483 482 481 488
1055 8 483 482 481 489
1056 10 805 806 807 808
1057 11 805 806 807 808
1058 12 805 806 807 809
1059 8 807 806 805 811
1060 8 807 806 805 812
1061 8 807 806 805 813
1062 8 339 341 342 346
1063 8 339 341 342 347
1064 8 339 341 342 348
1065 8 411 413 414 418
1066 8 411 413 414 419
1067 8 411 413 414 420
1068 8 723 725 726 730
1069 8 723 725 726 731
1070 8 723 725 726 732
1071 1 131 132 133 134
1072 2 131 132 133 134
1073 4 133 132 131 136
1074 5 133 132 131 136
1075 6 133 132 131 137
1076 7 133 132 131 137
1077 6 133 132 131 138
1078 7 133 132 131 138
1079 12 722 723 725 726
1080 10 724 723 725 726
1081 11 724 723 725 726
1082 8 807 809 810 814
1083 8 807 809 810 815
1084 8 807 809 810 816
1085 10 337 338 339 340
1086 11 337 338 339 340
1087 12 337 338 339 341
1088 8 339 338 337 343
1089 8 339 338 337 344
1090 8 339 338 337 345
1091 8 771 773 774 778
1092 8 771 773 774 779
1093 8 771 773 774 780
1094 8 531 533 534 538
1095 8 531 533 534 539
1096 8 531 533 534 540
1097 10 721 722 723 724
1098 11 721 722 723 724
1099 12 721 722 723 725
1100 8 723 722 721 727
1101 8 723 722 721 728
1102 8 723 722 721 729
1103 12 338 339 341 342
1104 10 340 339 341 342
1105 11 340 339 341 342
1106 3 251 256 254 253
1107 3 251 256 254 255
1108 8 254 256 251 257
1109 8 254 256 251 258
1110 12 806 807 809 810
1111 10 808 807 809 810
1112 11 808 807 809 810
1113 12 530 531 533 534
1114 10 532 531 533 534
1115 11 532 531 533 534
1116 1 272 271 276 274
1117 2 272 271 276 274
1118 6 276 271 272 279
1119 7 276 271 272 279
1120 6 276 271 272 280
1121 7 276 271 272 280
1122 9 277 271 272 279
1123 9 277 271 272 280
1124 9 278 271 272 279
1125 9 278 271 272 280
1126 3 271 276 274 273
1127 3 271 276 274 275
1128 8 274 276 271 277
1129 8 274 276 271 278
1130 3 272 273 274 275
1131 3 272 273 274 276
1132 8 274 273 272 279
1133 8 274 273 272 280
1134 1 271 272 273 274
1135 2 271 272 273 274
1136 4 273 272 271 276
1137 5 273 272 271 276
1138 6 273 272 271 277
1139 7 273 272 271 277
1140 6 273 272 271 278
1141 7 273 272 271 278
1142 1 2 1 6 4
1143 2 2 1 6 4
1144 6 6 1 2 9
1145 7 6 1 2 9
1146 6 6 1 2 10
1147 7 6 1 2 10
1148 9 7 1 2 9
1149 9 7 1 2 10
1150 9 8 1 2 9
1151 9 8 1 2 10
1152 3 1 6 4 3
1153 3 1 6 4 5
1154 8 4 6 1 7
1155 8 4 6 1 8
1156 1 1 2 3 4
1157 2 1 2 3 4
1158 4 3 2 1 6
1159 5 3 2 1 6
1160 6 3 2 1 7
1161 7 3 2 1 7
1162 6 3 2 1 8
1163 7 3 2 1 8
1164 10 625 626 627 628
1165 11 625 626 627 628
1166 12 625 626 627 629
1167 8 627 626 625 631
1168 8 627 626 625 632
1169 8 627 626 625 633
1170 3 2 3 4 5
1171 3 2 3 4 6
1172 8 4 3 2 9
1173 8 4 3 2 10
1174 12 446 447 449 450
1175 10 448 447 449 450
1176 11 448 447 449 450
1177 8 447 449 450 454
1178 8 447 449 450 455
1179 8 447 449 450 456
1180 8 303 305 306 310
1181 8 303 305 306 311
1182 8 303 305 306 312
1183 12 734 735 737 738
1184 10 736 735 737 738
1185 11 736 735 737 738
1186 12 350 351 353 354
1187 10 352 351 353 354
1188 11 352 351 353 354
1189 8 351 353 354 358
1190 8 351 353 354 359
1191 8 351 353 354 360
1192 8 735 737 738 742
1193 8 735 737 738 743
1194 8 735 737 738 744
1195 10 349 350 351 352
1196 11 349 350 351 352
1197 12 349 350 351 353
1198 8 351 350 349 355
1199 8 351 350 349 356
1200 8 351 350 349 357
1201 8 471 473 474 478
1202 8 471 473 474 479
1203 8 471 473 474 480
1204 12 470 471 473 474
1205 10 472 471 473 474
1206 11 472 471 473 474
1207 8 627 629 630 634
1208 8 627 629 630 635
1209 8 627 629 630 636
1210 12 626 627 629 630
1211 10 628 627 629 630
1212 11 628 627 629 630
1213 3 92 93 94 95
1214 3 92 93 94 96
1215 8 94 93 92 99
1216 8 94 93 92 100
1217 3 81 86 84 83
1218 3 81 86 84 85
1219 8 84 86 81 87
1220 8 84 86 81 88
1221 1 82 81 86 84
1222 2 82 81 86 84
1223 6 86 81 82 89
1224 7 86 81 82 89
1225 6 86 81 82 90
1226 7 86 81 82 90
1227 9 87 81 82 89
1228 9 87 81 82 90
1229 9 88 81 82 89
1230 9 88 81 82 90
1231 10 733 734 735 736
1232 11 733 734 735 736
1233 12 733 734 735 737
1234 8 735 734 733 739
1235 8 735 734 733 740
1236 8 735 734 733 741
1237 12 302 303 305 306
1238 10 304 303 305 306
1239 11 304 303 305 306
1240 8 483 485 486 490
1241 8 483 485 486 491
1242 8 483 485 486 492
1243 10 589 590 591 592
1244 11 589 590 591 592
1245 12 589 590 591 593
1246 8 591 590 589 595
1247 8 591 590 589 596
1248 8 591 590 589 597
1249 3 252 253 254 255
1250 3 252 253 254 256
1251 8 254 253 252 259
1252 8 254 253 252 260
1253 10 361 362 363 364
1254 11 361 362 363 364
1255 12 361 362 363 365
1256 8 363 362 361 367
1257 8 363 362 361 368
1258 8 363 362 361 369
1259 3 202 203 204 205
1260 3 202 203 204 206
1261 8 204 203 202 209
1262 8 204 203 202 210
1263 8 363 365 366 370
1264 8 363 365 366 371
1265 8 363 365 366 372
1266 3 91 96 94 93
1267 3 91 96 94 95
1268 8 94 96 91 97
1269 8 94 96 91 98
1270 8 783 785 786 790
1271 8 783 785 786 791
1272 8 783 785 786 792
1273 10 301 302 303 304
1274 11 301 302 303 304
1275 12 301 302 303 305
1276 8 303 302 301 307
1277 8 303 302 301 308
1278 8 303 302 301 309
1279 1 91 92 93 94
1280 2 91 92 93 94
1281 4 93 92 91 96
1282 5 93 92 91 96
1283 6 93 92 91 97
1284 7 93 92 91 97
1285 6 93 92 91 98
1286 7 93 92 91 98
1287 1 92 91 96 94
1288 2 92 91 96 94
1289 6 96 91 92 99
1290 7 96 91 92 99
1291 6 96 91 92 100
1292 7 96 91 92 100
1293 9 97 91 92 99
1294 9 97 91 92 100
1295 9 98 91 92 99
1296 9 98 91 92 100
1297 12 566 567 569 570
1298 10 568 567 569 570
1299 11 568 567 569 570
1300 10 565 566 567 568
1301 11 565 566 567 568
1302 12 565 566 567 569
1303 8 567 566 565 571
1304 8 567 566 565 572
1305 8 567 566 565 573
1306 3 201 206 204 203
1307 3 201 206 204 205
1308 8 204 206 201 207
1309 8 204 206 201 208
1310 12 782 783 785 786
1311 10 784 783 785 786
1312 11 784 783 785 786
1313 8 567 569 570 574
1314 8 567 569 570 575
1315 8 567 569 570 576
1316 10 949 950 951 952
1317 11 949 950 951 952
1318 12 949 950 951 953
1319 8 951 950 949 955
1320 8 951 950 949 956
1321 8 951 950 949 957
1322 8 951 953 954 958
1323 8 951 953 954 959
1324 8 951 953 954 960
1325 12 950 951 953 954
1326 10 952 951 953 954
1327 11 952 951 953 954
1328 10 781 782 783 784
1329 11 781 782 783 784
1330 12 781 782 783 785
1331 8 783 782 781 787
1332 8 783 782 781 788
1333 8 783 782 781 789
1334 12 362 363 365 366
1335 10 364 363 365 366
1336 11 364 363 365 366
1337 8 591 593 594 598
1338 8 591 593 594 599
1339 8 591 593 594 600
1340 3 151 156 154 153
1341 3 151 156 154 155
1342 8 154 156 151 157
1343 8 154 156 151 158
1344 12 590 591 593 594
1345 10 592 591 593 594
1346 11 592 591 593 594
1347 10 313 314 315 316
1348 11 313 314 315 316
1349 12 313 314 315 317
1350 8 315 314 313 319
1351 8 315 314 313 320
1352 8 315 314 313 321
1353 1 251 252 253 254
1354 2 251 252 253 254
1355 4 253 252 251 256
1356 5 253 252 251 256
1357 6 253 252 251 257
1358 7 253 252 251 257
1359 6 253 252 251 258
1360 7 253 252 251 258
1361 8 327 329 330 334
1362 8 327 329 330 335
1363 8 327 329 330 336
1364 10 445 446 447 448
1365 11 445 446 447 448
1366 12 445 446 447 449
1367 8 447 446 445 451
1368 8 447 446 445 452
1369 8 447 446 445 453
1370 12 698 699 701 702
1371 10 700 699 701 702
1372 11 700 699 701 702
1373 10 469 470 471 472
1374 11 469 470 471 472
1375 12 469 470 471 473
1376 8 471 470 469 475
1377 8 471 470 469 476
1378 8 471 470 469 477
1379 1 252 251 256 254
1380 2 252 251 256 254
1381 6 256 251 252 259
1382 7 256 251 252 259
1383 6 256 251 252 260
1384 7 256 251 252 260
1385 9 257 251 252 259
1386 9 257 251 252 260
1387 9 258 251 252 259
1388 9 258 251 252 260
1389 12 482 483 485 486
1390 10 484 483 485 486
1391 11 484 483 485 486
1392 12 638 639 641 642
1393 10 640 639 641 642
1394 11 640 639 641 642
1395 8 699 701 702 706
1396 8 699 701 702 707
1397 8 699 701 702 708
1398 12 314 315 317 318
1399 10 316 315 317 318
1400 11 316 315 317 318
1401 1 152 151 156 154
1402 2 152 151 156 154
1403 6 156 151 152 159
1404 7 156 151 152 159
1405 6 156 151 152 160
1406 7 156 151 152 160
1407 9 157 151 152 159
1408 9 157 151 152 160
1409 9 158 151 152 159
1410 9 158 151 152 160
1411 10 457 458 459 460
1412 11 457 458 459 460
1413 12 457 458 459 461
1414 8 459 458 457 463
1415 8 459 458 457 464
1416 8 459 458 457 465
1417 10 697 698 699 700
1418 11 697 698 699 700
1419 12 697 698 699 701
1420 8 699 698 697 703
1421 8 699 698 697 704
1422 8 699 698 697 705
1423 8 639 641 642 646
1424 8 639 641 642 647
1425 8 639 641 642 648
1426 1 151 152 153 154
1427 2 151 152 153 154
1428 4 153 152 151 156
1429 5 153 152 151 156
1430 6 153 152 151 157
1431 7 153 152 151 157
1432 6 153 152 151 158
1433 7 153 152 151 158
1434 12 458 459 461 462
1435 10 460 459 461 462
1436 11 460 459 461 462
1437 8 315 317 318 322
1438 8 315 317 318 323
1439 8 315 317 318 324
1440 3 152 153 154 155
1441 3 152 153 154 156
1442 8 154 153 152 159
1443 8 154 153 152 160
1444 8 459 461 462 466
1445 8 459 461 462 467
1446 8 459 461 462 468
1447 10 325 326 327 328
1448 11 325 326 327 328
1449 12 325 326 327 329
1450 8 327 326 325 331
1451 8 327 326 325 332
1452 8 327 326 325 333

Impropers

1 1 867 866 868 869
2 1 54 53 55 56
3 1 867 868 869 866
4 1 867 869 866 868
5 1 104 103 105 106
6 1 104 105 106 103
7 1 104 106 103 105
8 1 54 55 56 53
9 1 64 66 63 65
10 1 54 56 53 55
11 1 64 65 66 63
12 1 64 63 65 66
13 1 34 36 33 35
14 1 927 926 928 929
15 1 184 183 185 186
16 1 543 545 542 544
17 1 543 542 544 545
18 1 831 830 832 833
19 1 399 400 401 398
20 1 831 832 833 830
21 1 927 929 926 928
22 1 34 33 35 36
23 1 294 296 293 295
24 1 435 436 437 434
25 1 399 401 398 400
26 1 264 266 263 265
27 1 124 126 123 125
28 1 244 243 245 246
29 1 915 917 914 916
30 1 855 854 856 857
31 1 14 16 13 15
32 1 124 125 126 123
33 1 855 857 854 856
34 1 855 856 857 854
35 1 843 844 845 842
36 1 244 245 246 243
37 1 843 845 842 844
38 1 14 13 15 16
39 1 14 15 16 13
40 1 244 246 243 245
41 1 224 225 226 223
42 1 843 842 844 845
43 1 435 434 436 437
44 1 144 146 143 145
45 1 531 530 532 533
46 1 819 818 820 821
47 1 759 760 761 758
48 1 294 293 295 296
49 1 74 75 76 73
50 1 224 223 225 226
51 1 543 544 545 542
52 1 603 604 605 602
53 1 603 605 602 604
54 1 74 76 73 75
55 1 24 23 25 26
56 1 134 136 133 135
57 1 144 143 145 146
58 1 224 226 223 225
59 1 603 602 604 605
60 1 759 758 760 761
61 1 819 820 821 818
62 1 24 25 26 23
63 1 134 135 136 133
64 1 24 26 23 25
65 1 819 821 818 820
66 1 759 761 758 760
67 1 134 133 135 136
68 1 144 145 146 143
69 1 294 295 296 293
70 1 124 123 125 126
71 1 927 928 929 926
72 1 435 437 434 436
73 1 915 916 917 914
74 1 963 965 962 964
75 1 963 964 965 962
76 1 663 664 665 662
77 1 423 422 424 425
78 1 423 424 425 422
79 1 423 425 422 424
80 1 114 113 115 116
81 1 284 283 285 286
82 1 284 285 286 283
83 1 284 286 283 285
84 1 963 962 964 965
85 1 663 662 664 665
86 1 114 116 113 115
87 1 663 665 662 664
88 1 711 712 713 710
89 1 711 713 710 712
90 1 327 328 329 326
91 1 114 115 116 113
92 1 375 377 374 376
93 1 184 185 186 183
94 1 711 710 712 713
95 1 915 914 916 917
96 1 84 83 85 86
97 1 84 85 86 83
98 1 879 878 880 881
99 1 214 213 215 216
100 1 194 196 193 195
101 1 214 215 216 213
102 1 194 195 196 193
103 1 194 193 195 196
104 1 555 557 554 556
105 1 214 216 213 215
106 1 234 233 235 236
107 1 74 73 75 76
108 1 234 235 236 233
109 1 615 616 617 614
110 1 507 508 509 506
111 1 879 881 878 880
112 1 234 236 233 235
113 1 615 614 616 617
114 1 615 617 614 616
115 1 44 43 45 46
116 1 903 905 902 904
117 1 375 374 376 377
118 1 507 506 508 509
119 1 579 581 578 580
120 1 184 186 183 185
121 1 879 880 881 878
122 1 903 904 905 902
123 1 507 509 506 508
124 1 555 556 557 554
125 1 639 638 640 641
126 1 44 45 46 43
127 1 555 554 556 557
128 1 44 46 43 45
129 1 903 902 904 905
130 1 579 578 580 581
131 1 579 580 581 578
132 1 891 893 890 892
133 1 891 892 893 890
134 1 891 890 892 893
135 1 164 166 163 165
136 1 939 938 940 941
137 1 771 770 772 773
138 1 164 165 166 163
139 1 164 163 165 166
140 1 387 386 388 389
141 1 387 388 389 386
142 1 387 389 386 388
143 1 399 398 400 401
144 1 174 173 175 176
145 1 411 412 413 410
146 1 939 940 941 938
147 1 411 410 412 413
148 1 531 532 533 530
149 1 831 833 830 832
150 1 34 35 36 33
151 1 939 941 938 940
152 1 795 797 794 796
153 1 174 175 176 173
154 1 795 794 796 797
155 1 264 265 266 263
156 1 519 520 521 518
157 1 519 518 520 521
158 1 675 677 674 676
159 1 519 521 518 520
160 1 174 176 173 175
161 1 687 689 686 688
162 1 747 746 748 749
163 1 747 748 749 746
164 1 747 749 746 748
165 1 495 494 496 497
166 1 495 497 494 496
167 1 687 686 688 689
168 1 675 674 676 677
169 1 651 653 650 652
170 1 264 263 265 266
171 1 651 650 652 653
172 1 495 496 497 494
173 1 483 482 484 485
174 1 807 806 808 809
175 1 339 341 338 340
176 1 795 796 797 794
177 1 411 413 410 412
178 1 723 725 722 724
179 1 807 808 809 806
180 1 807 809 806 808
181 1 339 338 340 341
182 1 771 772 773 770
183 1 771 773 770 772
184 1 531 533 530 532
185 1 723 722 724 725
186 1 339 340 341 338
187 1 254 255 256 253
188 1 651 652 653 650
189 1 254 256 253 255
190 1 723 724 725 722
191 1 675 676 677 674
192 1 274 276 273 275
193 1 274 273 275 276
194 1 4 6 3 5
195 1 274 275 276 273
196 1 627 626 628 629
197 1 94 95 96 93
198 1 4 3 5 6
199 1 303 304 305 302
200 1 351 352 353 350
201 1 447 449 446 448
202 1 303 305 302 304
203 1 351 353 350 352
204 1 735 737 734 736
205 1 447 448 449 446
206 1 351 350 352 353
207 1 471 473 470 472
208 1 4 5 6 3
209 1 627 629 626 628
210 1 951 952 953 950
211 1 94 93 95 96
212 1 84 86 83 85
213 1 735 736 737 734
214 1 735 734 736 737
215 1 483 485 482 484
216 1 591 590 592 593
217 1 363 364 365 362
218 1 254 253 255 256
219 1 363 362 364 365
220 1 204 203 205 206
221 1 363 365 362 364
222 1 94 96 93 95
223 1 783 785 782 784
224 1 303 302 304 305
225 1 567 566 568 569
226 1 204 205 206 203
227 1 204 206 203 205
228 1 567 569 566 568
229 1 783 784 785 782
230 1 951 950 952 953
231 1 951 953 950 952
232 1 315 316 317 314
233 1 783 782 784 785
234 1 591 593 590 592
235 1 154 156 153 155
236 1 315 314 316 317
237 1 327 329 326 328
238 1 591 592 593 590
239 1 447 446 448 449
240 1 471 470 472 473
241 1 471 472 473 470
242 1 154 155 156 153
243 1 699 701 698 700
244 1 699 700 701 698
245 1 459 458 460 461
246 1 699 698 700 701
247 1 639 641 638 640
248 1 483 484 485 482
249 1 627 628 629 626
250 1 639 640 641 638
251 1 459 460 461 458
252 1 315 317 314 316
253 1 154 153 155 156
254 1 375 376 377 374
255 1 459 461 458 460
256 1 687 688 689 686
257 1 327 326 328 329
258 1 567 568 569 566
