LAMMPS (22 Jul 2025 - Update 4)
# Restart continuation NPT chunk for composition tag=ec_dmc_3_7_libf4_1m_298K
# Generated by scripts/curate_ff_md_data.py

read_restart    ${input_restart}
read_restart    ec_dmc_3_7_libf4_1m_298K.npt.1.restart
Reading restart file ...
  restart file = 22 Jul 2025, LAMMPS = 22 Jul 2025
  restoring atom style full from restart
  orthogonal box = (-0.40949775 -0.37749774 -0.41849775) to (23.004789 23.036789 22.995789)
  1 by 1 by 1 MPI processor grid
  restoring pair style lj/cut/coul/long from restart
  restoring bond style harmonic from restart
  restoring angle style harmonic from restart
  restoring dihedral style opls from restart
  restoring improper style cvff from restart
  1014 atoms
  944 bonds
  1504 angles
  1452 dihedrals
  258 impropers
Finding 1-2 1-3 1-4 neighbors ...
  special bond factors lj:    0        0        0.5     
  special bond factors coul:  0        0        0.5     
     4 = max # of 1-2 neighbors
     5 = max # of 1-3 neighbors
     9 = max # of 1-4 neighbors
    11 = max # of special neighbors
  special bonds CPU = 0.002 seconds
  read_restart CPU = 0.006 seconds
kspace_style    pppm 1.0e-4
neighbor        2.0 bin
neigh_modify    every 1 delay 0 check yes
timestep        1.0

thermo_style    custom step time temp press vol density pe ke etotal
thermo          100
variable        tracked_temperature_K equal temp
variable        tracked_density_g_cm3 equal density
variable        tracked_volume_A3 equal vol
variable        tracked_pressure_atm equal press
fix             NPT_EQ all npt temp 298.15 298.15 100.0 iso 1.0 1.0 1000.0
fix             NPT_TRACE all ave/time 100 1 100 v_tracked_temperature_K v_tracked_density_g_cm3 v_tracked_volume_A3 v_tracked_pressure_atm file ${thermo_trace}
fix             NPT_TRACE all ave/time 100 1 100 v_tracked_temperature_K v_tracked_density_g_cm3 v_tracked_volume_A3 v_tracked_pressure_atm file npt_thermo.2.dat
run             5000
PPPM initialization ...
  using 12-bit tables for long-range coulomb
  G vector (1/distance) = 0.21162741
  grid = 9 9 9
  stencil order = 5
  estimated absolute RMS force accuracy = 0.015854713
  estimated relative force accuracy = 4.7745996e-05
  using double precision FFTW3
  3d grid and FFT values/proc = 2744 729
Generated 28 of 28 mixed pair_coeff terms from arithmetic mixing rule
Neighbor list info ...
  update: every = 1 steps, delay = 0 steps, check = yes
  max neighbors/atom: 2000, page size: 100000
  master list distance cutoff = 14
  ghost atom cutoff = 14
  binsize = 7, bins = 4 4 4
  1 neighbor lists, perpetual/occasional/extra = 1 0 0
  (1) pair lj/cut/coul/long, perpetual
      attributes: half, newton on
      pair build: half/bin/newton
      stencil: half/bin/3d
      bin: standard
Per MPI rank memory allocation (min/avg/max) = 14.88 | 14.88 | 14.88 Mbytes
   Step          Time           Temp          Press          Volume        Density         PotEng         KinEng         TotEng    
      5844   5844           294.94921     -2700.9088      12836.387      1.0791992     -44.16966       890.61702      846.44736    
      5900   5900           291.04236      410.45041      12834.28       1.0793764     -29.508889      878.82003      849.31115    
      6000   6000           314.91962      1376.05        12801.707      1.0821228     -55.661272      950.91888      895.2576     
      6100   6100           314.91511      1481.6349      12766.969      1.0850671     -47.662154      950.90527      903.24311    
      6200   6200           295.6318      -1.9591841      12762.533      1.0854443     -12.060909      892.67814      880.61723    
      6300   6300           304.38527     -2202.1836      12795.995      1.0826058     -51.175705      919.10975      867.93405    
      6400   6400           295.20677      756.88375      12884.804      1.0751439     -32.102524      891.39473      859.29221    
      6500   6500           292.84289     -135.43337      12946.964      1.069982      -34.361579      884.25686      849.89528    
      6600   6600           289.9381       2680.0159      12979.759      1.0672786     -48.827528      875.48566      826.65814    
      6700   6700           290.07793      622.9467       12991.626      1.0663037     -45.088756      875.90787      830.81911    
      6800   6800           310.63833      2996.9231      12947.014      1.0699779     -46.226469      937.99127      891.7648     
      6900   6900           301.87927     -51.852833      12890.377      1.0746791     -10.979797      911.54274      900.56294    
      7000   7000           304.10886      938.13403      12906.18       1.0733632     -27.806324      918.27511      890.46879    
      7100   7100           303.34036     -1233.6127      12914.034      1.0727104     -69.015745      915.9546       846.93885    
      7200   7200           288.30017      391.72301      12883.082      1.0752876     -62.420796      870.53983      808.11904    
      7300   7300           285.29464     -679.39378      12850.07       1.07805       -29.769467      861.46445      831.69498    
      7400   7400           296.64865      1329.3331      12803.935      1.0819345     -29.430343      895.74856      866.31822    
      7500   7500           293.62671      2686.7647      12730.077      1.0882117     -17.825112      886.62363      868.79852    
      7600   7600           296.31127     -1507.2112      12688.26       1.0917981     -15.576197      894.72984      879.15365    
      7700   7700           300.52142      272.33083      12613.239      1.098292      -27.321832      907.44264      880.1208     
      7800   7800           295.70163      1339.1745      12575.982      1.1015457     -50.121763      892.88898      842.76722    
      7900   7900           289.56708      1434.2975      12595.762      1.0998158     -65.24897       874.36534      809.11637    
      8000   8000           293.83824     -2548.4982      12641.769      1.0958133     -57.445339      887.26238      829.81704    
      8100   8100           298.13289     -1953.8515      12670.982      1.0932869     -25.384709      900.23033      874.84562    
      8200   8200           302.90364      158.93366      12657.237      1.0944742     -36.066479      914.63589      878.56941    
      8300   8300           298.8762       783.85002      12656.386      1.0945477     -33.033933      902.47479      869.44086    
      8400   8400           290.33434      64.793125      12640.528      1.0959209     -13.256656      876.68214      863.42548    
      8500   8500           300.7947      -272.28188      12582.555      1.1009702     -45.965647      908.26782      862.30218    
      8600   8600           296.19215     -2034.2376      12540.263      1.1046833     -51.565979      894.37015      842.80417    
      8700   8700           290.41105     -2758.8805      12543.721      1.1043787     -67.860141      876.91376      809.05362    
      8800   8800           290.28434     -2380.9051      12567.476      1.1022913     -66.952453      876.53114      809.57869    
      8900   8900           308.92964     -1246.817       12588.743      1.1004291     -72.661224      932.83175      860.17053    
      9000   9000           311.98985     -1372.3447      12626.56       1.0971332     -54.966218      942.07224      887.10602    
      9100   9100           305.0421      -1077.9007      12690.449      1.0916098     -42.058621      921.09309      879.03447    
      9200   9200           304.67013      243.37951      12743.249      1.0870869     -66.282001      919.96991      853.68791    
      9300   9300           286.16664     -1374.1531      12736.202      1.0876884     -56.797095      864.0975       807.3004     
      9400   9400           272.69745      395.88276      12702.776      1.0905505     -51.700176      823.42647      771.7263     
      9500   9500           287.81481      263.92351      12652.375      1.0948948     -49.008416      869.07425      820.06583    
      9600   9600           297.44849      2708.299       12581.056      1.1011014     -25.987675      898.16375      872.17607    
      9700   9700           308.94932      2332.654       12550.944      1.1037432     -52.172352      932.89119      880.71884    
      9800   9800           293.92567      1659.4231      12600.94       1.0993639     -15.964512      887.52638      871.56187    
      9900   9900           286.25582     -1639.6319      12650.846      1.095027      -16.348593      864.36678      848.01819    
     10000   10000          293.78127     -2095.2942      12702.992      1.090532      -52.683997      887.09035      834.40635    
     10100   10100          289.49012     -1061.9099      12736.356      1.0876752     -17.933758      874.13297      856.19921    
     10200   10200          303.70514     -1022.6785      12733.314      1.087935      -9.5933192      917.05608      907.46276    
     10300   10300          303.78131     -1818.9058      12692.427      1.0914397     -9.389283       917.28605      907.89677    
     10400   10400          306.34679      2052.0664      12639.989      1.0959676     -62.499966      925.0327       862.53274    
     10500   10500          296.83165      1182.473       12578.817      1.1012974     -69.766291      896.30115      826.53485    
     10600   10600          288.58746      266.08388      12564.387      1.1025622     -40.001954      871.40733      831.40538    
     10700   10700          306.41409      185.44778      12558.272      1.1030991     -70.287075      925.2359       854.94882    
     10800   10800          298.8234       428.96089      12502.408      1.1080281     -18.041665      902.31537      884.27371    
     10844   10844          296.44344      1967.0202      12468.998      1.1109969     -6.4747936      895.12893      888.65413    
Loop time of 68.3769 on 1 procs for 5000 steps with 1014 atoms

Performance: 6.318 ns/day, 3.799 hours/ns, 73.124 timesteps/s, 74.148 katom-step/s
96.1% CPU use with 1 MPI tasks x no OpenMP threads

MPI task timing breakdown:
Section |  min time  |  avg time  |  max time  |%varavg| %total
---------------------------------------------------------------
Pair    | 59.199     | 59.199     | 59.199     |   0.0 | 86.58
Bond    | 2.5738     | 2.5738     | 2.5738     |   0.0 |  3.76
Kspace  | 2.7336     | 2.7336     | 2.7336     |   0.0 |  4.00
Neigh   | 2.5195     | 2.5195     | 2.5195     |   0.0 |  3.68
Comm    | 0.3225     | 0.3225     | 0.3225     |   0.0 |  0.47
Output  | 0.0015951  | 0.0015951  | 0.0015951  |   0.0 |  0.00
Modify  | 0.92798    | 0.92798    | 0.92798    |   0.0 |  1.36
Other   |            | 0.09883    |            |       |  0.14

Nlocal:           1014 ave        1014 max        1014 min
Histogram: 1 0 0 0 0 0 0 0 0 0
Nghost:           9899 ave        9899 max        9899 min
Histogram: 1 0 0 0 0 0 0 0 0 0
Neighs:         473548 ave      473548 max      473548 min
Histogram: 1 0 0 0 0 0 0 0 0 0

Total # of neighbors = 473548
Ave neighs/atom = 467.00986
Ave special neighs/atom = 6.7613412
Neighbor list builds = 109
Dangerous builds = 0
unfix           NPT_TRACE
unfix           NPT_EQ
write_restart   ${output_restart}
write_restart   ec_dmc_3_7_libf4_1m_298K.npt.2.restart
System init for write_restart ...
PPPM initialization ...
  using 12-bit tables for long-range coulomb
  G vector (1/distance) = 0.20363616
  grid = 8 8 8
  stencil order = 5
  estimated absolute RMS force accuracy = 0.025943654
  estimated relative force accuracy = 7.8128543e-05
  using double precision FFTW3
  3d grid and FFT values/proc = 2197 512
Generated 28 of 28 mixed pair_coeff terms from arithmetic mixing rule
Total wall time: 0:01:08
