LAMMPS (22 Jul 2025 - Update 4)
# Restart continuation NPT chunk for composition tag=ec_dmc_3_7_libf4_1m_298K
# Generated by scripts/curate_ff_md_data.py

read_restart    ${input_restart}
read_restart    ec_dmc_3_7_libf4_1m_298K.npt.2.restart
Reading restart file ...
  restart file = 22 Jul 2025, LAMMPS = 22 Jul 2025
  restoring atom style full from restart
  orthogonal box = (-0.29672524 -0.26472523 -0.30572524) to (22.892017 22.924017 22.883017)
  1 by 1 by 1 MPI processor grid
  restoring pair style lj/cut/coul/long from restart
  restoring bond style harmonic from restart
  restoring angle style harmonic from restart
  restoring dihedral style opls from restart
  restoring improper style cvff from restart
  1014 atoms
  944 bonds
  1504 angles
  1452 dihedrals
  258 impropers
Finding 1-2 1-3 1-4 neighbors ...
  special bond factors lj:    0        0        0.5     
  special bond factors coul:  0        0        0.5     
     4 = max # of 1-2 neighbors
     5 = max # of 1-3 neighbors
     9 = max # of 1-4 neighbors
    11 = max # of special neighbors
  special bonds CPU = 0.002 seconds
  read_restart CPU = 0.006 seconds
kspace_style    pppm 1.0e-4
neighbor        2.0 bin
neigh_modify    every 1 delay 0 check yes
timestep        1.0

thermo_style    custom step time temp press vol density pe ke etotal
thermo          100
variable        tracked_temperature_K equal temp
variable        tracked_density_g_cm3 equal density
variable        tracked_volume_A3 equal vol
variable        tracked_pressure_atm equal press
fix             NPT_EQ all npt temp 298.15 298.15 100.0 iso 1.0 1.0 1000.0
fix             NPT_TRACE all ave/time 100 1 100 v_tracked_temperature_K v_tracked_density_g_cm3 v_tracked_volume_A3 v_tracked_pressure_atm file ${thermo_trace}
fix             NPT_TRACE all ave/time 100 1 100 v_tracked_temperature_K v_tracked_density_g_cm3 v_tracked_volume_A3 v_tracked_pressure_atm file npt_thermo.3.dat
run             5000
PPPM initialization ...
  using 12-bit tables for long-range coulomb
  G vector (1/distance) = 0.20363616
  grid = 8 8 8
  stencil order = 5
  estimated absolute RMS force accuracy = 0.025943654
  estimated relative force accuracy = 7.8128543e-05
  using double precision FFTW3
  3d grid and FFT values/proc = 2197 512
Generated 28 of 28 mixed pair_coeff terms from arithmetic mixing rule
Neighbor list info ...
  update: every = 1 steps, delay = 0 steps, check = yes
  max neighbors/atom: 2000, page size: 100000
  master list distance cutoff = 14
  ghost atom cutoff = 14
  binsize = 7, bins = 4 4 4
  1 neighbor lists, perpetual/occasional/extra = 1 0 0
  (1) pair lj/cut/coul/long, perpetual
      attributes: half, newton on
      pair build: half/bin/newton
      stencil: half/bin/3d
      bin: standard
Per MPI rank memory allocation (min/avg/max) = 14.85 | 14.85 | 14.85 Mbytes
   Step          Time           Temp          Press          Volume        Density         PotEng         KinEng         TotEng    
     10844   10844          296.44344      1968.9224      12468.998      1.1109969     -6.3506805      895.12893      888.77825    
     10900   10900          304.20349     -1372.2623      12476.307      1.1103461     -40.976809      918.56087      877.58406    
     11000   11000          289.97697      1278.365       12461.317      1.1116817     -46.171334      875.60303      829.4317     
     11100   11100          295.21452     -56.632034      12480.085      1.11001       -76.59859       891.41813      814.81954    
     11200   11200          301.8964      -934.78728      12480.724      1.1099531     -97.011757      911.59446      814.5827     
     11300   11300          299.98171      1730.0717      12454.488      1.1122913     -85.679684      905.81294      820.13325    
     11400   11400          286.96856      1852.5928      12513.996      1.1070021     -15.192734      866.51895      851.32621    
     11500   11500          307.83408      431.35273      12640.178      1.0959512     -16.927948      929.52365      912.5957     
     11600   11600          308.85208      173.35155      12829.427      1.0797847     -22.207259      932.59758      910.39032    
     11700   11700          294.42691     -1992.6316      12977.275      1.0674828     -8.1288135      889.03991      880.91109    
     11800   11800          295.49309     -1264.9728      12994.802      1.0660431     -31.709818      892.25928      860.54946    
     11900   11900          299.82328     -2634.4655      12940.424      1.0705227     -28.008185      905.33455      877.32637    
     12000   12000          306.31008      385.88355      12813.518      1.0811253     -12.117501      924.92186      912.80436    
     12100   12100          316.76516      746.33938      12652.685      1.0948679      2.1264618      956.49159      958.61805    
     12200   12200          303.79957      2563.232       12480.725      1.1099531      24.640262      917.34121      941.98147    
     12300   12300          297.71219      3406.7071      12354.301      1.1213114     -18.858347      898.95998      880.10163    
     12400   12400          302.51531      1325.2874      12310.755      1.1252777     -71.695075      913.46329      841.76822    
     12500   12500          294.21327     -4019.6037      12318.975      1.1245269     -79.71804       888.39479      808.67675    
     12600   12600          290.87811     -2106.3478      12266.592      1.129329      -78.487067      878.32406      799.83699    
     12700   12700          304.19331      343.82512      12205.904      1.1349441     -88.324075      918.53011      830.20604    
     12800   12800          307.44628     -473.99068      12209.694      1.1345918     -50.629946      928.35268      877.72273    
     12900   12900          314.65869      567.10012      12274.598      1.1285925     -74.905413      950.13099      875.22557    
     13000   13000          292.06676      2132.4678      12334.11       1.123147      -80.895279      881.91327      801.01799    
     13100   13100          284.72283      83.170094      12388.757      1.1181928     -61.17392       859.73783      798.56391    
     13200   13200          301.46789     -1406.9092      12385.248      1.1185096     -69.213504      910.30055      841.08705    
     13300   13300          299.34798      1352.315       12355.692      1.1211852     -38.883767      903.89935      865.01559    
     13400   13400          303.74201     -845.24947      12332.646      1.1232803     -67.714123      917.1674       849.45328    
     13500   13500          290.29213      1283.6569      12293.31       1.1268746     -81.900364      876.55467      794.6543     
     13600   13600          289.00478      1929.0476      12266.996      1.1292919     -86.829864      872.66744      785.83757    
     13700   13700          304.12383      637.45312      12213.758      1.1342143     -123.80376      918.32034      794.51658    
     13800   13800          306.53716     -525.73678      12169.272      1.1383605     -111.20341      925.60753      814.40412    
     13900   13900          293.8377       440.45688      12205.561      1.134976      -52.378428      887.26074      834.88231    
     14000   14000          311.44084     -1056.5529      12302.476      1.126035      -62.126448      940.41449      878.28804    
     14100   14100          312.84389     -2030.7856      12406.977      1.1165507     -22.295104      944.65107      922.35596    
     14200   14200          310.18689      106.08683      12482.676      1.1097795     -60.761259      936.6281       875.86685    
     14300   14300          298.58575     -1027.509       12486.099      1.1094754     -57.834737      901.59776      843.76302    
     14400   14400          292.07762      580.61898      12408.953      1.1163729     -65.521963      881.94608      816.42412    
     14500   14500          301.21433     -2902.8955      12320.894      1.1243518     -110.57893      909.53493      798.956      
     14600   14600          300.60754     -751.56943      12191.184      1.1363145     -102.50944      907.70268      805.19324    
     14700   14700          296.04745     -165.61883      12089.566      1.1458656     -83.379152      893.93322      810.55407    
     14800   14800          304.1004       805.05354      12089.506      1.1458713     -116.54447      918.24958      801.7051     
     14900   14900          294.257        1837.1231      12135.739      1.141506      -108.99906      888.52682      779.52776    
     15000   15000          287.18641      2167.8376      12143.35       1.1407905     -109.85209      867.17678      757.32469    
     15100   15100          295.97895     -69.81453       12179.863      1.1373707     -122.53372      893.72637      771.19265    
     15200   15200          296.4709      -2441.905       12246.757      1.1311582     -62.842001      895.21185      832.36985    
     15300   15300          295.15936     -461.50675      12339.414      1.1226642     -47.591411      891.25158      843.66017    
     15400   15400          300.36613     -1365.5234      12455.748      1.1121787     -74.463007      906.97372      832.51071    
     15500   15500          295.87272     -278.49446      12526.767      1.1058734     -87.954864      893.40561      805.45075    
     15600   15600          294.0181      -517.78928      12476.327      1.1103443     -133.08198      887.80547      754.72349    
     15700   15700          284.04613      466.12913      12370.027      1.1198858     -92.327646      857.6945       765.36685    
     15800   15800          298.88782     -514.11811      12310.837      1.1252703     -85.749676      902.50989      816.76022    
     15844   15844          301.82199     -1354.1374      12291.734      1.1270191     -86.173416      911.36979      825.19638    
Loop time of 68.8215 on 1 procs for 5000 steps with 1014 atoms

Performance: 6.277 ns/day, 3.823 hours/ns, 72.652 timesteps/s, 73.669 katom-step/s
96.3% CPU use with 1 MPI tasks x no OpenMP threads

MPI task timing breakdown:
Section |  min time  |  avg time  |  max time  |%varavg| %total
---------------------------------------------------------------
Pair    | 60.155     | 60.155     | 60.155     |   0.0 | 87.41
Bond    | 2.552      | 2.552      | 2.552      |   0.0 |  3.71
Kspace  | 2.5028     | 2.5028     | 2.5028     |   0.0 |  3.64
Neigh   | 2.4596     | 2.4596     | 2.4596     |   0.0 |  3.57
Comm    | 0.31017    | 0.31017    | 0.31017    |   0.0 |  0.45
Output  | 0.0012727  | 0.0012727  | 0.0012727  |   0.0 |  0.00
Modify  | 0.74546    | 0.74546    | 0.74546    |   0.0 |  1.08
Other   |            | 0.0955     |            |       |  0.14

Nlocal:           1014 ave        1014 max        1014 min
Histogram: 1 0 0 0 0 0 0 0 0 0
Nghost:           9962 ave        9962 max        9962 min
Histogram: 1 0 0 0 0 0 0 0 0 0
Neighs:         479752 ave      479752 max      479752 min
Histogram: 1 0 0 0 0 0 0 0 0 0

Total # of neighbors = 479752
Ave neighs/atom = 473.12821
Ave special neighs/atom = 6.7613412
Neighbor list builds = 108
Dangerous builds = 0
unfix           NPT_TRACE
unfix           NPT_EQ
write_restart   ${output_restart}
write_restart   ec_dmc_3_7_libf4_1m_298K.npt.3.restart
System init for write_restart ...
PPPM initialization ...
  using 12-bit tables for long-range coulomb
  G vector (1/distance) = 0.20399325
  grid = 8 8 8
  stencil order = 5
  estimated absolute RMS force accuracy = 0.02558805
  estimated relative force accuracy = 7.7057653e-05
  using double precision FFTW3
  3d grid and FFT values/proc = 2197 512
Generated 28 of 28 mixed pair_coeff terms from arithmetic mixing rule
Total wall time: 0:01:08
