LAMMPS (22 Jul 2025 - Update 4)
# Initial NPT chunk for composition tag=ec_dmc_3_7_libf4_1m_298K
# Generated by scripts/curate_ff_md_data.py

units           real
boundary        p p p
atom_style      full
bond_style      harmonic
angle_style     harmonic
dihedral_style  opls
improper_style  cvff

pair_style      lj/cut/coul/long 12.0 12.0
pair_modify     mix arithmetic
special_bonds   lj/coul 0.0 0.0 0.5

read_data       ec_dmc_3_7_libf4_1m_298K.lmp
Reading data file ...
  triclinic box = (-0.089000009 -0.057 -0.098000005) to (22.684292 22.716292 22.675292) with tilt (0 0 0)
  1 by 2 by 2 MPI processor grid
  reading atoms ...
  1014 atoms
  scanning bonds ...
  4 = max bonds/atom
  scanning angles ...
  6 = max angles/atom
  scanning dihedrals ...
  10 = max dihedrals/atom
  scanning impropers ...
  1 = max impropers/atom
  triclinic box = (-0.089000009 -0.057 -0.098000005) to (22.684292 22.716292 22.675292) with tilt (0 0 0)
  1 by 2 by 2 MPI processor grid
  reading bonds ...
  944 bonds
  reading angles ...
  1504 angles
  reading dihedrals ...
  1452 dihedrals
  reading impropers ...
  258 impropers
Finding 1-2 1-3 1-4 neighbors ...
  special bond factors lj:    0        0        0.5     
  special bond factors coul:  0        0        0.5     
     4 = max # of 1-2 neighbors
     5 = max # of 1-3 neighbors
     9 = max # of 1-4 neighbors
    11 = max # of special neighbors
  special bonds CPU = 0.006 seconds
  read_data CPU = 0.285 seconds

# openff-interchange writes the box as triclinic with zero tilt; PPPM stalls
# indefinitely in triclinic mode on this brew LAMMPS build, but works fine
# after change_box all ortho converts the zero-tilt box to orthogonal.
change_box      all ortho
Changing box ...
  orthogonal box = (-0.089000009 -0.057 -0.098000005) to (22.684292 22.716292 22.675292)
kspace_style    pppm 1.0e-4

min_style       cg
minimize        1.0e-4 1.0e-6 10000 100000
PPPM initialization ...
  using 12-bit tables for long-range coulomb
  G vector (1/distance) = 0.20498675
  grid = 8 8 8
  stencil order = 5
  estimated absolute RMS force accuracy = 0.024620357
  estimated relative force accuracy = 7.4143474e-05
  using double precision FFTW3
  3d grid and FFT values/proc = 1053 128
Generated 28 of 28 mixed pair_coeff terms from arithmetic mixing rule
Neighbor list info ...
  update: every = 1 steps, delay = 0 steps, check = yes
  max neighbors/atom: 2000, page size: 100000
  master list distance cutoff = 14
  ghost atom cutoff = 14
  binsize = 7, bins = 4 4 4
  1 neighbor lists, perpetual/occasional/extra = 1 0 0
  (1) pair lj/cut/coul/long, perpetual
      attributes: half, newton on
      pair build: half/bin/newton
      stencil: half/bin/3d
      bin: standard
Per MPI rank memory allocation (min/avg/max) = 14.1 | 14.39 | 14.48 Mbytes
   Step          Temp          E_pair         E_mol          TotEng         Press     
         0   0              2426.7763      20029.305      22456.082      109624.88    
       667   0             -3777.6783      3109.2199     -668.45845      2063.0294    
Loop time of 35.2375 on 4 procs for 667 steps with 1014 atoms

54.4% CPU use with 4 MPI tasks x no OpenMP threads

Minimization stats:
  Stopping criterion = energy tolerance
  Energy initial, next-to-last, final = 
      22456.0817121287  -668.446848216221  -668.458452427621
  Force two-norm initial, final = 6631.3769 90.469128
  Force max component initial, final = 732.94315 56.194245
  Final line search alpha, max atom move = 0.0062260933 0.34987061
  Iterations, force evaluations = 667 1342

MPI task timing breakdown:
Section |  min time  |  avg time  |  max time  |%varavg| %total
---------------------------------------------------------------
Pair    | 10.788     | 12.006     | 12.811     |  21.8 | 34.07
Bond    | 0.33682    | 0.35555    | 0.37984    |   3.0 |  1.01
Kspace  | 19.015     | 19.848     | 21.042     |  16.8 | 56.33
Neigh   | 0.26929    | 0.27584    | 0.28092    |   0.9 |  0.78
Comm    | 1.7059     | 1.75       | 1.7785     |   2.3 |  4.97
Output  | 0          | 0          | 0          |   0.0 |  0.00
Modify  | 0          | 0          | 0          |   0.0 |  0.00
Other   |            | 1.002      |            |       |  2.84

Nlocal:          253.5 ave         264 max         233 min
Histogram: 1 0 0 0 0 0 1 0 0 2
Nghost:        6597.75 ave        6654 max        6529 min
Histogram: 1 0 1 0 0 0 0 0 0 2
Neighs:         125190 ave      129681 max      117462 min
Histogram: 1 0 0 0 0 0 0 2 0 1

Total # of neighbors = 500761
Ave neighs/atom = 493.84714
Ave special neighs/atom = 6.7613412
Neighbor list builds = 15
Dangerous builds = 0
velocity        all create 298.15 104759 dist gaussian
neighbor        2.0 bin
neigh_modify    every 1 delay 0 check yes
timestep        1.0

thermo_style    custom step time temp press vol density pe ke etotal
thermo          100
variable        tracked_temperature_K equal temp
variable        tracked_density_g_cm3 equal density
variable        tracked_volume_A3 equal vol
variable        tracked_pressure_atm equal press
fix             NPT_EQ all npt temp 298.15 298.15 100.0 iso 1.0 1.0 1000.0
fix             NPT_TRACE all ave/time 100 1 100 v_tracked_temperature_K v_tracked_density_g_cm3 v_tracked_volume_A3 v_tracked_pressure_atm file ${thermo_trace}
fix             NPT_TRACE all ave/time 100 1 100 v_tracked_temperature_K v_tracked_density_g_cm3 v_tracked_volume_A3 v_tracked_pressure_atm file npt_thermo.1.dat
run             5000
PPPM initialization ...
  using 12-bit tables for long-range coulomb
  G vector (1/distance) = 0.20498675
  grid = 8 8 8
  stencil order = 5
  estimated absolute RMS force accuracy = 0.024620357
  estimated relative force accuracy = 7.4143474e-05
  using double precision FFTW3
  3d grid and FFT values/proc = 1053 128
Generated 28 of 28 mixed pair_coeff terms from arithmetic mixing rule
Per MPI rank memory allocation (min/avg/max) = 13.36 | 13.36 | 13.36 Mbytes
   Step          Time           Temp          Press          Volume        Density         PotEng         KinEng         TotEng    
       667   667            298.15         5547.4774      11810.749      1.1729162     -668.45845      900.28199      231.82353    
       700   700            194.93962      2753.7653      11834.177      1.1705942     -327.37409      588.63199      261.25791    
       800   800            181.52227     -1373.708       12127.082      1.1423209     -181.63009      548.11749      366.4874     
       900   900            209.95335     -645.70679      12523.285      1.1061809     -114.21188      633.96684      519.75496    
      1000   1000           238.10568      1580.9445      12813.011      1.0811681     -27.215406      718.97453      691.75913    
      1100   1100           271.26465      4842.1225      13021.634      1.0638464      41.771825      819.10004      860.87186    
      1200   1200           282.13328      4677.13        13231.144      1.0470008      160.05092      851.91853      1011.9695    
      1300   1300           306.14073      3380.7935      13404.483      1.0334616      167.21375      924.41047      1091.6242    
      1400   1400           317.07321     -227.40046      13518.027      1.0247811      117.89603      957.42176      1075.3178    
      1500   1500           303.91188     -339.409        13541.642      1.022994       73.646148      917.68033      991.32648    
      1600   1600           299.26717      977.05056      13493.631      1.0266339      19.83302       903.65534      923.48836    
      1700   1700           291.05293      1383.5398      13448.317      1.0300931      42.555197      878.85195      921.40715    
      1800   1800           293.21373     -656.23582      13398.849      1.0338962      86.292492      885.37661      971.6691     
      1900   1900           306.31718     -1483.0556      13315.461      1.0403709      92.352187      924.94329      1017.2955    
      2000   2000           294.52602     -725.4362       13272.426      1.0437443      127.54925      889.33915      1016.8884    
      2100   2100           291.98531     -2514.528       13246.552      1.045783       83.721268      881.66733      965.3886     
      2200   2200           288.68435     -610.53799      13212.498      1.0484784      41.786263      871.69988      913.48614    
      2300   2300           282.09943      562.89125      13139.966      1.054266       42.60072       851.8163       894.41702    
      2400   2400           293.92248      2354.0372      13065.986      1.0602353      49.681258      887.51673      937.19798    
      2500   2500           301.5617      -222.54118      13007.144      1.0650316      63.310047      910.58382      973.89387    
      2600   2600           306.24479     -1749.3693      12945.848      1.0700743      42.58253       924.7247       967.30723    
      2700   2700           290.74026     -2976.5787      12972.794      1.0678516      38.781575      877.90782      916.68939    
      2800   2800           296.74646     -1201.1409      13016.427      1.064272      -20.559281      896.04392      875.48464    
      2900   2900           290.7143       1379.0881      12978.129      1.0674126     -13.512691      877.82945      864.31676    
      3000   3000           294.55954      32.627957      12912.64       1.0728262      23.283365      889.44038      912.72375    
      3100   3100           303.7349       2396.7487      12839.593      1.0789297      43.691257      917.14594      960.8372     
      3200   3200           311.36186     -1721.2555      12905.334      1.0734336      31.994839      940.176        972.17083    
      3300   3300           298.93352     -328.11775      13045.296      1.0619168      28.323219      902.64788      930.9711     
      3400   3400           287.82108      1467.8093      13161.929      1.0525067      23.553325      869.09319      892.64652    
      3500   3500           288.66347      1761.8295      13226.665      1.0473554      28.487303      871.63683      900.12414    
      3600   3600           298.48191     -2453.305       13242.389      1.0461118      51.696626      901.28422      952.98084    
      3700   3700           305.53998     -1335.4855      13193.89       1.0499571      58.6983        922.59649      981.29479    
      3800   3800           304.76602     -1532.955       13150.803      1.0533971      61.66643       920.25945      981.92588    
      3900   3900           293.79498      61.371869      13107.512      1.0568763      32.297931      887.13173      919.42966    
      4000   4000           294.01208      1147.479       13074.576      1.0595387      5.9641215      887.7873       893.75142    
      4100   4100           299.92267      2598.4589      12972.309      1.0678916     -11.629563      905.63467      894.0051     
      4200   4200           302.0175       1902.8609      12893.963      1.0743802     -2.4015766      911.96013      909.55856    
      4300   4300           308.94752      663.97396      12871.514      1.076254      -2.1484011      932.88575      930.73735    
      4400   4400           300.73654     -663.57836      12921.824      1.0720637      8.3694414      908.09219      916.46163    
      4500   4500           286.2123      -844.18841      12943.07       1.0703039      0.058642863    864.23537      864.29401    
      4600   4600           295.74972      849.03572      12929.021      1.071467      -24.806921      893.03421      868.22729    
      4700   4700           295.68977      2233.3485      12887.985      1.0748786      16.442636      892.85317      909.29581    
      4800   4800           306.07537      1791.3842      12903.882      1.0735543      1.9260696      924.21313      926.1392     
      4900   4900           299.99977     -719.22994      12997.72       1.0658037      16.217393      905.86747      922.08486    
      5000   5000           301.01146     -2539.3516      13070.892      1.0598373      0.44616644     908.92234      909.36851    
      5100   5100           292.23877     -1457.9742      13044.279      1.0619996      23.072108      882.43268      905.50479    
      5200   5200           306.84668     -2095.0306      12945.992      1.0700624      21.464769      926.54215      948.00692    
      5300   5300           313.14441      1793.7552      12784.219      1.083603       25.132156      945.5585       970.69066    
      5400   5400           298.91728      2088.7403      12704.657      1.0903891      11.144612      902.59882      913.74343    
      5500   5500           301.21369      1863.7513      12727.883      1.0883993     -12.46941       909.53299      897.06358    
      5600   5600           301.87748     -609.85557      12759.226      1.0857256     -31.733478      911.53735      879.80387    
      5667   5667           299.58387      41.840329      12773.142      1.0845428     -35.721143      904.61164      868.89049    
Loop time of 66.2991 on 4 procs for 5000 steps with 1014 atoms

Performance: 6.516 ns/day, 3.683 hours/ns, 75.416 timesteps/s, 76.472 katom-step/s
58.7% CPU use with 4 MPI tasks x no OpenMP threads

MPI task timing breakdown:
Section |  min time  |  avg time  |  max time  |%varavg| %total
---------------------------------------------------------------
Pair    | 19.127     | 20.984     | 22.014     |  25.2 | 31.65
Bond    | 0.9327     | 1.0635     | 1.1541     |   8.1 |  1.60
Kspace  | 33.994     | 35.109     | 36.964     |  19.6 | 52.95
Neigh   | 1.3023     | 1.3128     | 1.3171     |   0.5 |  1.98
Comm    | 3.7489     | 3.8145     | 3.8701     |   2.2 |  5.75
Output  | 0.11155    | 0.80004    | 1.0374     |  44.4 |  1.21
Modify  | 2.3058     | 2.5942     | 3.3281     |  26.4 |  3.91
Other   |            | 0.6214     |            |       |  0.94

Nlocal:          253.5 ave         260 max         248 min
Histogram: 1 0 0 1 0 1 0 0 0 1
Nghost:        6163.75 ave        6170 max        6155 min
Histogram: 1 0 0 0 1 0 0 0 1 1
Neighs:         115630 ave      121009 max      107807 min
Histogram: 1 0 0 0 1 0 0 0 1 1

Total # of neighbors = 462521
Ave neighs/atom = 456.13511
Ave special neighs/atom = 6.7613412
Neighbor list builds = 117
Dangerous builds = 0
unfix           NPT_TRACE
unfix           NPT_EQ
write_restart   ${output_restart}
write_restart   ec_dmc_3_7_libf4_1m_298K.npt.1.restart
System init for write_restart ...
PPPM initialization ...
  using 12-bit tables for long-range coulomb
  G vector (1/distance) = 0.21174748
  grid = 9 9 9
  stencil order = 5
  estimated absolute RMS force accuracy = 0.01577793
  estimated relative force accuracy = 4.7514769e-05
  using double precision FFTW3
  3d grid and FFT values/proc = 1400 225
Generated 28 of 28 mixed pair_coeff terms from arithmetic mixing rule
Total wall time: 0:01:42
