LAMMPS data file via write_data, version 22 Jul 2025, timestep = 15396, units = real

1014 atoms
8 atom types
944 bonds
6 bond types
1504 angles
7 angle types
1452 dihedrals
12 dihedral types
258 impropers
1 improper types

-0.3905960896955616 22.916687776695895 xlo xhi
-0.35959608679294064 22.947687786792855 ylo yhi
-0.3795960897360455 22.927687776696224 zlo zhi

Masses

1 12.01078
2 15.99943
3 12.01078
4 15.99943
5 1.007947
6 6.9412
7 15.99943
8 35.4532

Pair Coeffs # lj/cut/coul/long

1 0.108841 3.37953
2 0.168465 3.02511
3 0.0868793 3.48065
4 0.210206 3.03981
5 0.0164092 2.58323
6 0.0279896 1.82634
7 0.15 3.18051
8 0.272 4.18188

Bond Coeffs # harmonic

1 215.301 1.53363
2 227.037 1.43632
3 357.819 1.09421
4 291.342 1.35606
5 762.039 1.225
6 300 1.483

Angle Coeffs # harmonic

1 91.5186 108.173
2 66.7563 109.938
3 63.31 123.606
4 36.7766 108.354
5 119.896 112.874
6 84.5477 120.105
7 52.5 109.4

Dihedral Coeffs # opls

1 1 0.111303 3 0
2 1 0.438911 1 180
3 1 1.76361 2 180
4 1 -0.0153377 3 0
5 1 0.41915 2 0
6 1 0.131135 3 0
7 1 0.436547 1 0
8 1 0.263111 3 0
9 1 0.227995 3 0
10 1 0.302195 2 180
11 1 1.35005 1 180
12 1 3.48187 2 180

Improper Coeffs # cvff

1 4.30523 -1 2

Atoms # full

82 9 1 0.0955 3.193760115384709 1.7281816608925298 7.594782667545242 0 0 0
83 9 2 -0.4048 1.803060229396198 1.4391647703087436 7.063786052002922 0 0 0
89 9 5 0.0798 3.246918678868266 2.8486058452563916 7.565490088969055 0 0 0
67 7 5 0.0798 4.298682568644554 10.577944932984689 0.5725800729524779 0 0 0
709 65 1 0.1266165 3.753162055246861 3.8306159277371483 3.638297622788122 0 0 0
710 65 2 -0.3889835 4.828111669574106 4.371352044573944 2.894027850124137 0 0 0
711 65 3 0.7551165 5.525908529271069 5.407083329292183 3.473018200146124 0 0 0
712 65 4 -0.5800835 5.171785402855143 5.792842398736538 4.595555221518449 0 0 0
713 65 2 -0.3889835 6.533849348979017 5.934791308309171 2.7530588620332015 0 0 0
715 65 5 0.0582835 2.900839691017648 4.52126340518876 3.7142035392104216 0 0 0
717 65 5 0.0582835 4.031451727407672 3.4844906485708913 4.598284003176784 0 0 0
720 65 5 0.0582835 6.611858044884374 7.8903764642056 3.460651539170273 0 0 0
970 86 5 0.0582835 4.409403593532242 8.991195579139328 10.499552772176772 0 0 0
971 86 5 0.0582835 4.836427184282872 9.33607449055317 8.911712186079964 0 0 0
973 87 6 1 4.254955961459385 6.9612122697484615 6.020327822981823 0 0 0
986 95 8 1.32 3.533615798302106 9.690164043975187 5.222004665971731 0 0 0
989 95 7 -0.58 2.0832660705719563 9.855191889346077 5.399826299521861 0 0 0
1006 99 8 1.32 0.9852638282155208 5.771905298075462 6.26169461688929 0 0 0
1007 99 7 -0.58 2.2299524954860304 6.499165509167686 6.09772428779058 0 0 0
965 86 2 -0.3889835 5.78598264261112 7.639471638631717 9.607756583902725 0 0 0
966 86 1 0.1266165 4.621772978656392 8.511445150933744 9.505458858653627 0 0 0
512 48 5 0.0582835 2.207848730533817 6.919751160086353 2.368240123475941 0 0 0
963 86 3 0.7551165 6.157804258649431 6.953549174130476 8.46596429542923 0 0 0
972 86 5 0.0582835 3.7492846939898437 7.92507819611666 9.127913374935472 0 0 0
964 86 4 -0.5800835 5.570380224212709 7.022494218515106 7.386031198548993 0 0 0
505 48 1 0.1266165 2.0011488077551105 6.901767816975136 1.340775659526588 0 0 0
985 95 7 -0.58 3.813208969004652 8.450263814764359 4.477198634720243 0 0 0
969 86 5 0.0582835 6.9943954359818115 4.624175340760224 7.221647481623856 0 0 0
987 95 7 -0.58 3.9446843587327027 10.885211284273792 4.450381458945619 0 0 0
716 65 5 0.0582835 3.304362566068368 2.90825066473728 3.12622645580347 0 0 0
88 9 5 0.0798 3.619834772420746 0.39786111650741696 8.902582486929395 0 0 0
988 95 7 -0.58 4.316521073448581 9.608157780544614 6.461944884636376 0 0 0
667 61 5 0.0582835 7.055681961050787 2.7568933655217918 9.485224137858195 0 0 0
962 86 2 -0.3889835 7.288978601538789 6.131761028305095 8.685538831158258 0 0 0
70 7 5 0.0798 6.534179623780307 9.046654173240075 1.5751872950527017 0 0 0
81 9 1 0.0955 3.084735530794715 1.3308938373192658 9.04291549603287 0 0 0
84 9 3 0.8478 1.0721804768837615 0.954636531242161 8.136395345347555 0 0 0
87 9 5 0.0798 3.6809516864773366 1.8195159942399046 9.841770611368544 0 0 0
513 48 5 0.0582835 1.7424401639045444 7.869770781946814 0.9387798258408757 0 0 0
820 74 4 -0.5800835 2.124447540003837 10.018813446886892 9.95587470848875 0 0 0
506 48 2 -0.3889835 3.2449757287695644 6.542835195227366 0.8463920433006138 0 0 0
1009 99 7 -0.58 1.2825188381342814 4.4391320786411885 5.86246461919327 0 0 0
86 9 2 -0.4048 1.7341977760034486 0.8777178432642474 9.263128360464481 0 0 0
62 7 1 0.0955 6.278744162233934 9.941448255783353 0.976375032928559 0 0 0
85 9 4 -0.5484 -0.10643799698461048 0.5959795461792047 8.080116540808595 0 0 0
61 7 1 0.0955 4.8259331394930545 9.635347866898307 0.707966964624251 0 0 0
68 7 5 0.0798 4.38778934727942 9.004433719057433 1.549688509159617 0 0 0
819 74 3 0.7551165 1.681313302898892 10.858435932193188 9.181988499585655 0 0 0
955 85 5 0.0582835 15.300317269733718 11.283106019426814 9.757832454740347 0 0 0
1008 99 7 -0.58 -0.12095521648784874 6.196570443865271 5.444223751404517 0 0 0
1005 99 7 -0.58 0.6314049176735106 5.907465054024094 7.702518143290959 0 0 0
744 67 5 0.0582835 0.7561603700668793 9.443186988897489 3.103363260863174 1 0 0
91 10 1 0.0955 5.061741319350483 1.813546377454863 0.3736422569281478 0 1 0
98 10 5 0.0798 4.3979030347382215 2.6844484731055553 0.2345882059932225 0 1 0
828 74 5 0.0582835 0.9539829669153099 8.535912102037203 7.985990632065073 0 0 0
822 74 1 0.1266165 0.1659711499032972 9.241598239353024 8.181405224281809 0 0 0
742 67 5 0.0582835 -0.11913500011415384 9.393067733243198 4.51833449686641 1 0 0
821 74 2 -0.3889835 0.691403566637089 10.57925510706319 8.249644315654756 0 0 0
827 74 5 0.0582835 22.64738179673406 9.161985201497929 7.454034469938411 -1 0 0
738 67 1 0.1266165 -0.16829872077786612 9.081466376089093 3.4492851390109527 1 0 0
100 10 5 0.0798 6.461223354896403 3.4068900807173277 0.0832688468793531 0 1 0
714 65 1 0.1266165 7.248572640437991 7.028022271842962 3.357022791680385 0 0 0
961 86 1 0.1266165 7.7067789698387 5.367291078722387 7.543056105622982 0 0 0
870 78 1 0.1266165 0.3521539789343382 -0.04107913755452264 4.0438622635134545 0 1 0
718 65 5 0.0582835 7.810673150001028 6.741521059312198 4.251206208007827 0 0 0
96 10 2 -0.4048 4.779584604670063 1.3065165248042354 1.6592960205197973 0 1 0
862 77 5 0.0582835 9.044240478530238 9.332505360787225 10.682253659206951 0 0 0
797 72 2 -0.3889835 21.81340395844493 10.984894986654158 10.426796984962529 0 0 0
63 7 2 -0.4048 7.056435673957573 9.489006819681837 -0.1467375205981939 0 0 0
968 86 5 0.0582835 8.646908321711502 4.812433283280034 7.826254817498077 0 0 0
967 86 5 0.0582835 7.78539630118331 5.986728217035052 6.695105354131432 0 0 0
664 61 4 -0.5800835 8.062871987454304 0.39826340127738624 9.523595354939722 0 0 0
719 65 5 0.0582835 7.978043544465628 7.3643034534373495 2.6072057709660483 0 0 0
92 10 1 0.0955 6.473114643258715 2.34717264901313 0.3693959420715818 0 1 0
623 57 5 0.0582835 10.21801470419655 -0.32180314093583107 8.715204058648773 0 1 0
90 9 5 0.0798 4.056395995782336 1.2333380537663141 7.012026991112071 0 0 0
511 48 5 0.0582835 1.221004469050007 6.216929238563141 1.025745894895988 0 0 0
728 66 5 0.0582835 1.0203196563146955 10.49423121226561 0.07052089461902616 0 0 0
48 5 5 0.0798 16.465044133034105 2.126415467705553 0.5146622979044119 0 0 0
218 22 5 0.0798 11.370915685187857 9.854367113373934 1.4495135344910144 0 0 1
499 47 5 0.0582835 17.424586872080198 10.648812105386103 11.248900200221485 0 0 0
231 24 1 0.0955 11.894995505728126 1.4304129058800679 0.08302698582588458 0 0 0
863 77 5 0.0582835 9.120935419709916 10.3513144417118 9.186318540289895 0 0 0
290 29 5 0.0798 0.9730452182583282 5.940740190321092 11.005522194653258 0 0 0
662 61 2 -0.3889835 7.622538404568514 1.8369044785642847 11.21676715004627 0 0 0
888 79 5 0.0582835 18.179191268710227 10.400991563605134 1.793976341964032 0 0 1
956 85 5 0.0582835 14.397104829340888 11.192699935905875 8.308230883376986 0 0 0
922 82 5 0.0582835 8.197946432779027 7.273556399219555 -0.1354108818834873 0 0 0
661 61 1 0.1266165 7.725190473468837 2.9372564107477053 10.300720648491088 0 0 0
112 12 1 0.0955 13.282176298294264 5.926952924543517 10.423105209397328 0 0 0
814 73 5 0.0582835 9.260176861686583 0.6593489799660504 4.827474484343091 0 0 0
924 82 5 0.0582835 8.022347076514839 5.714324614948437 0.5886797408955992 0 0 0
298 30 5 0.0798 15.279505660921151 6.534634961905396 0.1823373347188726 0 0 0
41 5 1 0.0955 15.950085517969702 1.6015540088099003 1.3451435440664545 0 0 0
117 12 5 0.0798 11.253523262592928 6.404886838634378 10.445329351266306 0 0 0
875 78 5 0.0582835 -0.21837592052468546 0.7445168176172228 4.500283648792026 0 1 0
915 82 3 0.7551165 10.706928567378126 5.373993308092052 0.8830151608256533 0 0 0
111 12 1 0.0955 12.007157025170251 6.167823839759154 9.700982637865623 0 0 0
669 61 5 0.0582835 8.750562227139202 3.05730464897162 9.916158843127539 0 0 0
858 77 1 0.1266165 9.70997510799427 9.658834378299236 9.842838605391307 0 0 0
77 8 5 0.0798 11.131168140737772 6.181044389340686 4.70303342536069 0 0 0
72 8 1 0.0955 12.514132922008734 7.848017483603158 4.558698430485087 0 0 0
805 73 1 0.1266165 13.540674606538074 2.5883588964116404 6.696498705993156 0 0 0
807 73 3 0.7551165 11.771906555923545 1.5547879163984393 5.353074406884787 0 0 0
808 73 4 -0.5800835 11.420196009355932 0.9013140727999271 6.2933451642277936 0 0 0
813 73 5 0.0582835 12.877643165147203 2.8846190737537314 7.548581562972055 0 0 0
118 12 5 0.0798 11.758702630840268 5.33312017023511 9.095917372831584 0 0 0
913 82 1 0.1266165 12.701433662963316 4.324918745150448 1.7877370787328264 0 0 0
914 82 2 -0.3889835 11.844389111516394 5.4848443266153355 1.6273221320472464 0 0 0
919 82 5 0.0582835 13.075065258782084 4.012113419952431 0.8293564881843163 0 0 0
920 82 5 0.0582835 13.481846875445063 4.5883223209163555 2.528636611907141 0 0 0
921 82 5 0.0582835 12.150957033976749 3.4842310630159417 2.269114253455625 0 0 0
806 73 2 -0.3889835 12.823952532032619 2.4568567971043462 5.393190681966479 0 0 0
867 78 3 0.7551165 1.5141281743999935 -0.33692824438286806 1.9526416620788938 0 1 0
1001 98 8 1.32 8.787738254877532 11.1428329131477 4.036246434082512 0 0 0
809 73 2 -0.3889835 11.118345110493175 1.43794767229097 4.104632256170328 0 0 0
80 8 5 0.0798 12.383376882817236 8.74904076285778 5.212797870663804 0 0 0
79 8 5 0.0798 12.072017208783162 8.09740191879776 3.6453844910622717 0 0 0
71 8 1 0.0955 11.84073696527608 6.785108869973341 5.333498428164121 0 0 0
78 8 5 0.0798 11.253350826269553 7.223898572226117 6.149920806500558 0 0 0
918 82 1 0.1266165 8.711693106098142 6.32020834466127 -0.06200572357515999 0 0 0
76 8 2 -0.4048 12.949547278665328 5.934830509595994 5.8503996270311225 0 0 0
815 73 5 0.0582835 9.450159967893644 0.6081686085295022 3.1608287280457086 0 0 0
95 10 4 -0.5484 6.004630733144588 1.2060819193235401 3.5941115263032346 0 1 0
916 82 4 -0.5800835 10.381557095035141 4.328552157625207 0.3625990684271446 0 0 0
94 10 3 0.8478 5.899606337633088 1.5131578036132909 2.424430455621569 0 1 0
864 77 5 0.0582835 10.074105153981018 8.828238117807672 9.243000877069116 0 0 0
93 10 2 -0.4048 6.926127752134342 2.1383695652151755 1.677142534787356 0 1 0
857 77 2 -0.3889835 10.887490445256471 10.3129284438689 10.396924971702028 0 0 0
917 82 2 -0.3889835 9.93645192228429 6.491729123189789 0.745691529072767 0 0 0
217 22 5 0.0798 9.773331248290466 9.391444746447748 0.849257052988255 0 0 1
384 37 5 0.0582835 8.121987461385594 -0.266545124105916 7.000991524827396 0 0 0
212 22 1 0.0955 10.212374356466146 11.183576869178427 0.10635540486438061 0 0 1
239 24 5 0.0798 10.398906254827237 0.4121709745475781 1.0439394054881337 0 0 0
1003 98 7 -0.58 9.023792941852964 9.741978995738894 3.5784470809477114 0 0 0
624 57 5 0.0582835 11.876280746911508 0.36313714849153356 8.96007576952576 0 1 0
116 12 2 -0.4048 12.218425220814824 7.328561667235068 8.890449785044805 0 0 0
237 24 5 0.0798 12.23149888672251 1.4825096721212174 1.0957383787026667 0 0 0
73 8 2 -0.4048 13.900405571291794 7.574897490343206 4.629000618805209 0 0 0
74 8 3 0.8478 14.147478954485809 6.455672132839229 5.379888339585067 0 0 0
663 61 3 0.7551165 7.818036806584997 0.577000115239365 10.693889243167314 0 0 0
211 22 1 0.0955 10.702410626051533 9.893577253830115 0.5639523222431503 0 0 1
114 12 3 0.8478 13.489548364214123 7.758492722009898 9.119175291636363 0 0 0
115 12 4 -0.5484 13.983677432764592 8.748584408495084 8.566150313257571 0 0 0
812 73 5 0.0582835 14.305495945992282 3.358382835202916 6.5627944046185736 0 0 0
811 73 5 0.0582835 14.107388368567689 1.696218705301725 7.025832548666162 0 0 0
883 79 5 0.0582835 15.714205694132671 10.942205280012677 6.308099761413714 0 0 1
668 61 5 0.0582835 7.4499283763484465 3.9030407074883815 10.725289214045082 0 0 0
47 5 5 0.0798 15.131097881266697 0.9473601035464596 0.9352707956940369 0 0 0
851 76 5 0.0582835 20.740734279825098 8.4086592456919 11.240590520091088 0 0 0
689 63 2 -0.3889835 14.569063129703439 2.107184773911069 11.125678625695938 0 0 0
120 12 5 0.0798 13.797504546592377 5.095772405176563 9.8218003081274 0 0 0
113 12 2 -0.4048 14.154454829109437 6.999984592211563 9.98879577828773 0 0 0
869 78 2 -0.3889835 0.7428518805145572 0.45891769852967057 2.754111194913024 0 1 0
75 8 4 -0.5484 15.335767668203502 6.063149179308356 5.543072216436465 0 0 0
493 47 1 0.1266165 18.370309066320317 10.582815702095512 10.72838083476912 0 0 0
69 7 5 0.0798 6.608345745736997 10.741960233099377 1.613293376390694 0 0 0
826 74 5 0.0582835 -0.16956870298018437 9.040909963569542 9.230545583869397 0 0 0
885 79 5 0.0582835 15.735895983007497 9.213172622763379 5.740391681102536 0 0 1
901 81 1 0.1266165 21.09413393026132 1.1471861135014623 10.45638583200842 0 0 0
245 25 4 -0.5484 10.972861595317122 3.2358700163962455 10.95322217434446 0 0 0
810 73 1 0.1266165 9.997290350413676 0.4773665775293201 4.085200549713047 0 0 0
40 4 5 0.0798 21.566768030951238 2.2753495385187947 4.738873933817882 -1 0 0
743 67 5 0.0582835 -0.2561262751486879 7.938491514444083 3.3567165874848888 1 0 0
879 79 3 0.7551165 16.366051495126115 10.797239041721495 3.6497693629284456 0 0 1
881 79 2 -0.3889835 16.43267651943838 11.235785920875603 2.343175589581343 0 0 1
555 52 3 0.7551165 18.617463699675362 7.639394889846892 6.843561772376599 0 0 0
735 67 3 0.7551165 21.700871367534262 9.48365237056497 1.5928469186981866 0 0 0
907 81 5 0.0582835 20.851296399518453 0.7422931657420813 9.439631124396936 0 0 0
387 38 3 0.7551165 20.95373905441339 2.8465416356857483 1.7967374024487617 -1 0 1
49 5 5 0.0798 16.814338951930715 -0.10615719527428857 2.383941015718841 0 0 0
903 81 3 0.7551165 21.14130536100545 3.295744577610222 9.509756925557852 0 0 0
905 81 2 -0.3889835 21.71693732415048 4.547400584989787 9.438331091085846 0 0 0
911 81 5 0.0582835 21.55157015669404 6.56099536752611 8.765886685641163 0 0 0
912 81 5 0.0582835 21.29218760321308 5.2619302521264855 7.547997005072032 0 0 0
906 81 1 0.1266165 21.13890615188904 5.539238416080228 8.541801808235798 0 0 0
357 35 5 0.0582835 16.651587689954503 0.1137552631474546 5.589663276914079 0 1 0
904 81 4 -0.5800835 20.164590826959177 3.0152039155378225 8.84646343744578 0 0 0
396 38 5 0.0582835 21.07066817188796 1.2153972267927171 -0.3596469874412101 -1 0 1
554 52 2 -0.3889835 19.627001195528813 8.522834187390835 6.5892075562829735 0 0 0
734 67 2 -0.3889835 20.565594122597183 10.10884102419956 1.1756453236168212 0 0 0
388 38 4 -0.5800835 21.919547618404202 3.3271413221452986 1.19988229493817 -1 0 1
563 52 5 0.0582835 16.767563542119696 6.75493393279345 9.459321139271829 0 0 0
733 67 1 0.1266165 20.20807673580039 9.900743446838028 -0.25332459235630417 0 0 0
296 30 2 -0.4048 16.340114688627885 5.562687701051408 1.4754386691628836 0 0 0
557 52 2 -0.3889835 18.14977694082414 7.677998104663313 8.11911251829863 0 0 0
393 38 5 0.0582835 21.76846573487792 4.8719616115180076 3.4347636926398484 -1 0 1
386 38 2 -0.3889835 20.272023028798465 3.5870722306667804 2.7702507079629917 -1 0 1
392 38 5 0.0582835 20.15091413081521 5.472257940655901 3.6943785566042315 -1 0 1
556 52 4 -0.5800835 18.182530777286864 6.899777223312488 5.982361215885563 0 0 0
291 30 1 0.0955 16.24931031206183 6.033223588909225 0.13991128311845735 0 0 0
693 63 5 0.0582835 18.103162069908265 1.6286891975451319 8.958400878620905 0 0 0
564 52 5 0.0582835 16.200694748201123 6.924634308340897 7.74715518662013 0 0 0
33 4 2 -0.4048 20.593159481180386 3.519854230703248 5.888303614053132 -1 0 0
877 79 1 0.1266165 15.237235584618656 10.16436606377544 5.665407238301188 0 0 1
688 63 4 -0.5800835 15.14068661654406 0.7580006164349131 9.38747550320204 0 0 0
37 4 5 0.0798 20.23518089130996 0.5982310969450034 6.616372758512317 -1 0 0
38 4 5 0.0798 20.271315046378575 0.4338027766919814 4.956111254235845 -1 0 0
44 5 3 0.8478 16.364065871342085 2.6790476879874205 3.2491741566247243 0 0 0
974 88 6 1 17.136105460796685 5.484612218622913 5.034252418309485 0 0 0
293 30 2 -0.4048 18.05931705085093 7.032725581053014 1.1944724230515904 0 0 0
737 67 2 -0.3889835 21.963097637659423 9.694994952539211 2.896939778107252 0 0 0
292 30 1 0.0955 17.39276688020164 7.0240548279564985 -0.07408123556582219 0 0 0
561 52 5 0.0582835 20.66947331442109 7.538348716668835 4.945579661241371 0 0 0
394 38 5 0.0582835 22.162391702214002 0.607455752422119 0.9184911330576386 -1 0 1
390 38 1 0.1266165 21.132591934949858 0.7453517430289862 0.6205442323607417 -1 0 1
395 38 5 0.0582835 20.610032293829107 -0.19061294654291155 0.6296847716907721 -1 0 1
35 4 4 -0.5484 18.43882419525653 4.132799470682875 5.979590620591048 -1 0 0
294 30 3 0.8478 17.41411663544004 6.173423706088243 2.0277242724513 0 0 0
560 52 5 0.0582835 21.037405608739206 9.129135088635966 5.161439420505432 0 0 0
696 63 5 0.0582835 12.831801301759349 1.2271807682139089 10.480805940413905 0 0 0
295 30 4 -0.5484 17.74122476369284 5.9861634822300545 3.176089221122662 0 0 0
31 4 1 0.0955 20.174839222781017 1.1912117158006732 5.744954258246013 -1 0 0
685 63 1 0.1266165 17.30807509474156 2.325334029590924 8.718538827349052 0 0 0
46 5 2 -0.4048 15.511825975169186 2.6980595482058347 2.194874712833681 0 0 0
559 52 5 0.0582835 19.34205660276678 8.97230277620623 4.4708467598528285 0 0 0
391 38 5 0.0582835 20.80478923586991 5.533861511132822 2.1425047437666183 -1 0 1
36 4 2 -0.4048 18.9684414205502 1.8862997019120162 5.834025106726585 -1 0 0
43 5 2 -0.4048 17.290748706803896 1.6613388347318985 3.1588836213718974 0 0 0
45 5 4 -0.5484 16.379769277235475 3.449345438309057 4.206070240682508 0 0 0
39 4 5 0.0798 22.122679667985608 2.068853829862509 6.390893361068534 -1 0 0
50 5 5 0.0798 17.958939897027854 0.7344695945305018 1.4034168978704262 0 0 0
553 52 1 0.1266165 20.167953610882456 8.508484754014356 5.1657990742430195 0 0 0
389 38 2 -0.3889835 20.477586621000604 1.5759898751050792 1.589403629913784 -1 0 1
692 63 5 0.0582835 17.83404671012918 3.2870683828599137 8.412200099089947 0 0 0
691 63 5 0.0582835 16.82585329173481 1.8861117960887035 7.828292717617151 0 0 0
736 67 4 -0.5800835 22.49175592008146 8.770826799688034 0.8958095759451226 0 0 0
878 79 2 -0.3889835 15.139319084986887 10.607955844110792 4.288046025068769 0 0 1
32 4 1 0.0955 21.253434788697632 2.261316460761112 5.787289524606422 -1 0 0
385 38 1 0.1266165 20.764900675477364 4.892982807644037 3.009562838017086 -1 0 1
687 63 3 0.7551165 15.32866822943509 1.7722706064830902 10.073646194615348 0 0 0
558 52 1 0.1266165 17.066998234715015 6.742511716892922 8.352300535756322 0 0 0
884 79 5 0.0582835 14.215723061929403 10.159184205709652 6.0681047838599715 0 0 1
910 81 5 0.0582835 20.093606683993563 5.577467149268075 8.676065115173493 0 0 0
562 52 5 0.0582835 17.445920608339243 5.720423211384361 8.181268691390045 0 0 0
686 63 2 -0.3889835 16.355887025985226 2.619931688888795 9.847806078228071 0 0 0
500 47 5 0.0582835 18.523286470409786 9.583070632525537 10.35065573233557 0 0 0
34 4 3 0.8478 19.26510254611251 3.235427597757507 5.918772960796237 -1 0 0
42 5 1 0.0955 17.08696732552834 0.9277815196906283 2.023766089806445 0 0 0
902 81 2 -0.3889835 21.722173960519214 2.421303151730053 10.37678257108677 0 0 0
866 78 2 -0.3889835 1.8467684692001067 0.14364708138771665 0.8161787620852519 0 1 0
880 79 4 -0.5800835 17.39028718098111 10.572308941849546 4.25318143260762 0 0 1
909 81 5 0.0582835 20.071660768429922 1.1925370399624735 10.972265479272469 0 0 0
232 24 1 0.0955 10.494290742673803 0.8699013619626084 0.08256703969160029 0 0 0
240 24 5 0.0798 9.774354491491392 1.6200804385576237 -0.042629153026322475 0 0 0
874 78 5 0.0582835 1.2347937474593402 -0.1730117938612743 4.690264340986441 0 1 0
908 81 5 0.0582835 21.780315066972214 0.5236273448537889 11.003486425810165 0 0 0
54 6 3 0.8478 3.992802988919551 1.13602299873265 19.962995274943047 0 0 0
221 23 1 0.0955 2.593505298464933 3.552917881570207 16.80173883251574 0 0 0
222 23 1 0.0955 1.1680155321804178 3.342909655815966 17.082798609279152 0 0 0
223 23 2 -0.4048 0.8645438711916209 4.251354994151056 18.105232344113276 0 0 0
224 23 3 0.8478 2.0042159949821707 4.9590182713321775 18.441808955361495 0 0 0
225 23 4 -0.5484 1.9871656136540983 5.792653053178285 19.320387047492353 0 0 0
226 23 2 -0.4048 3.087867731568961 4.600034146452716 17.709720965080557 0 0 0
227 23 5 0.0798 2.6894015342925397 4.056409803430921 15.83237355674382 0 0 0
228 23 5 0.0798 3.1501031681071145 2.6203384796106186 16.769553023463452 0 0 0
229 23 5 0.0798 0.5150903342548395 3.179836092015933 16.254755748597553 0 0 0
230 23 5 0.0798 1.2131046851645466 2.3824994095546463 17.611986003451946 0 0 0
289 29 5 0.0798 2.249408091384889 4.985301554883997 11.686627793003893 0 0 0
516 48 5 0.0582835 4.176990720722305 5.149620905210193 20.516553077815153 0 0 -1
977 91 6 1 1.4296644302978385 7.140338024378884 20.569618797653376 0 0 0
508 48 4 -0.5800835 2.4564569215458643 6.621003152197149 22.053624752518374 0 0 -1
56 6 2 -0.4048 4.138998524191947 1.283142754599581 18.635978103637754 0 0 0
510 48 1 0.1266165 4.86580901077982 5.905704377950371 20.86833575886463 0 0 -1
514 48 5 0.0582835 4.630881646164585 6.752801386415527 20.226544588850416 0 0 -1
724 66 4 -0.5800835 1.8512883838114562 8.904107090102197 20.068590771689273 0 0 -1
604 56 4 -0.5800835 4.45011276923682 2.169528276325976 14.234171144809684 0 0 0
531 50 3 0.7551165 6.55884674215906 9.047608568632333 13.839053735484725 0 0 0
285 29 4 -0.5484 0.8480126832242505 6.179304755236553 15.310296820648436 0 0 0
515 48 5 0.0582835 5.854958538157481 5.541717547306932 20.644294348624904 0 0 -1
284 29 3 0.8478 0.8345643460530334 5.7342201813073155 14.187583941734172 0 0 0
532 50 4 -0.5800835 7.3258082116991385 9.396730182041306 14.710375811951108 0 0 0
725 66 2 -0.3889835 3.4635975175829357 10.32386661564746 19.750118692836345 0 0 -1
726 66 1 0.1266165 3.8315268266877647 9.685546479735532 18.59668504276408 0 0 -1
730 66 5 0.0582835 3.005681356134972 9.549577016949607 17.95646717429581 0 0 -1
723 66 3 0.7551165 2.4482021776573424 9.881914577534468 20.470888105034774 0 0 -1
609 56 5 0.0582835 3.792024044033921 4.413713760940588 13.699279213974 0 0 0
530 50 2 -0.3889835 5.355541054955557 9.63221229978265 13.642970157653508 0 0 0
732 66 5 0.0582835 4.430386917696687 8.785904402433644 18.76973127882691 0 0 -1
731 66 5 0.0582835 4.491611241049269 10.33725671446183 17.992971713953388 0 0 -1
476 45 5 0.0582835 6.899412339640335 9.976301334363677 18.66825216984651 0 0 0
606 56 1 0.1266165 4.647280101753211 -0.2639051447038206 13.0015154539187 0 0 0
283 29 2 -0.4048 1.4943505075668364 6.269458926548311 13.09301099933256 0 0 0
603 56 3 0.7551165 4.715601881774043 2.1083834076617562 13.042593172809308 0 0 0
721 66 1 0.1266165 0.9352736145265383 9.97775371420184 22.36571172984543 0 0 -1
601 56 1 0.1266165 4.797963592954307 4.418881708501336 13.145735799725104 0 0 0
607 56 5 0.0582835 5.622449453668701 4.44991623040493 13.768576950439964 0 0 0
55 6 4 -0.5484 3.7690593555002403 2.073449962031991 20.72224820448546 0 0 0
425 41 2 -0.3889835 0.9213926843177642 0.8750413019130565 19.72520866904261 0 0 -1
727 66 5 0.0582835 1.0258927742877193 8.875002488808775 22.385701374376865 0 0 -1
605 56 2 -0.3889835 4.845105768673217 0.958716677826815 12.294156624756697 0 0 0
602 56 2 -0.3889835 4.9370887410927775 3.2733179493784137 12.286381497547762 0 0 0
722 66 2 -0.3889835 2.094003393119995 10.521244547641164 21.612928123002384 0 0 -1
537 50 5 0.0582835 4.902864451227919 10.393788659576865 15.546317271534827 0 0 0
65 7 4 -0.5484 6.4646508582522015 8.454242431845522 21.17351168234707 0 0 -1
523 49 5 0.0582835 3.5265836244904984 6.236719058112208 15.508239898032368 0 0 0
524 49 5 0.0582835 3.116635696824476 7.846278301457348 15.153866171799734 0 0 0
286 29 2 -0.4048 0.13724546359841572 4.597911710032405 13.825390751148054 0 0 0
66 7 2 -0.4048 4.833556358620298 9.014656115012375 22.72191655216445 0 0 -1
517 49 1 0.1266165 4.009051417527563 7.236949622420872 15.253279090108594 0 0 0
525 49 5 0.0582835 4.5502201641272 7.1370123029545 14.351805432499217 0 0 0
518 49 2 -0.3889835 4.781097863420449 7.728936496789618 16.36632620039184 0 0 0
520 49 4 -0.5800835 6.176448353102973 5.898779658882777 16.224078125960105 0 0 0
608 56 5 0.0582835 4.75194623619875 5.335146433736277 12.574803523098032 0 0 0
64 7 3 0.8478 6.145835831809517 8.939918455009193 22.243993579240012 0 0 -1
801 72 5 0.0582835 0.7192632970494837 10.154332321707674 13.573433268092261 1 0 0
311 31 5 0.0582835 6.459289866475031 3.724247727424169 18.122654480919003 0 1 0
740 67 5 0.0582835 19.398786950400293 10.629888462768445 22.77265067810758 0 0 -1
306 31 1 0.1266165 6.715918235462695 3.032075792393129 17.33628655861748 0 1 0
312 31 5 0.0582835 7.055165178260606 3.57249510427451 16.493101422906193 0 1 0
310 31 5 0.0582835 5.861790077100116 2.4496039226026083 17.022985154514075 0 1 0
519 49 3 0.7551165 5.874251981071189 6.958572298734914 16.762190637318795 0 0 0
739 67 5 0.0582835 19.99050485716745 8.830153001129736 22.86556443873077 0 0 -1
53 6 2 -0.4048 4.115904221862382 -0.15510144588006589 20.43456226423423 0 0 0
288 29 5 0.0798 22.68614689539705 4.41927534327988 11.931960367318805 -1 0 0
287 29 5 0.0798 0.7233769299353479 3.3599448351154235 12.155556598222528 0 0 0
521 49 2 -0.3889835 6.56717625948385 7.450837854478394 17.798221440426936 0 0 0
509 48 2 -0.3889835 4.640759899666684 6.068592800503014 22.3483517488731 0 0 -1
58 6 5 0.0798 5.24504477947348 -0.13382744273614341 17.50030929527786 0 0 0
300 30 5 0.0798 17.131203637321143 7.9365936719584695 22.675400591091027 0 0 -1
282 29 1 0.0955 1.2608990451775675 5.44545124339726 11.9226547669461 0 0 0
281 29 1 0.0955 0.33075177884178864 4.311661324153277 12.388771717344227 0 0 0
529 50 1 0.1266165 4.905905567705851 10.764621264882333 14.525497786394714 0 0 0
547 51 5 0.0582835 22.45546052235212 8.764382407256289 18.607036112108858 -1 0 0
426 41 1 0.1266165 0.41327156477163707 1.7715491901995861 20.749215261874923 0 0 -1
544 51 4 -0.5800835 22.869170273561693 7.184762587811599 20.61919671713528 -1 0 0
194 20 3 0.8478 16.231739783928163 -0.31011874671383277 14.105441592869752 0 1 0
541 51 1 0.1266165 21.82129453057552 9.275895913335445 19.33230789116186 -1 0 0
431 41 5 0.0582835 0.7175015561947156 2.764302356266041 20.481331756783902 0 0 -1
729 66 5 0.0582835 -0.036427669241816174 10.279445376682512 21.91182587067901 0 0 -1
195 20 4 -0.5484 16.273820636477794 0.41440223794655906 13.164923036198646 0 1 0
138 14 5 0.0798 18.15281945267285 11.06938262534923 16.898555306290298 0 0 0
430 41 5 0.0582835 0.8925408551139633 1.51238650033577 21.644045486057372 0 0 -1
856 77 4 -0.5800835 11.259334900362175 8.414002439730115 11.733486720763183 0 0 0
847 76 5 0.0582835 18.018128521995393 3.60825521513805 13.499942779431786 0 0 0
533 50 2 -0.3889835 6.872385558764777 8.068143612471738 13.00218425660839 0 0 0
214 22 3 0.8478 10.915553779132567 10.045785927435197 21.540515447018223 0 0 0
534 50 1 0.1266165 8.19586873612543 7.446777845995273 13.214536517680584 0 0 0
305 31 2 -0.3889835 7.712644433252116 2.1623238829015534 17.83953695415942 0 1 0
303 31 3 0.7551165 8.155760601718676 1.2207316838387074 16.887689002143546 0 1 0
216 22 2 -0.4048 11.157748809880175 9.196451346640163 22.699798998604017 0 0 0
501 47 5 0.0582835 19.10928690726331 10.655960931582312 11.498973300472105 0 0 0
490 46 5 0.0582835 18.47149058105022 0.8305589026878604 18.317236699260917 0 0 0
694 63 5 0.0582835 13.892757518757016 0.22750212131013636 11.569161331071998 0 0 0
438 42 1 0.1266165 12.511706916211741 -0.01042673824182444 18.142565729221985 0 0 0
575 53 5 0.0582835 12.854620821878225 6.986819772098238 21.98035159860516 0 0 0
304 31 4 -0.5800835 7.697680611713421 1.200097720074385 15.745366826757328 0 1 0
248 25 5 0.0798 8.254143720197629 3.6695192257540663 14.003967146345317 0 0 0
859 77 5 0.0582835 14.006770384920125 8.759160210831997 12.494906193794497 0 0 0
569 53 2 -0.3889835 12.143019650559467 5.216463696566189 21.25191147697584 0 0 0
233 24 2 -0.4048 10.531082018486943 -0.3204685888103618 22.51779192435172 0 0 -1
538 50 5 0.0582835 8.243793790343426 7.035164170590198 14.232330235827819 0 0 0
574 53 5 0.0582835 11.042207105896471 6.927410237625196 21.715796797824872 0 0 0
477 45 5 0.0582835 7.73719941053178 10.723879222769432 17.255030531854025 0 0 0
572 53 5 0.0582835 10.466256799152953 1.3952437109085423 19.701769987819254 0 0 0
540 50 5 0.0582835 9.049998656387421 8.121422239729434 13.106014055907194 0 0 0
576 53 5 0.0582835 12.22017388474362 7.114608072773787 20.362201605104346 0 0 0
799 72 5 0.0582835 22.456442512590222 10.13215471210582 14.391842407587397 0 0 0
435 42 3 0.7551165 13.638961122430649 1.5052888551083767 16.660762745518788 0 0 0
255 26 4 -0.5484 11.787879746320806 5.02862336997429 16.240193031434814 0 0 0
434 42 2 -0.3889835 14.732917049397946 2.322298694927159 16.484407563027688 0 0 0
243 25 2 -0.4048 10.81642726524793 2.159347051620155 12.903594180063028 0 0 0
249 25 5 0.0798 10.802601971848546 2.4980425037631084 14.965417561336652 0 0 0
253 26 2 -0.4048 11.218298048832283 7.178455900166579 15.642431207477957 0 0 0
254 26 3 0.8478 11.667677322476264 6.213544994473022 16.52147622784114 0 0 0
469 45 1 0.1266165 7.831171457032308 10.4174506200445 18.327770899495818 0 0 0
256 26 2 -0.4048 11.947813277210678 6.721487194089071 17.72360202665459 0 0 0
250 25 5 0.0798 9.43117345805423 1.6109741174824486 14.309327042484068 0 0 0
252 26 1 0.0955 11.224242476529815 8.492026435267196 16.4337191567044 0 0 0
260 26 5 0.0798 11.995565005668308 9.204298283200252 16.041437878485084 0 0 0
259 26 5 0.0798 10.34465023536725 9.151367482978076 16.398524772311355 0 0 0
241 25 1 0.0955 9.361473554522048 3.7370649686593325 13.84594322253154 0 0 0
258 26 5 0.0798 12.528441260931038 8.712689688489117 18.171173322661524 0 0 0
257 26 5 0.0798 10.860598855090176 8.317045783216377 18.499003405824674 0 0 0
522 49 1 0.1266165 7.714423735374055 6.656725847373816 18.25269496156384 0 0 0
526 49 5 0.0582835 8.476096280932138 6.626463283322426 17.462569555790296 0 0 0
528 49 5 0.0582835 7.449064974060451 5.65029118890372 18.721708690980492 0 0 0
251 26 1 0.0955 11.69802548739934 8.123789135585694 17.778042955760576 0 0 0
242 25 1 0.0955 10.094698782368352 2.405261304447638 14.116550537549212 0 0 0
246 25 2 -0.4048 9.68842646058098 4.137627190366639 12.55301268121557 0 0 0
527 49 5 0.0582835 8.179616151046023 7.134259431018277 19.111834719458827 0 0 0
247 25 5 0.0798 9.722365424600873 4.483804310734231 14.530234257247004 0 0 0
5 1 4 -0.5484 18.138047361363576 -0.1299585718389291 21.81732962639505 0 0 0
244 25 3 0.8478 10.532244252166636 3.174703549720136 12.078843395762847 0 0 0
436 42 4 -0.5800835 12.786062323753779 1.3667397133960224 15.74561629813603 0 0 0
861 77 5 0.0582835 12.71087681543018 9.300082442600457 13.581079596001246 0 0 0
860 77 5 0.0582835 14.046397577677405 10.270760619536924 13.237868275392955 0 0 0
853 77 1 0.1266165 13.37871076254225 9.603768492314 12.792147425908894 0 0 0
215 22 4 -0.5484 11.158282843215714 9.79664958904333 20.382548711876225 0 0 0
318 32 1 0.1266165 15.677840997357078 9.337605261336794 20.12720286078158 0 0 0
324 32 5 0.0582835 15.18100078194272 9.163088726857108 21.027258933932167 0 0 0
573 53 5 0.0582835 9.261129370922841 2.709798607608887 20.248508622695105 0 0 0
567 53 3 0.7551165 11.145018613368391 4.536930708954894 20.550082604100737 0 0 0
565 53 1 0.1266165 10.23604834844829 2.4672341906228947 19.723056623629688 0 0 0
437 42 2 -0.3889835 13.594280457702093 0.8641498191609343 17.888511843161382 0 0 0
568 53 4 -0.5800835 10.179161312019563 5.160214870215925 20.0320911850743 0 0 0
571 53 5 0.0582835 10.222768856842366 2.807439791323553 18.74696249017473 0 0 0
695 63 5 0.0582835 12.932684108844867 1.6067350490514998 12.341880956561727 0 0 0
566 53 2 -0.3889835 11.33365141056765 3.1338757435028017 20.473907242552066 0 0 0
570 53 1 0.1266165 12.010070369030299 6.62501484948961 21.360032681032543 0 0 0
317 32 2 -0.3889835 15.273867822445183 8.414129206171614 19.10261156745249 0 0 0
475 45 5 0.0582835 8.557661996260185 9.676916340667667 18.387532304573263 0 0 0
923 82 5 0.0582835 8.948406848946172 5.908101695298687 22.25533051362251 0 0 -1
238 24 5 0.0798 11.887404514748301 2.380108179818347 22.912368106474098 0 0 -1
690 63 1 0.1266165 13.482020125317929 1.255695948535311 11.434647979271976 0 0 0
539 50 5 0.0582835 8.350938256148714 6.564444971818801 12.512002160994045 0 0 0
795 72 3 0.7551165 22.36734668310043 11.028721593432868 11.697927126839565 0 0 0
314 32 2 -0.3889835 14.90861875553488 6.295185648063288 18.477562771781436 0 0 0
439 42 5 0.0582835 13.798462302504753 3.5079476633487725 15.026462705124425 0 0 0
854 77 2 -0.3889835 12.598898177841663 10.236556246906561 11.804835980537556 0 0 0
440 42 5 0.0582835 15.681742676481017 3.5659458800563835 15.049294903742357 0 0 0
433 42 1 0.1266165 14.775560212354886 2.954613756117816 15.17645307595365 0 0 0
441 42 5 0.0582835 14.814167005230452 2.2844014852125043 14.346937750684573 0 0 0
315 32 3 0.7551165 15.329301558346575 7.126889257629335 19.489457157709303 0 0 0
319 32 5 0.0582835 14.234469352627807 4.668013839577858 19.60476123697582 0 0 0
137 14 5 0.0798 19.79261322793814 10.709258478965708 17.127895094087428 0 0 0
444 42 5 0.0582835 11.552129033239368 0.3894776080131419 17.881249543713587 0 0 0
299 30 5 0.0798 18.13370814864244 6.503488859829779 22.60613427914653 0 0 -1
841 76 1 0.1266165 18.224945884599236 3.4461896466150295 12.443611852765802 0 0 0
152 16 1 0.0955 16.944875117689982 7.679149918145839 14.207303818092106 0 0 0
741 67 5 0.0582835 20.999735432644485 10.100431259712462 22.371048418470203 0 0 -1
481 46 1 0.1266165 19.97790141691761 5.144929410058798 16.469869613572342 0 0 0
794 72 2 -0.3889835 22.492386662491143 9.772037608466189 12.223213848432827 0 0 0
545 51 2 -0.3889835 20.895520468215665 6.206051518808215 21.373896594880428 -1 0 0
153 16 2 -0.4048 17.911505504566257 8.537341776178938 13.663587030243002 0 0 0
487 46 5 0.0582835 19.136446514736633 5.188035598352651 15.879991351675157 0 0 0
491 46 5 0.0582835 17.797273080508035 1.3704601337915676 19.86758988482071 0 0 0
536 50 5 0.0582835 3.868233213436495 11.070827607538064 14.237982260122088 0 0 0
151 16 1 0.0955 17.195036990721043 7.586703120682708 15.646069778960753 0 0 0
443 42 5 0.0582835 12.542591749355863 -0.21423539624891674 19.236218507756476 0 0 0
550 51 5 0.0582835 22.319944494879174 5.6232292374210875 22.73584417913198 -1 0 0
451 43 5 0.0582835 22.444003208056614 1.4535621876211713 13.916635934166209 -1 0 0
452 43 5 0.0582835 21.20976151016528 2.3511699494171525 13.125916296687704 -1 0 0
488 46 5 0.0582835 20.39564303941718 6.209356133777716 16.671175049093982 0 0 0
297 30 5 0.0798 16.068936033662368 5.272828538731631 22.711492964374983 0 0 -1
157 16 5 0.0798 17.206852510784884 6.54300192965142 16.049676140073025 0 0 0
119 12 5 0.0798 13.292911511247606 5.589160404465924 11.505582463390605 0 0 0
489 46 5 0.0582835 20.843443143420487 4.554259061935664 16.006369982046856 0 0 0
793 72 1 0.1266165 -0.21077534768451794 9.734150656534046 13.56712878664651 1 0 0
843 76 3 0.7551165 19.538511592570288 5.4667959764215 12.195194836047458 0 0 0
482 46 2 -0.3889835 19.586607757640934 4.557464585220495 17.74262352582157 0 0 0
322 32 5 0.0582835 16.75598302089849 9.121383158905843 20.41464057152826 0 0 0
484 46 4 -0.5800835 18.704680914611124 2.8311999009568813 16.553287358482017 0 0 0
549 51 5 0.0582835 22.460832014609927 9.802587222174768 20.025270805083366 -1 0 0
445 43 1 0.1266165 21.444009058463614 1.96013711666249 14.111703710356553 -1 0 0
156 16 2 -0.4048 18.367767839708726 8.426825538681873 15.876149094330321 0 0 0
852 76 5 0.0582835 20.811222042252396 7.808569696439964 12.875405755164197 0 0 0
432 41 5 0.0582835 22.628284895697483 1.7511510714735348 20.903158475448855 -1 0 -1
160 16 5 0.0798 15.894692370364405 7.872046672441721 13.853027001512912 0 0 0
483 46 3 0.7551165 18.92243336559806 3.349006939760498 17.654449077988843 0 0 0
51 6 1 0.0955 4.367012766337045 -0.007771094516011268 18.09939278632355 0 0 0
848 76 5 0.0582835 17.27849968444822 2.9686847515745467 12.05317055043756 0 0 0
492 46 5 0.0582835 16.945612902332286 1.806573780253232 18.400273198251703 0 0 0
844 76 4 -0.5800835 20.36035390651451 5.123137508713419 13.050145289825332 0 0 0
155 16 4 -0.5484 19.691610665974245 9.709726667238801 14.516923638308047 0 0 0
453 43 5 0.0582835 21.610795592749625 2.6978732219227632 14.889249402932434 -1 0 0
552 51 5 0.0582835 22.27450586878401 4.587094473446507 21.24403063337204 -1 0 0
846 76 1 0.1266165 20.78087662412625 7.533032146324731 11.826025929602693 0 0 0
447 43 3 0.7551165 20.8238870938018 0.3543622580974427 15.86317839183465 -1 0 0
850 76 5 0.0582835 21.749999999730903 7.062707585226453 11.569465546647345 0 0 0
323 32 5 0.0582835 15.56403470867268 10.3899231334699 19.896363346377804 0 0 0
845 76 2 -0.3889835 19.636439440943114 6.657097063643955 11.513850019728148 0 0 0
313 32 1 0.1266165 14.910053508136798 4.874401290546794 18.73072377957969 0 0 0
849 76 5 0.0582835 19.09732244306302 2.7238119645814107 12.340597441354308 0 0 0
842 76 2 -0.3889835 18.459282272807613 4.750142362611277 11.804746784944932 0 0 0
158 16 5 0.0798 16.30975034627562 8.077439642022824 16.079915890875448 0 0 0
548 51 5 0.0582835 21.227491860578915 10.087804615408016 18.84357884492175 -1 0 0
543 51 3 0.7551165 21.67596622038566 7.220857960261111 20.67918705361501 -1 0 0
546 51 1 0.1266165 21.687988120617284 5.151639708198318 21.968550318154918 -1 0 0
448 43 4 -0.5800835 21.769613828209806 0.7468870737571984 16.519250641614512 -1 0 0
136 14 2 -0.4048 18.608714312771077 10.88635449246321 18.86721374916459 0 0 0
321 32 5 0.0582835 15.895445544603843 4.5583842396148855 18.889894742792578 0 0 0
320 32 5 0.0582835 14.462116587972409 4.341213891020101 17.89339196102452 0 0 0
486 46 1 0.1266165 17.91764668807675 1.6613214760026995 18.836526140884025 0 0 0
159 16 5 0.0798 17.021356294392184 6.659903364391755 13.808892172921057 0 0 0
485 46 2 -0.3889835 18.593807959608426 2.891251444796657 18.868303918670357 0 0 0
542 51 2 -0.3889835 20.9681858720132 8.284474705450116 20.049973556989187 -1 0 0
446 43 2 -0.3889835 20.538150402572448 0.9001861470073818 14.62245057172935 -1 0 0
154 16 3 0.8478 18.725363184245865 8.946356784158105 14.672169954673977 0 0 0
800 72 5 0.0582835 -0.12140497840884162 8.634090157698159 13.813620130845907 1 0 0
316 32 4 -0.5800835 15.711107863470014 6.75426919012361 20.585778232663387 0 0 0
855 77 3 0.7551165 11.563453880868783 9.547219927943805 11.347711946049753 0 0 0
872 78 5 0.0582835 2.8348346981447627 -0.27669863084154583 22.339028457644147 0 1 -1
213 22 2 -0.4048 10.35937023093004 11.229991228223186 21.946429396909544 0 0 0
302 31 2 -0.3889835 9.090526650303229 0.31109491747715834 17.246328195844647 0 1 0
307 31 5 0.0582835 9.965543220278464 -0.2809167933940516 15.33072349470759 0 1 0
551 51 5 0.0582835 21.092320569676183 4.3777909274195945 22.392912362001034 -1 0 0
236 24 2 -0.4048 12.5841282202851 0.5378418666613335 22.554643462304668 0 0 -1
57 6 5 0.0798 3.5132923421105517 -0.22860823284490914 17.497924068289997 0 0 0
507 48 3 0.7551165 3.393466448851422 6.422573543119486 22.79332008593869 0 0 -1
610 56 5 0.0582835 3.7283371626210027 -0.2934858657343824 13.592945195373149 0 0 0
99 10 5 0.0798 7.11435497549648 1.824674675118978 22.889099618509032 0 1 -1
97 10 5 0.0798 4.752364014852541 1.1938876979268473 22.787654726493987 0 1 -1
459 44 3 0.7551165 2.7841704289504032 20.11929704742296 7.840365236385308 0 -1 0
181 19 1 0.0955 6.818503363558965 12.126165111788236 7.8572448648134845 0 0 0
182 19 1 0.0955 6.239677394636948 12.723705622636928 6.586229150023002 0 0 0
183 19 2 -0.4048 5.6152126934853355 13.932767556365697 7.017995800322412 0 0 0
184 19 3 0.8478 5.805417015019861 14.107336439057633 8.430002286240487 0 0 0
185 19 4 -0.5484 5.4030091588837985 15.033837383198746 9.134383325173872 0 0 0
186 19 2 -0.4048 6.50993410502328 13.048121376870876 8.924628883342475 0 0 0
262 27 1 0.0955 7.593059288124521 19.143024231955327 2.41424739981068 0 0 0
269 27 5 0.0798 7.406675221579648 18.058278348123938 2.1335666831468645 0 0 0
270 27 5 0.0798 7.290603386324332 19.291297495578565 3.400942724602824 0 0 0
591 55 3 0.7551165 1.062944029086131 15.259606394402734 4.839001644431501 0 0 0
593 55 2 -0.3889835 1.2535663043747538 13.954795652579554 5.054085374237066 0 0 0
594 55 1 0.1266165 2.3868968076774704 13.535937772782603 5.851916993423409 0 0 0
598 55 5 0.0582835 2.3362972393601593 14.00670280276719 6.88774975952226 0 0 0
599 55 5 0.0582835 2.3258700766953964 12.430302343928455 5.99406451175452 0 0 0
461 44 2 -0.3889835 1.7293217723485355 20.58000632602073 7.080595279315657 0 -1 0
263 27 2 -0.4048 6.8930812906576415 20.11997314942266 1.6285063644647195 0 0 0
400 39 4 -0.5800835 5.884309263852663 15.827810650398014 3.770069891024053 0 0 0
458 44 2 -0.3889835 3.1054175382047178 20.964430897609947 8.891484322450056 0 -1 0
595 55 5 0.0582835 0.5175923419533482 17.171011360358122 3.1227304284278117 0 0 0
592 55 4 -0.5800835 1.837112483449117 16.10625290383635 5.313950985315678 0 0 0
457 44 1 0.1266165 4.2495495343107 20.538880704101334 9.70110583426696 0 -1 0
460 44 4 -0.5800835 3.432176721051049 19.072279897997714 7.6450622170842095 0 -1 0
189 19 5 0.0798 6.979235994740969 13.01723360859691 5.8944557034204665 0 0 0
347 34 5 0.0582835 5.347628827885679 17.74796891280791 10.320608139339667 0 0 0
468 44 5 0.0582835 2.219356608021395 19.461550389809375 5.373196986123345 0 -1 0
467 44 5 0.0582835 0.7075833808043686 20.123201760489984 5.268923359738601 0 -1 0
462 44 1 0.1266165 1.4066284198860046 19.680431991492952 5.984242080308408 0 -1 0
466 44 5 0.0582835 0.9682613590581035 18.769933986798325 6.333954675437814 0 -1 0
600 55 5 0.0582835 3.3488250476402612 13.662533532992082 5.307305950526116 0 0 0
349 35 1 0.1266165 16.90370011966447 22.352079585709287 5.371816923855 0 0 0
868 78 4 -0.5800835 1.8801474957725537 21.84660300354872 2.2920281951323997 0 0 0
379 37 5 0.0582835 4.023803569615439 22.27843571871625 4.299095761925054 0 -1 0
418 40 5 0.0582835 2.620345893196342 13.142674442291469 1.6228691499778565 0 0 0
399 39 3 0.7551165 4.889434066480279 15.687891702383904 3.0246812686798425 0 0 0
398 39 2 -0.3889835 4.635764909641591 14.649720825387393 2.250426134831392 0 0 0
404 39 5 0.0582835 5.409332834776622 12.936133304862253 1.496650553588543 0 0 0
407 39 5 0.0582835 4.35511294231164 17.710871922752304 4.838779697910439 0 0 0
397 39 1 0.1266165 5.642055191780251 13.607923706480234 2.327728130449215 0 0 0
403 39 5 0.0582835 5.593630706882171 13.082773782346214 3.326714344557023 0 0 0
402 39 1 0.1266165 4.096820309097728 17.873523407222226 3.7458820777708413 0 0 0
401 39 2 -0.3889835 3.928987802215981 16.67224293772293 2.945082515714041 0 0 0
405 39 5 0.0582835 6.6665262971582635 13.976713479312773 2.1936133104770006 0 0 0
381 37 5 0.0582835 3.9993412326419824 20.57390935145202 4.79854923046038 0 -1 0
20 2 5 0.0798 5.818733667081432 18.088559829843746 6.629126417429968 0 0 0
419 40 5 0.0582835 2.6623958415057465 14.760022528309001 0.6567644008927733 0 0 0
818 74 2 -0.3889835 2.215043306189217 12.129609099213642 9.26745950283869 0 0 0
190 19 5 0.0798 5.66137667467692 11.961216561435467 6.068639326060038 0 0 0
380 37 5 0.0582835 4.052588542561514 21.00191322937837 3.131867962956258 0 -1 0
374 37 2 -0.3889835 5.889393052070009 21.256765087303073 4.168180850353417 0 -1 0
373 37 1 0.1266165 4.416970782931282 21.271288231010846 4.077632793394683 0 -1 0
187 19 5 0.0798 7.6725348970092355 11.420168743117735 7.966591871612113 0 0 0
148 15 5 0.0798 1.2567511835467107 16.34208529139354 8.617877512003659 0 0 0
265 27 4 -0.5484 7.36993951700428 21.995319289448105 0.3410922087932077 0 0 0
406 39 5 0.0582835 3.096860951271245 18.421526882553085 3.5717010106710925 0 0 0
341 34 2 -0.3889835 7.149743846369986 18.19249074896966 11.144113520690539 0 0 0
865 78 1 0.1266165 2.6521562573197297 22.598998431074364 -0.03202205293212651 0 0 0
375 37 3 0.7551165 6.42040853722137 21.626552357183353 5.363610943961212 0 -1 0
342 34 1 0.1266165 5.911948280370287 17.495021404550716 11.204183746813271 0 0 0
873 78 5 0.0582835 3.5653407337854244 22.289724106672303 0.46022705715265655 0 0 0
463 44 5 0.0582835 5.143924642694871 20.36892814918163 9.191158930666337 0 -1 0
817 74 1 0.1266165 3.2442690630632463 12.325713242302529 10.257343317425232 0 0 0
802 72 5 0.0582835 22.514410315338864 12.8357067972341 9.579097051907349 0 0 0
414 40 1 0.1266165 1.9907763342062004 13.902424769674214 1.0478424681818497 0 0 0
420 40 5 0.0582835 1.2565487178296177 14.3530480638801 1.7139461932188382 0 0 0
408 39 5 0.0582835 4.8938611242949746 18.485987500404512 3.3562823010885365 0 0 0
19 2 5 0.0798 6.578049295639672 16.478019723909416 6.513334114444074 0 0 0
635 58 5 0.0582835 1.6611585135421194 19.191962640509974 0.5648370115074769 0 -1 1
142 15 1 0.0955 0.9693516083057026 17.649201990846873 10.312634434161529 0 0 0
886 79 5 0.0582835 17.718147487673775 11.90468275237465 0.8971966466773464 0 0 1
17 2 5 0.0798 7.466677747375625 16.991356349958174 8.63210999935784 0 0 0
12 2 1 0.0955 6.776642842720377 17.511015077082604 6.686373251048774 0 0 0
11 2 1 0.0955 7.427313312262983 17.804647832801304 7.951240601068795 0 0 0
18 2 5 0.0798 6.800751832285077 18.54219076380462 8.467712012142343 0 0 0
413 40 2 -0.3889835 1.3127019987405686 13.248943821784323 0.006775691167345554 0 0 0
141 15 1 0.0955 1.7849044240136296 16.67139134266337 9.500670923687062 0 0 0
147 15 5 0.0798 2.743291314459044 17.047970430057685 9.263185836296975 0 0 0
465 44 5 0.0582835 3.9827912857943426 19.651328439397304 10.212431386095437 0 -1 0
376 37 4 -0.5800835 5.666667411831572 21.944780973098407 6.269348825603895 0 -1 0
149 15 5 0.0798 1.6606124154612218 18.320151416396325 10.778058153044677 0 0 0
622 57 5 0.0582835 11.597429368797089 22.214725262494277 8.01317303139234 0 0 0
824 74 5 0.0582835 3.612153766486111 13.391708818756435 10.20954490997648 0 0 0
636 58 5 0.0582835 1.3375633225523733 17.697299621910634 -0.18021537820523256 0 -1 1
146 15 2 -0.4048 1.758907379770597 15.500582129707126 10.28970301855767 0 0 0
150 15 5 0.0798 0.37523644412573864 18.33727399520615 9.72063385399952 0 0 0
952 85 4 -0.5800835 14.981073608058841 13.760958752803768 10.92260773014749 0 0 0
1000 98 7 -0.58 9.422607226269292 12.07877883138235 3.05152670811695 0 0 0
219 22 5 0.0798 9.261415439085054 11.455761243750239 0.5205876316250081 0 0 1
464 44 5 0.0582835 4.529400640780538 21.23553803457971 10.490946169720111 0 -1 0
630 58 1 0.1266165 2.1201654201754834 18.470158187250153 -0.12882375282966657 0 -1 1
634 58 5 0.0582835 3.0665589131613125 18.20386765551137 0.264102891106729 0 -1 1
382 37 5 0.0582835 7.899946590331513 21.40642349147302 7.590796129621895 0 -1 0
264 27 3 0.8478 7.700920101441742 21.0469475523964 1.0653582150579457 0 0 0
383 37 5 0.0582835 9.373385560550863 21.809152039154654 6.86707746026265 0 -1 0
28 3 5 0.0798 7.750295083134347 15.075260875376157 0.5096281876576211 0 0 1
27 3 5 0.0798 8.730155095505898 13.780148264210684 1.0374527751869962 0 0 1
377 37 2 -0.3889835 7.746824317292672 21.585583821869918 5.460502623048476 0 -1 0
829 75 1 0.1266165 13.791765413747228 13.431683510446952 0.9343129573298243 0 0 0
332 33 5 0.0582835 8.913560096972185 15.43155700784935 5.0163561077752945 0 0 0
333 33 5 0.0582835 9.507258483614645 16.28526352479176 3.7550765255475236 0 0 0
168 17 5 0.0798 9.850559643898611 12.062628897758767 8.08078845171474 0 0 0
128 13 5 0.0798 11.56563659738857 20.045724586723303 0.18951922659005593 0 0 0
325 33 1 0.1266165 9.842090968463392 15.56678044721943 4.4533770293766315 0 0 0
331 33 5 0.0582835 10.214673898729556 14.667351400990588 3.9898680187881954 0 0 0
378 37 1 0.1266165 8.282773366705888 21.964889033823862 6.775268031139 0 -1 0
166 17 2 -0.4048 9.700267480255642 12.957163042442643 10.10467283331282 0 0 0
326 33 2 -0.3889835 10.99168496853079 16.112537470980723 5.3050682414731245 0 0 0
161 17 1 0.0955 9.99664300769135 12.955660783750561 8.6778781407286 0 0 0
348 34 5 0.0582835 6.092203932385607 16.437706687599086 11.05222080294673 0 0 0
751 68 5 0.0582835 12.95500230028081 12.133319376877747 5.116434989512106 0 0 0
163 17 2 -0.4048 9.155274436941626 15.016292909638905 9.195749607004586 0 0 0
164 17 3 0.8478 9.214550062574059 14.204120075947058 10.352773161459154 0 0 0
753 68 5 0.0582835 12.297689212513085 13.788117167543108 5.220695054579709 0 0 0
267 27 5 0.0798 9.397673831986232 18.76536578788738 1.688523129786982 0 0 0
261 27 1 0.0955 8.997619044246552 19.561394976804838 2.274339630233754 0 0 0
162 17 1 0.0955 9.623757336001981 14.254292486954153 8.13504149468623 0 0 0
585 54 5 0.0582835 11.664625531733975 18.977007296775277 10.130311444617032 0 0 0
268 27 5 0.0798 9.628116882244182 19.635516160710896 3.1295446919666325 0 0 0
266 27 2 -0.4048 8.979529333129324 20.773641108476657 1.4269194013473887 0 0 0
359 35 5 0.0582835 11.79193675038283 20.14865742740418 5.16587135055138 0 0 0
358 35 5 0.0582835 12.059309762000309 21.52167604877566 6.123866007818628 0 0 0
336 33 5 0.0582835 14.795636625287951 16.690604374327293 4.053488526653281 0 0 0
335 33 5 0.0582835 15.111287346216896 17.857260970701287 5.395029050974123 0 0 0
583 54 5 0.0582835 10.898909917974553 18.897291030386423 8.556988060571664 0 0 0
334 33 5 0.0582835 14.053869099748955 18.319052050461202 4.0614221661703045 0 0 0
330 33 1 0.1266165 14.379436843801031 17.500792266506675 4.670546102594869 0 0 0
578 54 2 -0.3889835 11.798969394943427 17.118719945977062 9.25720389910964 0 0 0
329 33 2 -0.3889835 13.178736393785695 17.048429480741223 5.410965775962416 0 0 0
327 33 3 0.7551165 12.105998895184689 16.555690049344214 4.680737748763995 0 0 0
616 57 4 -0.5800835 13.625454225843397 21.670305394471786 9.655584238853532 0 0 0
13 2 2 -0.4048 7.6219668124447235 17.996079563786406 5.622856961193174 0 0 0
615 57 3 0.7551165 12.677887643239822 21.43193427738599 10.390329404038553 0 0 0
580 54 4 -0.5800835 13.704297834960453 18.16253192846387 8.554110321102252 0 0 0
14 2 3 0.8478 8.693502794726493 18.564913716376605 6.226720791674501 0 0 0
15 2 4 -0.5484 9.577607090818592 19.076082409588306 5.537893698874095 0 0 0
16 2 2 -0.4048 8.63998389297535 18.476873017807023 7.573618381883423 0 0 0
121 13 1 0.0955 12.09204017721033 20.14932063362336 1.2242516780854273 0 0 0
122 13 1 0.0955 13.533873779873197 19.68428041198641 1.252462773053823 0 0 0
123 13 2 -0.4048 14.318658222345228 20.61771837484032 1.897013576874186 0 0 0
124 13 3 0.8478 13.48666821845313 21.61528430826076 2.246391516951945 0 0 0
126 13 2 -0.4048 12.167955983061878 21.40688554545468 1.869188522572574 0 0 0
127 13 5 0.0798 11.631468424363387 19.531199179352605 2.0254272015600194 0 0 0
129 13 5 0.0798 13.70756093873531 18.714396588143757 1.6745679063734604 0 0 0
360 35 5 0.0582835 12.667597597530614 19.924454207976513 6.765532459366858 0 0 0
581 54 2 -0.3889835 13.570464008978005 15.911023888492267 8.651009178002468 0 0 0
579 54 3 0.7551165 13.065527585425965 17.13707368829209 8.799972241702328 0 0 0
328 33 4 -0.5800835 12.166768134346254 16.504231319873945 3.4555128025638306 0 0 0
577 54 1 0.1266165 11.148817627598095 18.315669645138467 9.491339679875866 0 0 0
26 3 2 -0.4048 9.462309481881059 15.887919686512681 1.0537137267916759 0 0 1
354 35 1 0.1266165 12.486561739767355 20.522817133256385 5.886374542598207 0 0 0
125 13 4 -0.5484 13.861751837410372 22.622897720559912 2.8318368624355363 0 0 0
748 68 4 -0.5800835 14.704609415237618 13.999080433084078 4.123188212763068 0 0 0
951 85 3 0.7551165 13.821877382313238 13.525869979140642 10.516893341462486 0 0 0
621 57 5 0.0582835 14.243473682263266 19.42070052841894 11.078228492781594 0 0 0
170 17 5 0.0798 8.724258035659954 14.011654716791664 7.493361452229588 0 0 0
584 54 5 0.0582835 10.194906776206944 18.113087563837052 9.997358980706515 0 0 0
167 17 5 0.0798 11.084331156179742 13.024033280660673 8.682643325203099 0 0 0
816 73 5 0.0582835 10.411120342878887 22.787389401810874 4.195590228287772 0 -1 0
746 68 2 -0.3889835 14.11926141006476 13.404999812710038 6.282203344868827 0 0 0
950 85 2 -0.3889835 13.546020825027759 12.574594036293743 9.551513517082928 0 0 0
745 68 1 0.1266165 12.79716588462169 12.98919307609857 5.780296331654375 0 0 0
353 35 2 -0.3889835 13.690439844407 20.665806612573068 5.096152616267675 0 0 0
752 68 5 0.0582835 12.135530616317915 12.766623157113967 6.618799529111399 0 0 0
169 17 5 0.0798 10.33471229367418 14.742697993694794 7.396701083260953 0 0 0
836 75 5 0.0582835 13.167414623167922 12.612625852769254 1.2338717630228366 0 0 0
837 75 5 0.0582835 14.652321481840628 13.380049289093247 1.5729680395741112 0 0 0
949 85 1 0.1266165 14.715913974227792 11.90125622305913 9.054365118340552 0 0 0
835 75 5 0.0582835 13.146357470511418 14.254315702269244 0.9517838623876225 0 0 0
1004 98 7 -0.58 7.352127214628592 11.308412001621589 3.9027895212107158 0 0 0
588 54 5 0.0582835 14.966968471039756 16.243343623226224 7.141322974309668 0 0 0
582 54 1 0.1266165 14.902579701869898 15.8592893153983 8.159413264432699 0 0 0
587 54 5 0.0582835 15.176097773164479 14.82944118292207 8.05394858887632 0 0 0
774 70 1 0.1266165 18.687698757598966 15.297590665633633 -0.17526264028428784 0 0 0
21 3 1 0.0955 8.772732145766886 14.716674499098124 0.5038682187154758 0 0 1
948 84 5 0.0582835 21.50824428408834 18.00303069482579 10.73675849801528 -1 0 0
220 22 5 0.0798 10.899196143492134 11.898353811240376 0.4856885373220954 0 0 1
617 57 2 -0.3889835 11.37457312813209 21.96749395912229 10.093294870743058 0 0 0
953 85 2 -0.3889835 12.696236555585736 14.20403907253739 11.002280903468252 0 0 0
25 3 4 -0.5484 10.923573564226988 17.47084630339966 0.17986657513905557 0 0 1
779 70 5 0.0582835 17.896011489553302 16.007609327375047 -0.2232234954387037 0 0 0
590 55 2 -0.3889835 -0.08255186490952415 15.491461637509008 4.0512661427489265 0 0 0
589 55 1 0.1266165 -0.2609025810758888 16.848002730880037 3.8349324542569274 0 0 0
596 55 5 0.0582835 22.12198874788816 17.05236948294033 3.256208445069312 -1 0 0
24 3 3 0.8478 10.255993367321395 16.48629974993503 0.009192368969923648 0 0 1
942 84 1 0.1266165 20.510979850069873 17.53073380123277 10.755520827244489 -1 0 0
943 84 5 0.0582835 21.349179467169378 13.636185096008544 7.3373368652607 -1 0 0
597 55 5 0.0582835 -0.21794470134581445 17.404848135232612 4.806975774588044 0 0 0
368 36 5 0.0582835 22.43384978960453 20.423482282197284 9.049818956075557 0 0 0
882 79 1 0.1266165 17.73533469378438 11.391186436882498 1.850299331292625 0 0 1
680 62 5 0.0582835 22.664121704679893 18.716515610793333 -0.19391467689960545 0 0 0
957 85 5 0.0582835 15.394874252407009 12.550907443775339 8.525439755771425 0 0 0
887 79 5 0.0582835 18.283550130421993 12.072289440016895 2.5636915198383794 0 0 1
369 36 5 0.0582835 22.415817910380966 21.1851352688393 7.484156303538453 0 0 0
674 62 2 -0.3889835 20.73136796302122 18.543643935776327 0.4643799022765789 0 0 0
925 83 1 0.1266165 18.222431300106805 21.9844451607215 11.147226044624459 0 0 0
352 35 4 -0.5800835 14.616802731168136 21.935551657716267 6.786929350653683 0 0 0
494 47 2 -0.3889835 18.57007291354767 11.711164107698556 9.84579558613025 0 0 0
670 61 5 0.0582835 8.897546221258125 21.46070109454903 10.633938859141736 0 -1 0
747 68 3 0.7551165 15.050458042061063 13.92161194412106 5.301310936500252 0 0 0
825 74 5 0.0582835 2.811273448539588 12.051725665034377 11.232910128858823 0 0 0
946 84 5 0.0582835 19.79851923319869 18.284610310398108 11.040068627269665 -1 0 0
673 62 1 0.1266165 21.948865605867184 19.30242795543135 0.35375268211694255 0 0 0
945 84 5 0.0582835 22.373050601369904 15.036502858480858 6.75671949469063 -1 0 0
940 84 4 -0.5800835 22.00758256522804 15.619029885168862 9.454193663692198 -1 0 0
938 84 2 -0.3889835 20.644282459767304 15.709563075262874 7.602346600780617 -1 0 0
804 72 5 0.0582835 20.823859630393557 12.857303150906144 10.111908945639364 0 0 0
937 84 1 0.1266165 21.395164517192633 14.63323929741733 6.837584587244238 -1 0 0
362 36 2 -0.3889835 21.526816419733464 19.29216049028937 7.4938216424390465 0 0 0
944 84 5 0.0582835 20.82757084136619 14.537987359830842 5.926483557559144 -1 0 0
361 36 1 0.1266165 21.792996136122305 20.571991136610553 8.135136210216958 0 0 0
930 83 1 0.1266165 17.109973051425342 18.830433392574335 7.551047274026716 0 0 0
504 47 5 0.0582835 16.838790209412068 15.14418047567682 10.30147037864345 0 0 0
495 47 3 0.7551165 18.167771075759 12.912498982338093 10.391641255980119 0 0 0
803 72 5 0.0582835 21.39758907062876 11.97981849340218 8.704700953319191 0 0 0
498 47 1 0.1266165 17.862513851497667 15.242316926985369 10.218457168142061 0 0 0
926 83 2 -0.3889835 18.441716907207812 20.70875971805729 10.340797852652697 0 0 0
749 68 2 -0.3889835 16.329541998157424 14.311829440378915 5.763875326170522 0 0 0
756 68 5 0.0582835 16.788752527132182 15.785818117886116 4.31570916001763 0 0 0
666 61 1 0.1266165 7.914153721124201 21.517303407096023 11.100477890262946 0 -1 0
683 62 5 0.0582835 16.462289493232277 18.68734107912 1.5708095799973874 0 0 0
769 70 1 0.1266165 21.38407785717149 12.934051731781736 3.062505715506029 0 0 0
502 47 5 0.0582835 18.34611221010291 15.4915195029173 11.16901405119045 0 0 0
675 62 3 0.7551165 19.657607120676253 19.330263585265108 0.9334204989582222 0 0 0
682 62 5 0.0582835 16.971880570761726 20.24350797759606 1.0391641307458461 0 0 0
776 70 5 0.0582835 21.505862478386582 12.629174423746514 4.146395276841353 0 0 0
371 36 5 0.0582835 19.595259822947497 17.151499282846117 4.0016946822020225 0 0 0
755 68 5 0.0582835 17.23222091689454 14.08583449951178 3.9045087555442395 0 0 0
677 62 2 -0.3889835 18.483186158565275 18.63344445212233 1.0695342769698446 0 0 0
750 68 1 0.1266165 17.19467279559437 14.839169124664679 4.71352139780543 0 0 0
798 72 1 0.1266165 21.590831368941068 12.268945646476494 9.701455283914363 0 0 0
351 35 3 0.7551165 14.65283324017079 21.392726320391215 5.665031189217103 0 0 0
678 62 1 0.1266165 17.292367906138878 19.331226076122576 1.563805590236219 0 0 0
586 54 5 0.0582835 15.513890374313684 16.33718673515845 8.928989645153663 0 0 0
754 68 5 0.0582835 18.230838053389014 14.9794476470952 5.108896015495808 0 0 0
366 36 1 0.1266165 19.79215416744067 18.190245253017792 4.298625879577611 0 0 0
679 62 5 0.0582835 22.228934479011834 19.70051318498311 1.363836821718655 0 0 0
978 92 6 1 15.18141180032818 22.121664856755597 8.549991588658017 0 0 0
935 83 5 0.0582835 16.100035748537195 18.87258200104498 7.87459025318587 0 0 0
939 84 3 0.7551165 21.07055911557655 16.07574738568757 8.875323779304448 -1 0 0
775 70 5 0.0582835 22.357360335074127 13.314407142843757 2.7324831922247625 0 0 0
929 83 2 -0.3889835 17.945656697938034 19.21421854317566 8.677380891117913 0 0 0
364 36 4 -0.5800835 20.470522544447896 20.436992669858945 5.816652224738991 0 0 0
771 70 3 0.7551165 20.014806121578644 14.147104569825743 1.6146538452549202 0 0 0
934 83 5 0.0582835 17.29171826985464 17.762918696371194 7.280208925947715 0 0 0
936 83 5 0.0582835 17.21985703980524 19.486468413655377 6.689869406979492 0 0 0
684 62 5 0.0582835 17.415521181085083 19.740559528864893 2.5856925422972266 0 0 0
497 47 2 -0.3889835 18.301669604919027 14.002351075664706 9.620521457591241 0 0 0
350 35 2 -0.3889835 15.79257596679878 21.556098883075688 4.868086769910548 0 0 0
370 36 5 0.0582835 20.366874404486964 18.714245842280153 3.516101553419052 0 0 0
676 62 4 -0.5800835 19.73946519471162 20.505100265477385 1.2090727308114622 0 0 0
363 36 3 0.7551165 20.820836997263804 19.37676067517559 6.264880956763996 0 0 0
928 83 4 -0.5800835 16.72316382250333 21.147402160149525 8.881425555632354 0 0 0
927 83 3 0.7551165 17.651729815136427 20.42664579571161 9.288891627871442 0 0 0
941 84 2 -0.3889835 20.272312509500992 17.008104303412555 9.450665679408296 -1 0 0
130 13 5 0.0798 13.936781884982 19.690101663591868 0.2736539275355325 0 0 0
770 70 2 -0.3889835 20.33468852450511 13.922650755852013 2.9181875471717187 0 0 0
772 70 4 -0.5800835 20.52244347889588 13.563899514187476 0.6587842077405006 0 0 0
777 70 5 0.0582835 21.149200948805962 12.02590144475554 2.464378083625373 0 0 0
367 36 5 0.0582835 20.872041175559644 21.091234299450395 8.327852086260997 0 0 0
372 36 5 0.0582835 18.765121781147542 18.603904943950315 4.479347308821465 0 0 0
365 36 2 -0.3889835 20.528380918074774 18.19132397916176 5.604063252123026 0 0 0
773 70 2 -0.3889835 19.028624973897635 15.098566236796655 1.2642377083621912 0 0 0
503 47 5 0.0582835 18.1050970489041 15.995046047864623 9.51049107902042 0 0 0
356 35 5 0.0582835 17.715349690644167 22.199424263530915 4.6863482607622045 0 0 0
876 78 5 0.0582835 -0.29400185157155917 22.33373812677251 3.971509186592539 0 0 0
933 83 5 0.0582835 18.54293398450679 22.76602070484755 10.514747121839989 0 0 0
823 74 5 0.0582835 4.042163344058161 11.623111042018849 9.961426975522105 0 0 0
355 35 5 0.0582835 17.20091856872643 21.94355136658978 6.291361022882549 0 0 0
618 57 1 0.1266165 11.28082184148934 22.786319620901388 8.881416766868844 0 0 0
672 61 5 0.0582835 7.1278001850597486 21.247387459120098 10.383733791676503 0 -1 0
1002 98 7 -0.58 9.341679240288698 11.522887986560853 5.337733219648659 0 0 0
188 19 5 0.0798 6.1796910692250515 11.361985038869237 8.195565174030085 0 0 0
830 75 2 -0.3889835 14.287155773440102 13.221448502667624 -0.35784806925875046 0 0 0
871 78 5 0.0582835 2.0962122317766854 21.633730819896133 -0.29991875974612725 0 0 0
681 62 5 0.0582835 21.879750249999645 20.214456660965258 -0.23883001042538865 0 0 0
271 28 1 0.0955 2.8868434686541913 13.604215553651935 20.25977552839531 0 0 0
272 28 1 0.0955 3.706877191359175 14.480429597970373 19.36845996332338 0 0 0
273 28 2 -0.4048 4.952324862543378 14.434688974055717 19.88097460220431 0 0 0
274 28 3 0.8478 4.960533489931841 13.595455886770244 20.967390204382298 0 0 0
276 28 2 -0.4048 3.7540146185538994 13.099240731077886 21.203775078571027 0 0 0
277 28 5 0.0798 2.4514891489176054 12.78789639824566 19.70560151137846 0 0 0
278 28 5 0.0798 2.1025510599031394 14.208951239575567 20.713770122683883 0 0 0
279 28 5 0.0798 3.6567032103273593 14.166847207110022 18.38077050888233 0 0 0
280 28 5 0.0798 3.3047764118187897 15.43742920600846 19.495212738013848 0 0 0
631 58 5 0.0582835 2.796710751860596 17.40515413497773 18.163809526868867 0 -1 0
637 59 1 0.1266165 3.0614645165340013 15.583723131205756 14.946809426526423 0 0 0
638 59 2 -0.3889835 3.369229841070878 14.552062488740155 14.038978398023838 0 0 0
639 59 3 0.7551165 4.647396808562753 14.508234068027525 13.57855952527311 0 0 0
640 59 4 -0.5800835 5.539232839023243 15.287182031385415 13.876652424560321 0 0 0
641 59 2 -0.3889835 4.882214453398634 13.477067258187535 12.70609773776933 0 0 0
643 59 5 0.0582835 3.164882947312827 16.507963645952373 14.345829918176566 0 0 0
644 59 5 0.0582835 2.097677503428652 15.491160952557157 15.389070172134762 0 0 0
645 59 5 0.0582835 3.74909953470811 15.587679940687195 15.770665824070518 0 0 0
990 96 7 -0.58 6.0283678466662645 19.722775453945484 13.616913845595427 0 0 0
991 96 8 1.32 5.569935931079206 19.695099316159688 15.020186954694882 0 0 0
992 96 7 -0.58 6.374748080406145 20.658459654086798 15.978047843057803 0 0 0
993 96 7 -0.58 5.81535691366092 18.278587713767187 15.261914197379335 0 0 0
994 96 7 -0.58 4.153446646606385 19.97098090800611 14.929926073067978 0 0 0
632 58 5 0.0582835 3.7865177625496234 18.745336868907295 17.773963518629387 0 -1 0
144 15 3 0.8478 0.9721416836839201 15.751546430983481 11.412272982713583 0 0 0
628 58 4 -0.5800835 3.071024278581282 17.099408435631137 21.07584278906809 0 -1 0
633 58 5 0.0582835 4.414411515377666 17.512121586611418 18.893604422624847 0 -1 0
790 71 5 0.0582835 5.563969207008908 17.87569664586409 21.24995722868843 0 0 0
786 71 1 0.1266165 6.180076934471222 18.081431524883076 22.196088733092274 0 0 0
627 58 3 0.7551165 2.833979054657332 18.306631096872085 20.910835465055165 0 -1 0
629 58 2 -0.3889835 2.3559431497035446 19.106363313716923 21.871790982983065 0 -1 0
791 71 5 0.0582835 6.255044148666252 17.109681302257282 22.636232106067652 0 0 0
625 58 1 0.1266165 3.5343076507633153 18.06341921974485 18.59192997158982 0 -1 0
649 60 1 0.1266165 1.048250608992227 21.546030201293455 15.252905707389216 1 0 0
626 58 2 -0.3889835 3.0413771258176316 18.908039272153438 19.692112350992552 0 -1 0
657 60 5 0.0582835 1.3540552473629397 21.47393660451836 14.24513703775413 1 0 0
145 15 4 -0.5484 0.8108324655844101 14.837666173622347 12.250725011390214 0 0 0
979 93 6 1 6.833022195448449 16.450591995262517 14.83228436298608 0 0 0
784 71 4 -0.5800835 6.5118193342230075 20.333988663068258 20.76644739103572 0 0 0
646 59 5 0.0582835 6.965973889925623 13.159696523958129 12.924674871219924 0 0 0
642 59 1 0.1266165 6.217994090017782 13.326110235997282 12.13418122920818 0 0 0
900 80 5 0.0582835 5.246408944291916 13.70982766688419 16.9417272893812 0 0 0
706 64 5 0.0582835 -0.01766286487064389 17.459047317710915 16.10892396447459 1 0 0
895 80 5 0.0582835 6.990579199928335 17.908199123302214 17.77515318651575 0 0 0
1012 100 7 -0.58 1.0718538944527434 13.812809705812352 17.146197728083884 1 0 0
1011 100 8 1.32 0.8747402853378374 12.435780465745589 16.58809719066784 1 0 0
1010 100 7 -0.58 2.169696906071773 11.685161109948902 16.665672276109383 1 0 0
143 15 2 -0.4048 0.4894132769397973 17.02884614436051 11.464041887101601 0 0 0
892 80 4 -0.5800835 6.616436528634058 15.851065365891873 16.686721608170636 0 0 0
894 80 1 0.1266165 6.169982654869142 13.162994954208305 17.27734923908765 0 0 0
899 80 5 0.0582835 5.9689315409951 12.290130677523631 17.913938361754425 0 0 0
52 6 1 0.0955 4.385534770165434 22.370395426641636 19.259054518981117 0 -1 0
423 41 3 0.7551165 0.43370284757375566 22.90095529173538 19.655255251701192 0 -1 -1
891 80 3 0.7551165 7.164286654272665 15.347056852172143 17.643046888596672 0 0 0
893 80 2 -0.3889835 6.995298040992682 14.028854260256187 18.01024661486656 0 0 0
898 80 5 0.0582835 6.751800044125154 12.834431285781365 16.37882878902966 0 0 0
135 14 4 -0.5484 18.382532584377522 11.901316711367574 20.922305217064157 0 0 0
1014 100 7 -0.58 0.5877303389264783 12.690672771123637 15.178568919987764 1 0 0
650 60 2 -0.3889835 -0.07643850776427241 20.771669744869257 15.52588933059099 1 0 0
346 34 5 0.0582835 5.366657908519959 17.622379368789773 12.150482830591084 0 0 0
976 90 6 1 -0.10216709244388478 13.616020188136869 13.442089007471285 0 0 0
234 24 3 0.8478 11.792083131874726 22.856429785913644 22.068810558597534 0 -1 -1
496 47 4 -0.5800835 17.688477838203674 12.942895633526316 11.549418510167914 0 0 0
614 57 2 -0.3889835 12.784817481502758 20.64960956948445 11.5835990813606 0 0 0
422 41 2 -0.3889835 0.9203412107335596 22.11735851842073 18.707361899900228 0 -1 -1
449 43 2 -0.3889835 20.015711638030915 22.690129899273877 16.30525038053112 -1 -1 0
421 41 1 0.1266165 0.335391586203559 20.710726432838843 18.68474166430893 0 -1 -1
275 28 4 -0.5484 5.961717483167849 13.363398077993109 21.616902163681736 0 0 0
792 71 5 0.0582835 5.61879137551987 18.828826608770115 22.824087173524568 0 0 0
947 84 5 0.0582835 20.609732624512766 16.73836795124519 11.46304239674907 -1 0 0
647 59 5 0.0582835 6.2354266780899525 12.449268636105792 11.425297250932998 0 0 0
59 6 5 0.0798 3.853885641132936 21.395310026434526 19.06447965557929 0 -1 0
648 59 5 0.0582835 6.402272952814874 14.289396642470937 11.660043775328912 0 0 0
134 14 3 0.8478 18.628021715453976 11.943010387334294 19.715188584902627 0 0 0
535 50 5 0.0582835 5.57980324327249 11.61827027886 14.405382513709776 0 0 0
412 40 4 -0.5800835 0.024815601459839687 15.113817306826004 22.92088857096209 0 0 -1
428 41 5 0.0582835 0.8402720105154171 20.104078344368506 17.9228154690084 0 -1 -1
60 6 5 0.0798 5.369646422023029 21.940514116820275 19.370389456918737 0 -1 0
656 60 5 0.0582835 1.867709912618412 21.316620187156698 15.915308588667271 1 0 0
429 41 5 0.0582835 0.6267794813579175 20.254206851386268 19.577514982584333 0 -1 -1
796 72 4 -0.5800835 22.707638437036856 12.055387969857128 12.25359987244842 0 0 0
470 45 2 -0.3889835 8.237512756470911 11.546322298182483 19.16320625871677 0 0 0
619 57 5 0.0582835 14.847291063905923 20.802198131742024 11.996938703205423 0 0 0
442 42 5 0.0582835 12.679222666569114 22.328797000444112 17.647207243708564 0 -1 0
785 71 2 -0.3889835 7.499820671370188 18.58333894204476 21.861366517916913 0 0 0
1013 100 7 -0.58 -0.15951289116513237 11.687717286115417 17.268322792686362 1 0 0
783 71 3 0.7551165 7.529753078942214 19.764839382384586 21.108997538753293 0 0 0
208 21 5 0.0798 9.376238345527865 11.95509721705888 13.433938584309695 0 0 0
704 64 5 0.0582835 20.32629848443088 12.232493091357629 13.504867525232603 0 0 0
889 80 1 0.1266165 8.039769954935883 17.58329467593225 17.94400939834314 0 0 0
896 80 5 0.0582835 8.51829044937261 18.222675277049124 18.683023051872837 0 0 0
890 80 2 -0.3889835 7.958213636510266 16.185964078349002 18.37736963173414 0 0 0
705 64 5 0.0582835 20.06974620557599 12.419562685472364 15.173813654170104 0 0 0
411 40 3 0.7551165 0.32929295552548266 13.963694245698944 22.6450270723723 0 0 -1
959 85 5 0.0582835 11.937095191680244 15.702352267452913 12.325937006195526 0 0 0
787 71 5 0.0582835 8.684765037602238 22.21614868472683 20.718910947163273 0 0 0
620 57 5 0.0582835 14.143316288572931 19.48601300246816 12.795384976620484 0 0 0
958 85 5 0.0582835 13.546780226428941 15.997284832978458 11.674820150616826 0 0 0
789 71 5 0.0582835 8.312350286112517 21.33967598428885 19.183900482229355 0 0 0
781 71 1 0.1266165 8.905092005374842 21.350857404344787 20.098109737267244 0 0 0
612 56 5 0.0582835 5.494707829211005 22.917785012119996 13.691039320935515 0 -1 0
671 61 5 0.0582835 7.863265193321956 20.780118667380886 11.953150736800623 0 -1 0
473 45 2 -0.3889835 9.81803101601471 13.210582340220224 19.586965299766888 0 0 0
30 3 5 0.0798 8.400065770322245 14.54417063693741 21.605274165901307 0 0 0
788 71 5 0.0582835 9.944076961932911 21.422195725583826 19.812848750356054 0 0 0
339 34 3 0.7551165 8.06362646192213 17.83950772191479 12.229268147319406 0 0 0
782 71 2 -0.3889835 8.760208913623167 20.155963575508192 20.85084690434963 0 0 0
344 34 5 0.0582835 11.104960658833468 18.79463542671499 13.065530610570725 0 0 0
897 80 5 0.0582835 8.55152999800917 17.747288630402963 17.031175525924013 0 0 0
340 34 4 -0.5800835 7.753576156715157 16.988120364915844 13.09373545163631 0 0 0
203 21 2 -0.4048 10.894884176998305 14.531313363145264 14.637032515140207 0 0 0
205 21 4 -0.5484 9.112809964863393 15.740349667863399 15.330576402882306 0 0 0
110 11 5 0.0798 10.82811431961867 18.895235231371437 21.223498397316625 0 -1 0
345 34 5 0.0582835 9.728885909681177 18.364196627847626 14.227254386616137 0 0 0
22 3 1 0.0955 9.269307504027571 14.655988535642418 22.278241251100958 0 0 0
108 11 5 0.0798 12.83836306782234 17.72854074712903 22.010222806233628 0 -1 0
105 11 4 -0.5484 13.617525142551573 19.914630819932725 18.33916695825681 0 -1 0
102 11 1 0.0955 11.386280667572683 18.344502423750136 20.403091713092778 0 -1 0
171 18 1 0.0955 13.517341079138006 15.546525164889882 17.39458192696128 0 0 0
173 18 2 -0.4048 12.689155264344782 16.73165803485293 15.564164978651032 0 0 0
174 18 3 0.8478 12.039609935213104 17.163163226834268 16.707700775602618 0 0 0
175 18 4 -0.5484 11.171356475449496 18.01647334927109 16.739879051318447 0 0 0
176 18 2 -0.4048 12.549085634996187 16.440985480866413 17.81186513014599 0 0 0
177 18 5 0.0798 14.458999772656334 16.04578690100799 17.674040806287678 0 0 0
179 18 5 0.0798 14.67928738171002 15.785612386820528 15.50696369480866 0 0 0
343 34 5 0.0582835 10.502627254634708 17.118564062580386 13.217653500313025 0 0 0
23 3 2 -0.4048 10.117349010500467 15.776166833694855 22.11413577386174 0 0 0
106 11 2 -0.4048 13.69197182541535 18.48655868217332 20.0668117056111 0 -1 0
172 18 1 0.0955 13.643125055246331 15.709722965079742 15.929589774722201 0 0 0
178 18 5 0.0798 13.527872172554572 14.46756411493414 17.782904410810566 0 0 0
180 18 5 0.0798 13.179904857445004 14.799893251544955 15.526315677458564 0 0 0
107 11 5 0.0798 12.605125187957018 16.827982388528856 20.68769486734889 0 -1 0
101 11 1 0.0955 12.673805245455922 17.863320790627377 20.902537298463265 0 -1 0
109 11 5 0.0798 10.799288120024727 17.529101296205884 19.92714771754312 0 -1 0
104 11 3 0.8478 13.013180518516782 19.258060256378524 19.17603645996742 0 -1 0
337 34 1 0.1266165 10.186895256674207 18.188842944844318 13.24613338595076 0 0 0
338 34 2 -0.3889835 9.251895923318232 18.503436781294536 12.190844300546255 0 0 0
103 11 2 -0.4048 11.62526732574424 19.18164121365284 19.33930846440863 0 -1 0
204 21 3 0.8478 9.572858786321566 14.674410331568499 14.92300201598872 0 0 0
471 45 3 0.7551165 9.428685545206422 12.142140768203438 18.82983645002171 0 0 0
202 21 1 0.0955 11.025216208505702 13.198560601632563 14.20001805402186 0 0 0
29 3 5 0.0798 9.885622854960172 13.791843602814456 22.30829402262807 0 0 0
206 21 2 -0.4048 8.80740457372182 13.619880626852506 14.744489738823598 0 0 0
201 21 1 0.0955 9.635027401141189 12.57413123777051 14.271315326834506 0 0 0
479 45 5 0.0582835 11.257918124049349 14.613240295749279 19.991973046151017 0 0 0
480 45 5 0.0582835 11.939783302177112 13.144184855734164 19.03516671328213 0 0 0
474 45 1 0.1266165 11.049183260137623 13.867859042304676 19.22851379031099 0 0 0
9 1 5 0.0798 14.873190359384825 20.669843104762943 21.232184506700037 0 -1 0
960 85 5 0.0582835 13.364428975326003 14.82625225313147 12.924145243159167 0 0 0
235 24 4 -0.5484 12.146752478363823 21.936916759776057 21.3349871891905 0 -1 -1
478 45 5 0.0582835 10.964453010193287 14.485847840448068 18.34028755940858 0 0 0
199 20 5 0.0798 14.881113792900948 21.17579741240261 16.341104360868414 0 0 0
210 21 5 0.0798 11.385679257032749 13.159305153861068 13.169125381045717 0 0 0
197 20 5 0.0798 16.639083331073323 20.32996355799776 15.224775944053981 0 0 0
308 31 5 0.0582835 10.232260484164208 21.91359776912587 16.679275042900088 0 0 0
309 31 5 0.0582835 8.653806710014795 22.090857213329624 15.92573203501083 0 0 0
831 75 3 0.7551165 14.995199937212318 14.26654626498931 22.35110007033174 0 0 -1
2 1 1 0.0955 15.924001727278368 20.608359144111397 21.48429565219218 0 -1 0
209 21 5 0.0798 11.806337024722493 12.727161862038828 14.867428347369493 0 0 0
207 21 5 0.0798 9.573700270144217 11.814043395948731 15.121324531210341 0 0 0
301 31 1 0.1266165 9.549882116918178 22.61171323124208 16.214232070902696 0 0 0
954 85 1 0.1266165 12.8896631987709 15.199712175822848 12.025489199854512 0 0 0
768 69 5 0.0582835 18.395644807192085 16.81191526173966 16.435562199446252 -1 0 -1
931 83 5 0.0582835 17.150834846721608 22.080037781534347 11.388823938678215 0 0 0
200 20 5 0.0798 15.739748876555497 22.564171523382825 16.91285912519202 0 0 0
833 75 2 -0.3889835 15.40827666678003 13.93587108556291 21.03069126871712 0 0 -1
472 45 4 -0.5800835 10.071105927420673 11.708001653975794 17.853937383382878 0 0 0
10 1 5 0.0798 16.062122392528103 19.793185888259984 22.25959682886372 0 -1 0
613 57 1 0.1266165 14.063643880869385 20.08867177822543 11.910951340948563 0 0 0
653 60 2 -0.3889835 21.166570377854995 19.984326733604306 15.045355040105294 0 0 0
165 17 4 -0.5484 8.881274893276414 14.572504698366588 11.484823279699961 0 0 0
778 70 5 0.0582835 18.340318339622904 14.34013932438641 22.663603577698474 0 0 -1
703 64 5 0.0582835 19.20268002608043 13.51068791044956 14.077298830694982 0 0 0
424 41 4 -0.5800835 22.87467590478339 22.491810384449426 20.425709153803986 -1 -1 -1
982 94 7 -0.58 16.222057543267695 17.78041497735395 11.737643851587336 0 0 0
700 64 4 -0.5800835 20.420686147844087 14.99418512273604 16.02818102343467 0 0 0
708 64 5 0.0582835 22.28018548965042 16.348395158357903 17.154235954926904 0 0 0
611 56 5 0.0582835 4.720689393610934 22.14138363503609 12.419397548143685 0 -1 0
702 64 1 0.1266165 22.397414864157312 16.784719299534217 16.124765441303218 0 0 0
133 14 2 -0.4048 19.006506726622057 13.101322880520481 19.094769449941047 0 0 0
3 1 2 -0.4048 16.38239122829396 21.799843339636734 22.118655148887733 0 -1 0
132 14 1 0.0955 19.26020793391713 12.83122057578626 17.715997468345655 0 0 0
652 60 4 -0.5800835 22.169458816138885 21.414352635306763 13.669530730571708 0 0 0
932 83 5 0.0582835 18.877271098752047 22.056584181173633 11.95861535237281 0 0 0
983 94 7 -0.58 16.16519331847114 15.601532788363862 12.778033718179621 0 0 0
996 97 8 1.32 15.60784589045055 12.383802861411535 15.369653965612287 0 0 0
140 14 5 0.0798 18.57007110731766 13.471007256954989 17.060267702808233 0 0 0
193 20 2 -0.4048 15.248390892361332 22.9476275995828 15.04552766338572 0 0 0
832 75 4 -0.5800835 15.25669175757193 15.348071680083706 22.863371093425968 0 0 -1
7 1 5 0.0798 16.265979168852866 20.369372230180538 19.409520003795812 0 -1 0
655 60 5 0.0582835 0.791955623412719 22.564642197047988 15.43885789763691 1 0 0
427 41 5 0.0582835 22.607376954680404 20.546550695174417 18.503560223194974 -1 -1 -1
450 43 1 0.1266165 20.347560256133164 22.146850401258295 17.60635304866502 -1 -1 0
998 97 7 -0.58 16.729161319967446 11.948291731460262 14.46923257668973 0 0 0
6 1 2 -0.4048 17.86047511695729 21.32265845236264 20.47411787592752 0 -1 0
697 64 1 0.1266165 20.140770723996354 13.004474755292414 14.232766712127303 0 0 0
995 97 7 -0.58 16.06064779098501 13.245069786860142 16.436091257539985 0 0 0
191 20 1 0.0955 16.835677290637555 21.334732661040704 15.565724699367589 0 0 0
198 20 5 0.0798 17.578432782502475 21.16257876275911 16.3115273122107 0 0 0
707 64 5 0.0582835 21.484851721299478 17.38725823924744 16.019823123332223 0 0 0
192 20 1 0.0955 15.552759095247161 21.95200046654252 16.017616330839644 0 0 0
139 14 5 0.0798 20.330224529974984 13.048159509721355 17.43877350271591 0 0 0
665 61 2 -0.3889835 7.71154384888618 22.86248878430583 11.62999856108659 0 -1 0
838 75 5 0.0582835 17.026354245321016 15.199227322746713 20.737939216358697 0 0 -1
196 20 2 -0.4048 17.202194336390278 22.071209921811796 14.365405245620133 0 0 0
654 60 1 0.1266165 20.07176929173592 20.010362449763086 14.087548098999648 0 0 0
4 1 3 0.8478 17.509461977259093 22.19030969258418 21.484829801093362 0 -1 0
699 64 3 0.7551165 21.32797641869123 14.90533124669698 15.199358856128294 0 0 0
780 70 5 0.0582835 19.56003639305822 15.582687956421868 22.591433016359396 0 0 -1
839 75 5 0.0582835 16.45408578563997 14.430018818781038 19.334182468177225 0 0 -1
975 89 6 1 16.138564499856216 13.600087493116009 12.709136741485672 0 0 0
840 75 5 0.0582835 15.499494078341964 15.814528381367403 20.089473626475844 0 0 -1
766 69 5 0.0582835 17.126947397952804 17.759906666013748 17.11306253531354 -1 0 -1
698 64 2 -0.3889835 21.242433387557128 13.888469103612877 14.232386320060098 0 0 0
981 94 8 1.32 16.622758338685536 16.99256771064248 12.9351972583388 0 0 0
984 94 7 -0.58 18.05823473171781 16.77315600871918 13.27419106174846 0 0 0
658 60 5 0.0582835 20.341615846411138 19.669104078785466 13.14320761887198 0 0 0
834 75 1 0.1266165 16.11929081290772 14.893468470215929 20.280195830692 0 0 -1
767 69 5 0.0582835 17.93549938440644 18.297566264655313 15.649551724769731 -1 0 -1
651 60 3 0.7551165 22.181317307680978 20.778403099522123 14.673654048840502 0 0 0
999 97 7 -0.58 14.98743309697301 13.199776666980311 14.338924434402395 0 0 0
980 94 7 -0.58 15.927983388924213 17.481054049244616 14.188878060086695 0 0 0
410 40 2 -0.3889835 -0.25765159684613415 13.19921760403749 21.63823387800229 0 0 -1
764 69 5 0.0582835 21.557406835463418 19.010757378757347 20.89282853101114 -1 0 -1
765 69 5 0.0582835 19.840384782515542 19.04145380790668 21.201778276868346 -1 0 -1
757 69 1 0.1266165 20.613154629165805 18.56880215405919 20.60501161234661 -1 0 -1
763 69 5 0.0582835 20.783106937799708 17.4645191091474 20.813183055533102 -1 0 -1
417 40 5 0.0582835 21.210382202111873 14.154561481467853 21.59068259411179 -1 0 -1
415 40 5 0.0582835 22.411196842458672 14.771910700278399 20.3689945610954 -1 0 -1
456 43 5 0.0582835 21.345213657103074 21.724114239460658 17.45633535490957 -1 -1 0
761 69 2 -0.3889835 19.1618361533817 18.51088444053559 17.282208785548193 -1 0 -1
1 1 1 0.0955 16.89085872503602 20.252949244866002 20.382325153224492 0 -1 0
660 60 5 0.0582835 19.704841056250523 21.083867975365965 14.021405958443776 0 0 0
455 43 5 0.0582835 19.658926611456756 21.318686657195197 17.907250913005427 -1 -1 0
8 1 5 0.0798 17.303787901923926 19.2308112774567 20.532626153578654 0 -1 0
762 69 1 0.1266165 18.08474210163444 17.815474292489373 16.60787733781676 -1 0 -1
659 60 5 0.0582835 19.17059475562693 19.391507547314113 14.371223312949652 0 0 0
760 69 4 -0.5800835 18.65834547999399 17.439483306978993 19.1919034202498 -1 0 -1
416 40 5 0.0582835 21.54769755625906 13.168040924241819 20.08086574308779 -1 0 -1
758 69 2 -0.3889835 20.39851313741385 18.883973816823087 19.220171310178287 -1 0 -1
759 69 3 0.7551165 19.383318211749092 18.251252136717508 18.605461591371004 -1 0 -1
701 64 2 -0.3889835 22.387422152141113 15.727891231419768 15.104400775519064 0 0 0
409 40 1 0.1266165 21.966199278606588 13.839762403301325 20.86823530170401 -1 0 -1
454 43 5 0.0582835 20.24004572773609 22.86226953208073 18.42750142797827 -1 -1 0
131 14 1 0.0955 18.99269573551676 11.317122291044765 17.572983998394633 0 0 0
997 97 7 -0.58 14.70717145143995 11.345310200996177 15.82154702063311 0 0 0

Velocities

82 0.0014034162381613368 0.006295797999061434 -6.004948530243805e-05
83 -0.004894331075625687 0.004061405769277685 0.0008854015151862205
89 -0.016867339903495527 -0.0035455916940883674 0.036486003780855994
67 -0.016149521175851382 0.007201799625915534 -0.02155224659292202
709 -0.004754355271008364 -0.009800844599015299 -0.0016399928410838662
710 0.0054596686436569715 0.0009539649512296291 -0.0014015398049774053
711 -0.005106993004759003 -0.0021902274016788997 -0.003200092496229573
712 0.0004854951874543951 0.00312466419521121 -0.0018902885410376764
713 -0.004287222885103519 -7.760609256930331e-05 -0.00196308610152037
715 0.028233211199141656 -0.04048171595126455 -0.0150357210636272
717 -0.012983312011830332 -0.006282474448470965 0.007681808835515587
720 0.01423531296073861 0.010436910056413482 -0.0016354977535001777
970 -0.02217531780344544 0.026186846455940646 0.019622946640736508
971 0.032377540795645185 0.013232153306948463 0.0032692507145771483
973 0.009445638305509582 0.010458139547103115 -0.0005337527219993518
986 0.0012500375852887687 -0.006633361415252058 0.0013001868459905522
989 0.00786614422780717 0.00024036962075993845 -0.0022912547162071526
1006 3.693179054433289e-05 0.0022147377894132943 -0.000611145032643912
1007 -0.0011341069040966894 -0.0018348869038778439 0.00030230764497660655
965 0.002164191102729006 -0.0010507320150920333 0.005542513632762524
966 -0.0002868257077963059 0.0003469089331374908 -0.0005422931520936136
512 -0.005389518287472359 0.0029236376356959175 0.0026793675456371706
963 0.009045985490286356 -0.004756191807731204 -0.0018323026862366973
972 0.005896325435211866 -0.011484343418861984 -0.012239044969823901
964 -0.004417926794418424 -0.0026936152677988342 -0.0007394127091086431
505 0.004345322177140994 -0.005227239384335123 -0.005770495441207525
985 0.005417001777722709 0.001086941516759154 0.002616561444147969
969 0.024448457542650848 0.0030241742622646793 -0.0016301329739450178
987 0.010453090758366512 -0.002827582671866175 -0.0019506644470593385
716 0.018978994969525625 0.02425891237137077 -0.01621281473910581
88 -0.015161295447554042 0.005189106187650264 0.009611675621328154
988 -0.004459751895397216 0.0003734610639702633 -0.005018240842125188
667 0.001998208079687331 0.01793738282173878 0.011833966452907383
962 0.0001247366005403712 -0.0021758140769245035 0.00024835601481122216
70 -0.022170876897622413 0.012388293594490018 -0.013447839259999251
81 -0.004700705895411685 -0.007518752077344253 0.005810233694098567
84 0.0055115823991899295 0.00372885577650616 0.008473886788721094
87 0.024950354597369218 0.03259886869376679 0.032631188820755594
513 0.0228196154188607 -0.004191193857164963 -0.019553623291239202
820 0.0025394533332620955 -0.006049495524785676 -0.003348457020235754
506 0.00556054851309253 -0.0057905806887778785 -0.00036094331857472554
1009 0.0009044884217849001 0.0018260724591994636 -0.0018960980828070448
86 -0.0010451775811384097 0.0014696254528089295 -0.0015434674413296577
62 -0.0025611687973022997 0.00651944576228383 0.0017560166580561766
85 0.0038754508320434566 0.002124953215586649 -0.0016502343063536532
61 -0.010444652496058013 0.003136604321752771 0.0019721730247945417
68 0.006269060804644923 0.0011248597751066626 -0.01753384089243679
819 0.0014204544754029794 -0.004742018970624366 0.0024261855047392946
955 -0.0072205818105661145 0.0004891989664179706 0.01765693996713279
1008 0.002353248799323881 0.006819425723787813 0.00522177252224938
1005 0.0036642877805621 -0.006324423053675895 0.000991988280066546
744 0.019614906100911142 0.004688317525772832 -0.0033095559079542956
91 -0.002432429497309071 -0.001032499296405935 -0.0024490049247418207
98 -0.02661668529960816 0.020853272539645477 -0.005030551459721796
828 -0.018655450034123538 0.014048944134319752 0.012632202904467073
822 -0.00214454937806173 -0.00029513073580061575 -0.003327449643258878
742 -0.02040036682992851 -0.010281951680351188 0.01565313802520019
821 -0.0005260268943114974 0.0047954661769017744 -0.0006893675470173367
827 -0.00556958749697439 0.0006941638101327757 0.005029116216360772
738 -0.0019320815703190366 -0.00014008610419489177 -0.0027939728505529007
100 -0.009646393953107787 0.0023071389878183304 -0.02364906078576859
714 0.005428194305801444 0.0003145961133108725 -0.004611252477569338
961 0.014092432624069305 0.0023600519150968322 0.0005653345769510773
870 -0.0045310264119269045 0.001915281224088309 -0.008670716143628004
718 -0.005438867060249493 0.0012700186028604692 0.01625008620525765
96 -0.010360180389620423 -0.0026125365402776897 -0.0019960184722455985
862 -0.016435564118649264 0.004518845537001955 -0.0021796129053582095
797 0.0040958403727667896 -0.00021949575933660127 0.0005145277514341709
63 0.0026302349626627776 -0.0010347948122607464 -0.010259771225908132
968 0.007220361005963982 -0.01331213533149128 0.0043574248064765005
967 -0.014695461922544785 -0.004940937277653319 0.015938431419242734
664 -0.0017388339895851774 -0.0033731201006620176 0.0028960351466676285
719 0.014834838514246607 0.00021936604050002358 -0.0023773404519509783
92 -0.004385958245759157 0.005553316901338976 -0.002332767026020103
623 -0.028256000432622056 0.016983699770520368 0.017503400522062184
90 0.0117769923290824 0.015667679316384513 0.028460374633269937
511 -0.01082164950538773 0.039775229023834756 0.0033302954962929
728 -0.0015099750216002999 -0.018140667952515687 0.00576415482930824
48 0.04192165111271824 -0.004370614119528702 0.01617904977701191
218 -0.008033847420044378 -0.012685244055858958 0.0029131516213387844
499 0.004222233411638092 -0.005073218501879822 0.011348057792517262
231 -0.0024517231528988427 -0.007206710629776715 -0.0023268902815242413
863 -0.017530514609222503 0.022406010252427194 0.03442302004892209
290 0.00144657904316552 -0.030652171513471202 0.009365089512982743
662 -0.002720280856281713 -0.0007145358068123371 0.0007650841237536611
888 0.027034263471867902 -0.00973458462069805 -0.0069121927586969665
956 0.018673506365281766 -0.0017571723797581247 0.01342574818322441
922 0.03660877863394686 0.01756074625607653 0.01009113070419792
661 -0.006021520439570813 0.006057424678358134 0.0009138739566750479
112 0.006107171339482229 -0.003183224702889895 -0.001754937438141865
814 -0.02078709343633992 0.014916834834556641 0.007879608831503435
924 -0.003630785930670812 0.010517085322263192 0.031914311659044944
298 -0.0023206553364827683 0.02228530034712051 0.02615273308185644
41 0.0016214545074919324 -0.007607354141487584 0.004514185539365583
117 -0.014796227070571438 0.011205329467923214 0.018339603319544998
875 -0.028007662982535226 -0.012799690934441945 -2.687458796257539e-05
915 -0.002941370592940126 -0.0030345791078664184 -0.005107958263782674
111 -0.0034206668560075658 0.0024931251149206343 0.008989829846739713
669 0.023270958162768068 0.01357167434604935 -0.01245851052557907
858 0.0063112550612785916 -0.0012901954695093726 -0.005220714522432376
77 0.015148678632039635 0.003108507398239475 0.007555608406560692
72 -0.006952444581997942 0.006956046908241863 -0.006272118090003186
805 0.005510707299576477 0.008020439543526658 0.0003642126452048078
807 0.0015378181548622505 0.0017007508037074548 0.008728704002661132
808 -0.003556634932186893 -0.003286033803910304 0.00010094896984810838
813 -0.020997508517865787 0.009179145643390885 0.000388773353785589
118 0.005783957460357244 -0.002475532471128152 0.0025685281802765116
913 0.0012183158409437853 0.0007078663921440232 0.003465394402012218
914 0.002936812514524479 -0.00021073383356600374 -0.0023100023978628796
919 -0.006312761660951618 -0.014648488864114323 0.02973011182507344
920 -0.031951655503189 -0.02530467360603244 0.019787088484083188
921 -0.01419854747394657 0.012393569726754256 0.016537613640548506
806 -0.0002804827417676803 -0.0018049717335420696 0.0035196788394088584
867 -0.0060161830801921294 -0.0007765929089001738 0.0017928185691538597
1001 -0.0009896116597066396 -0.0022954602418572365 -0.0017656366415375517
809 -0.009092575960791285 0.001199409094556177 0.008052539948939308
80 -0.004699494090888256 -0.0054728542690303346 -0.009061854589288872
79 -0.005819552055043666 0.006307199576755954 -0.006815059416023584
71 0.00569102324030889 0.0006955252170479273 0.010119967903538531
78 -0.000633400215049849 0.03361868786377607 -0.02449929775439218
918 -0.008231103432313662 0.001018649043720176 0.004836621807727977
76 -0.0024680062594120383 0.00382601597030278 0.002943225072299891
815 0.0027806616796033265 0.005287061774959794 -0.024781671171500697
95 0.00445156874099019 8.204326889332173e-05 0.00012353646353326585
916 -0.003220153653113209 -0.004472152378010898 0.0014087348507981045
94 -0.0009404154490198561 -0.006274337329627247 0.0003955361282413769
864 0.015228655083697746 -0.009596763966323762 0.018920703008416643
93 -0.002936820174086849 0.0041751373027728075 -7.282135447519556e-06
857 0.00640745823127459 -0.0013514221107252867 -0.00043666306915232374
917 -2.446552191065977e-05 0.008129079900964937 0.009020682352946794
217 -0.024704307879934197 0.008251651584179625 0.0011306367609844028
384 -0.002389483523986776 0.014661825005451812 0.012912932133332326
212 -0.003640741671749674 0.0017396351595292756 -0.0020658085281305186
239 -0.007171064074280173 -0.02481506610664617 -0.011598131241341104
1003 -0.0006617315025721081 0.003747458375838483 0.0016844158513490157
624 0.006274614253193686 0.007297763816410267 -0.012011382189322316
116 0.0003631053939534958 0.003101984223994861 -0.0002964822472180094
237 0.024437791637807564 -0.022660160759139188 0.0015554592325375475
73 0.00028805345306108553 -0.0029150328388134208 -0.00159800401945999
74 -0.0024719516255701534 0.005687995304730004 -0.0014798885223687593
663 -3.0433150474640796e-05 0.00030457649712331667 0.0033471520315631197
211 0.005330345117284351 0.003727247600549475 0.007405168650867249
114 0.008853807891361401 0.004616802847196259 -0.007976330302894219
115 -0.0013510482620690842 -0.00041329577522653595 0.0017984719606798836
812 0.016442412772899335 0.01370610469430664 -0.00291663265468463
811 0.006764453560222401 0.02029615952491871 0.009193438119701351
883 0.00368750467317141 0.02259315596334335 -0.006864859358284969
668 -0.00927309862430936 0.01863495992193857 0.03645772558960467
47 -0.002170124924893646 -0.01287859254543336 -0.00035219379522686547
851 0.029598619919014354 0.0245013324217145 0.00216946930172371
689 0.0017892375237135167 -0.004691915098950084 -0.0033012234487645657
120 0.009916175007543127 -0.01908190027271663 -0.0066467513822028226
113 0.003103800745350745 0.005356616774714316 0.0031988270343972507
869 -0.0002444065341068194 0.007872815532030857 -0.002788192011040623
75 0.0025346057397793455 -0.006980847535833988 0.002480054731066178
493 0.0012320575299357929 -0.005186792867059614 0.0003887216739374883
69 0.017698047471323572 0.015195656980113735 0.00969759429531766
826 0.016764276008665754 -0.01582666429645875 -0.00737695216503649
885 -0.027655161560356488 -0.0030022550816645823 -0.025488568321131486
901 0.004202444198868444 -0.009523596336882044 -0.00936745270826484
245 -0.0006740866139269534 -0.0001334838787528495 0.0031954581340529406
810 -0.0044848681202995415 0.003008029349382003 -0.005306771799184503
40 -0.009103313757967586 -0.00436780131159094 -0.012715258657068509
743 0.001281568165329418 -0.010269539527139101 -0.021832288948559795
879 0.0009481877838543986 -0.0012727419782022026 0.003216304490420309
881 0.0022389587695707896 0.004039666489310783 0.0027627633789665137
555 0.005775198834408513 0.010218647648635174 0.0024031354431664864
735 -0.002556044654716728 -0.000667600249623442 -0.006393064328054827
907 -0.02805553784791999 0.004519952854213124 0.004406080145276499
387 -0.001014219741663052 0.0013691825161319597 -0.00030357370785827895
49 -0.0019326557861679768 0.004678355096761027 0.0043753904342134714
903 0.00021677869845304216 -0.0006090825017739132 -0.0007336119790429009
905 -0.00411879439167664 0.004507600506377327 -0.000901379010221795
911 -0.0036377527474737805 -0.00976132297305292 -0.01276136855731814
912 -0.01859586339257412 -0.006827744860934789 0.006112145481083564
906 0.0036289770556887356 0.007380902926432832 -0.008858863929987077
357 0.014277779842609696 0.00689588076409331 -0.00429392502208903
904 0.005579362066317599 0.0023832989600544754 0.00014369589582447688
396 0.005224935812536423 -0.000815153445381406 -0.02176986454176732
554 0.006168593687552221 -0.0004328531832131103 0.007620092090092417
734 -0.0016291726960558617 -0.001978098849713752 -0.0014030359509660264
388 -0.0004881531846707068 0.0022472466811034324 -0.0002421489252355876
563 -0.0074227718143253735 -0.005077513192433459 -0.013544528361583878
733 -0.005584361069159201 -0.00405947999608899 -0.0006189854861188094
296 0.003145248107298089 0.002458445509474552 0.0036678199912367265
557 -0.006776909824111799 -4.5360780302307915e-05 0.004843923761802371
393 0.0022126330833844945 0.016724017621246763 -0.006808398875007623
386 0.0005416420765891085 -0.0004747446000503368 -0.00010292649790665052
392 0.00015796862706438891 0.013998592323183992 -0.023277496536918286
556 0.007675815441064192 0.004314952212530106 0.007669318264224887
291 0.001130464015738277 0.003101679388394102 0.002287893034145553
693 0.025605588032156838 0.01451170875935579 -0.010369411773552004
564 -0.002803698490776137 0.0076907213521956305 -0.012853075286950745
33 -0.009580357707018582 0.0016210964141402497 -0.007381188039744041
877 -0.003262097653056208 0.0012398468655299834 -0.0009113664971222141
688 -0.000993631485996825 0.004082864482427752 -0.005609894685797983
37 -0.0006507534886425727 0.0268754870357424 0.005089025844081184
38 0.025659450331839934 -0.002612954259548284 0.02321081817984784
44 0.0034573409724801183 -0.00645934546335028 -0.0012613608725386537
974 -0.01077949840919699 0.004397403924541315 -0.00452336386781543
293 -0.005337341639433882 -0.004455833398049282 0.0015253469377875528
737 0.0030526266361239488 0.009290875469641552 0.002508825464929659
292 0.010600563944392419 0.0057059292713126965 -0.001405708104939858
561 0.026839757681079723 0.02026693280985569 0.0013505887711785839
394 -0.004294383098885192 -0.009807372705090722 0.00021600848078842793
390 -0.0004822983485457457 -0.0005792512419397834 -0.00012962336879921815
395 0.0028957160099509567 -0.005034940881368268 -0.010390815929367718
35 -0.0009288923611424418 -0.0049630226634873355 0.00024043250460750512
294 -0.010608307288156076 0.0007801505688017623 -0.0015019477747378715
560 -0.004395093126434107 0.009182443583226405 -0.00862698921750675
696 -0.016954681010648193 0.0025159541004073195 -0.0042184900358497235
295 5.9383969182240136e-05 0.006057093304082247 0.0026669219596388407
31 0.0027594781038911597 -0.0020819971077892484 -0.0035414582567517283
685 0.006655907791300312 -0.0064585527475963245 0.0020426308719333807
46 -0.006715934827281308 -0.0005305365553163117 0.004856088048262899
559 -0.005120503904956865 -0.003075678716733794 0.01212969931173098
391 -0.010067272316346415 -0.03325397205370076 -0.018714196012001052
36 -0.0011459440100202124 -0.004460431238042883 0.007903927978039186
43 0.0010862765126718956 -0.0031117091218890703 0.0008112237840801821
45 -0.0017649499272022644 -0.001228521113014946 0.006631665678763533
39 0.0006605139323135275 0.01595791841781223 -0.021225584039785944
50 -0.00823147232648544 0.0003909308692879511 -0.007455797293957551
553 0.0021682104011997313 -0.0067536924421771035 0.002499183869163609
389 0.003817321875625968 -0.00702360336429163 -0.004449848207418771
692 -0.007133289041398209 0.01644368940779519 0.019073780235882083
691 0.0016878532682778264 0.009950104104137724 -0.012240055210333884
736 0.008712222294853406 0.007340370480078918 0.0009802142327268
878 -0.0007218107498371113 -0.0014032077853502183 0.0035065378426679546
32 0.009204201723908236 -0.0038758323481125714 -0.0013728168368568315
385 0.0011953776888378566 0.006750319883598513 -0.0007657507574996457
687 0.006878018808558503 -0.0006791991742744331 -0.003625443730303323
558 -0.0037729535523740856 -0.0009074421697683008 0.0011336921664251948
884 -0.02211502266367367 -0.01245311406342319 -0.007761049722031536
910 0.010378811584850751 -0.008054496993915899 0.02783903589861828
562 0.009072863259823627 0.02790474231322266 0.01806216814224409
686 -0.002880689208006971 -0.0011212107198842588 0.0025281858891253862
500 0.014124533442220229 0.005817176418431062 0.008786961206711116
34 0.004573377892300908 -0.005131804867220919 -0.006463522525960403
42 -0.00012170835372062684 -0.0021839436298583966 0.0021878352794606503
902 0.00011044633537942527 -0.00041067966317071805 0.00017039976629917926
866 -0.00395138811423382 -0.000440147501646108 -0.0011063231816616542
880 0.0027648102906899755 -0.001302761530104775 -0.0008991542215261117
909 0.0098723763493492 -0.023035931552258304 0.0009599671278681294
232 -0.0007344246760298886 -0.006836154056034413 -0.00020144558348419544
240 -0.003209576176716547 -0.029558482440401643 -0.0008278309336012766
874 0.004557552198944714 0.011083521216415709 -0.015471840475241595
908 0.0026098544610175557 0.00669830049491918 -0.020680082579484605
54 -0.0028741808150651404 -0.0011909732481441308 0.0029213528301579384
221 -0.006389824639589643 0.0019169944680412477 -0.0012778264198508081
222 -0.005999127819826131 0.0008674436745927603 0.008526149314374419
223 -0.008642872827136976 -0.004858047620192612 -0.005120766353772456
224 0.0038661831752884943 -0.00132059113058262 0.0066646057005447035
225 0.003734668289995393 -0.0006233278836969266 0.00038165062339512153
226 0.0017411459046302149 0.0035958622911979807 -0.005588103008676279
227 0.005687405827515139 0.000501807979287449 0.010635616962985834
228 -0.0012950270891329877 -0.01704633675408705 -0.02553313537054214
229 0.005053598469720974 -0.004314410227108508 0.004104753925418038
230 -0.03697734815651373 0.004123788269855708 0.008089595881168905
289 0.03205257922173576 0.01166747321513657 0.0023972949055877228
516 0.021181374129986736 0.02531964223783425 -0.016709041732140283
977 0.006655321599376634 -0.0020419097444848333 -0.0017778095378412806
508 -0.003765060055797085 0.0018767200029041026 0.0013273652440317291
56 -0.0024028613094338306 0.0038085362438942554 -0.004056751331490283
510 0.006031387638623236 0.003523813737144927 -0.002949273657244537
514 0.029167816720639433 0.001067254252253358 0.007690299513921302
724 0.003917863103978486 -0.004657146207881058 -0.00899983446789937
604 -0.007624476995337631 -0.0019392341278169289 -0.002113010318114065
531 0.003672075823500334 0.00021489115083826824 0.005785170098199343
285 0.0017646656529495626 -0.0004043264984084587 0.003270792935500033
515 -0.00017488119588615267 -0.011246290434720727 -0.01568950419683009
284 0.0023200397227273305 -0.003142620361629766 0.0005676037770557831
532 -0.00030564237173630885 -0.004799502422413572 -0.003789690863988448
725 -0.0001595210553002936 0.0026591235152045663 -0.0017935132922222597
726 -0.0006033952350320257 -0.00207969854050005 0.004387249109409092
730 -0.007504343977122404 0.013706973396382348 -0.027810202207540918
723 -0.009521537675923158 0.0035399846817123445 -0.0010515605329131368
609 0.00497045505202892 0.016550764774615163 0.0033227211200291817
530 0.006271005195807819 0.005188340083802997 -0.0087322627956615
732 0.01048736713667231 -0.005065684181471632 -0.007217379172627693
731 0.0013880033674235897 -0.00978470634017753 0.0027786194710560305
476 -0.03146396623889888 -0.0022201195828409643 -0.006602748884644444
606 -0.0010536314099329346 0.00031967018954370157 0.004025206848003289
283 -0.003754530980913655 -0.003207622870576368 -0.0025468516158840457
603 0.001099119551492692 0.004646576464198994 -0.0007794513357246123
721 0.0054713396803244526 0.0007400954675511355 0.005435729081021581
601 -0.0007876338097229213 0.0017713470447358632 0.00976380532116364
607 -0.009400217978044984 0.001988606347747526 -0.024112535117318718
55 0.0047719934032935275 0.005713643659265478 0.006381992241431765
425 0.00020706141565775263 -0.0048586895529270785 -0.0028785233196395297
727 -0.005027471987348342 -0.0001351275114558708 -0.012125458880153296
605 -0.000493785910339748 -0.007652905905781068 0.00046597208963056565
602 -0.0015159848658350132 0.001237605677114743 0.004130429661035185
722 0.0003572563265906643 -0.0004106387546414797 0.0020421790223032602
537 -0.015500108531977207 0.014609940071043284 -0.011288441853880237
65 -0.005508718799398011 -0.0014153347827046486 0.0014033614897332423
523 0.0026945964848645153 -0.00950512669727459 0.00840502672326399
524 -0.01675810683255537 -0.009677445713745788 -0.0034048025193417807
286 0.0002442368882750811 -0.003310591443157532 -0.004027546232030382
66 0.0022661799764713466 -0.0024583589669805186 -0.002850170786495262
517 -0.004191550635109269 0.002387119955295681 -0.005920909606325094
525 -0.009880932251737787 0.017764586281044152 0.007980571472959873
518 0.0066668352034525945 0.00614252208001395 -0.003444810221711993
520 -0.0057088436243392954 -0.0038625616427023983 0.00335460889226677
608 0.010230411475528082 -0.0026210020103186486 0.008699823565456032
64 0.0013038521364288505 0.0005896422940416515 0.0037113473423479007
801 0.02022297933263304 0.014302345693987762 -0.00360491818958192
311 -0.017433161511299387 0.0161627458293832 -0.03712214164901938
740 -0.026741044432115772 0.01597367116355553 0.0068946024201073965
306 0.000759308293807188 -0.00024072003759763457 -0.004939729739938477
312 -0.0007218749946227233 -0.018691309861933746 -0.012909602442170525
310 -0.00966055028868992 -0.00014479181910742486 0.004841547732457175
519 0.0053396667652256076 0.0037914822785557515 -0.0001974738888177652
739 -0.0014052918690544032 0.0012223337295771317 -0.006947341970514018
53 -0.0026606529689557666 -0.001666608373955699 -0.004436126313748388
288 0.01604969180912899 -0.019448505411267535 0.007743105273862271
287 -0.00623001147710213 0.020018945779283637 0.008460722548472549
521 0.0008702237915833634 0.0028472197023289634 0.003848641889703521
509 -0.0008909220960882727 -0.0015405350436076548 0.005132098054083599
58 0.0042989743364660596 -0.0046321155045101784 -0.01825362818919613
300 -6.397373404582086e-05 0.008034052078039462 0.0023436127898795018
282 -0.0037968411769302712 -0.003720362095258087 -0.005875534301995305
281 -0.0010463309758506534 -0.005716309530177286 -0.0032700380393404496
529 0.005766301984509898 -0.0036817931797477324 0.007150288991838333
547 0.020016869045498414 0.014204503295253367 0.035391701686752576
426 -0.0013428272928263031 -0.0014538712077268622 -0.007805032749780095
544 0.002250907108193086 -0.0013593611005943019 -0.00541151121503586
194 -0.0016058433564854644 -0.005031642682638147 -0.004439120766977405
541 -0.004433567693619772 0.0018192695876761067 0.0025061592101788743
431 0.0007471388039802779 -0.008509304806246076 0.001907319768869354
729 -0.005994368216095729 1.5605320469317546e-06 0.00891796872724082
195 -0.0015609182743065797 0.003690644455005027 0.0028269593572876357
138 -0.014601937210217523 -0.02990120764645826 0.005446555129611159
430 0.017670843748199754 0.010788708543222579 0.006825550522661228
856 0.0040036681265609485 -0.002613147695199813 -0.0021606900147125904
847 -0.005815368967268676 -0.0002661315384403105 -0.003090294817093876
533 0.0023249312505234493 -0.0032190794338980847 0.005413251389915015
214 0.0072086812351216745 -0.001495341593068299 0.00494866096406675
534 0.0022088294080474854 0.012433380825439674 -0.002393549138590323
305 -0.006247937026042824 0.004579494615697135 -0.0003244347730900679
303 -0.0016857074494161565 0.002070583979803575 -0.002857863160789045
216 0.0003933596753465061 -0.0004019616661346727 -0.005131734411071245
501 -0.007685332904994746 0.0050221201767069856 0.026773971947719268
490 0.004967467961695364 -0.003542798655549806 0.011320262194571162
694 -0.006206046757502237 -0.01105080243227732 -0.010813379770672836
438 0.002361746770654894 -0.004723191337897907 0.003048570007722295
575 -0.006816032747656676 0.02458260983753613 0.00819370500168135
304 -0.0010964200674371438 0.002681144650601477 -0.010233692862681422
248 -0.005778614266342088 -0.0241208205172654 0.022754577461005964
859 0.006170598948467649 -0.006950966830797092 0.007087427659091681
569 0.004057946060043048 -0.0012701384481131855 -0.001652025785228161
233 0.000259923539515387 0.0029469199382435975 -0.00028469320287239486
538 -0.010313577674189016 -0.003368723194897544 0.003414143004437311
574 0.03124633071789004 -0.02561002092655196 -0.00429794099934218
477 0.008613862537502005 -0.013080415905714952 -0.003354853600946104
572 0.01070563293749185 -0.014111356321926116 0.02033165584451044
540 0.003696479696120381 0.016308256116150867 0.029737317007603615
576 0.02244733279522394 0.002793451551888588 0.0072548825845442835
799 -0.0029282848098780684 0.010517630236574038 0.015938231390582036
435 0.004137053041290648 8.777874767711064e-05 0.004564766480463162
255 -0.004308729389662245 -0.004489197069719054 -0.007156730113008787
434 -0.0025841579890916937 0.004146395453500214 -0.004601083434136043
243 0.0028759129991432677 0.002887717874411231 -0.002654533718671385
249 0.010394378514180316 0.009653775013250118 -0.0014424506866042694
253 0.00022265542616992174 0.0019714998859311893 0.0017610105622188166
254 0.00524573623822465 0.001873694396558268 -0.005253471177776979
469 -0.0038650144832479898 -0.0020827364333963158 0.004875705070042994
256 -0.0024727011340614983 0.00021029223605446948 -0.0012765541598616455
250 0.0011435286346125491 0.0031226585657623167 -0.007288177813865761
252 -1.1814301091279187e-05 0.0026362759971121836 0.0026198033485948457
260 0.0033322112690731924 -0.014423757721058346 -0.023389345693447527
259 0.020128467588390844 -0.020545979320832113 -0.010149850110337703
241 0.0007304554745730532 0.0034692639248808106 -0.0009587912569154759
258 -0.0015200982679608145 -0.012268629262947065 -0.022518762083382615
257 0.01022044724763427 -0.001617717377165073 0.012411823305997082
522 -0.004868358201108272 -0.001137798487424806 0.0049940891963704374
526 -0.0029466077045908552 0.019563850373325167 0.007199316021723993
528 0.023597819878159128 0.010263420899296887 -0.0068444226246665
251 -0.005618449415753775 0.0028266229221403033 0.004821683183253102
242 -0.007155494836107769 0.005888586372479154 -0.008974034752529702
246 -0.0033039185423825346 -0.001919855016697472 0.007161405342262142
527 0.005744129538345884 -0.006313554772798763 -0.01280904554329095
247 0.013859064009105958 0.028941505845946368 -0.019545841176306592
5 -0.00743235128869581 -0.008824388398316002 -0.0014105253199791993
244 -0.0031648550340375703 0.005699825823937448 -0.01033439660859443
436 -0.006397120112108157 0.004175699671872239 0.007972781269088994
861 0.02583256824120532 0.00711165002994972 0.002627480985940692
860 -0.0008276476619009546 0.003357465839777298 -0.008776486586688939
853 -0.004503860026622041 -0.0032273659865728875 0.0018075317325950285
215 0.005972006222990043 0.002311456488484146 0.005373669877233614
318 0.0049942223754543625 -0.004911293142671871 -0.00037257321922282507
324 -0.0379704347021547 0.01716247777604946 -0.023636633034367506
573 0.0020459304935630668 0.03176506966965805 -0.02125295113454554
567 0.006761937116180633 -0.009477220407313273 0.004074109801126346
565 -0.0010821456932298451 -0.0034575287373021985 -0.0044656947317796595
437 0.003645315927720801 -0.0013702238011786636 0.005214052093329245
568 0.005980753745003784 0.0019261282112193199 -0.0028996929105774526
571 -0.041068568924342026 -0.004987913881008959 -0.0048126832949374
695 0.0011640833480899833 -0.016127728485407902 -0.022492252806868125
566 0.000997157334559258 0.0005453714761551662 -0.0028266109535601135
570 -0.004834149563286401 -0.006001170023060329 0.002559755020580698
317 2.21975168118269e-05 -0.005447107494863587 -0.0024082543791867114
475 0.016392070860531696 -0.004814636592807614 -0.03810324654674869
923 -0.02114929090313749 -0.019124161176101155 -0.0025759698789949025
238 -0.0011114385206377605 0.016183625564810466 -0.015235200109290338
690 -0.0001794018450987274 -0.004750048197138732 0.002753847104359515
539 -0.021307767956353727 -0.014071889877811883 -0.018160438376023977
795 -0.0023398756438593477 -0.002600618936365449 0.0009328243567934181
314 0.00369990279305094 0.004100650274814039 -0.004823426486460329
439 -0.004398836293180165 -0.009723524204109386 0.0010175028071791473
854 -0.002686845747335628 -0.0031925772329240184 -0.006259989022428294
440 0.007512391742034533 0.000762715473051811 -0.0019232143779439308
433 0.001471593898968615 0.006743372759450189 0.0038067061056122524
441 0.016246904732008346 -0.012977970232061868 -0.012071587369515174
315 -0.0019222465937849735 -0.0031700470430302023 -0.0032913170612831368
319 0.008692897065481995 0.0018091192732582787 0.0035888181540908847
137 0.022047320996397675 -0.015193450343596619 0.02373402340780021
444 -0.015231568866152526 -0.028800615930990113 -0.004896162029499673
299 0.03140891088526016 -0.029138775022287938 0.028402986459347947
841 0.003495075651973621 0.002783612747348878 0.0018137131096633795
152 -0.00519639443866795 0.00011811337907048164 0.003387803893991143
741 0.010701610456574855 -0.013346106355147037 -0.004666763436427804
481 -0.0011786564450411824 -0.004781697643439369 0.00298467276933581
794 0.0010357018076077038 0.0026832114212167885 0.001968420455777434
545 0.0012357619322487141 0.005316160283809028 -0.0020654364655080825
153 -0.005662515573529075 -0.0013980652499752952 -0.002458209490828703
487 -0.011290094467918609 0.001096781068696799 -0.003502039183066219
491 -0.038728607579073704 0.00870451698985086 -0.0017587250081043178
536 0.0013038867521515103 0.012509872297285028 -0.011785515389562164
151 0.002611067711765463 0.0030658855570436442 -0.005821996278802525
443 -0.013015622502049516 -0.011289521008959124 -0.007364496675039958
550 -0.001668756846263162 -0.0013946378011193007 0.0051293095375777005
451 0.002733168425642664 -0.014981925207410374 0.007305457492117812
452 0.0014278314212463282 -0.0016481269338922484 -0.013886234252901036
488 -0.013329918822785537 -0.02514077276111051 0.011213361360681254
297 0.00903548518906568 -0.0021222587638555002 0.008488072939169195
157 0.021994896604038017 0.006748343138882608 0.0073454058842360665
119 -0.010168091475777824 0.021866370216209356 0.028322866201619206
489 0.01477520664731553 0.005021700932466122 0.021210893036529198
793 -0.00254943662149667 -0.0004153450672447847 0.006608269982950479
843 0.0008643712105080024 0.005865807600495953 -0.0034852405554145482
482 0.0013267634090372328 -0.002660160545784578 -0.00011468880026941443
322 -0.010976091539907498 0.015370001575164608 0.016486611674691943
484 0.011123520873676233 0.0032787241183708476 -0.006756801101390881
549 -0.017630551027758574 0.008900142004455108 -0.022363997879219333
445 -0.0029996411287388715 0.00022232330816906553 0.008380635735636056
156 -0.006829449650171556 -0.0020305933013319965 0.0018191994235437577
852 0.006193163905901494 -0.009731265832458542 0.04556039495893242
432 -0.006223830230767382 0.004041333747575459 0.009685344073945465
160 -0.006458046951195295 -0.0004518570670061574 0.023831513537665366
483 0.0003169703995708452 0.002310373269960351 -0.0018633959319995644
51 0.011920686767838319 -0.005577189967117175 -0.0006435713049092747
848 0.0018329424073968439 0.00889802627430734 -0.00011123692936524202
492 -0.0010584763637518453 -0.033655139059980806 -0.0056553529067919
844 0.003941208606637283 -0.0004997030195338484 0.0006133086242827268
155 -0.0024347223552134917 0.005413767741976604 0.0018450516929652324
453 0.008944798796588218 -0.007408916745255997 -0.0035771909763185564
552 -0.004936078506694908 -0.01121813726292106 0.0033861753710735082
846 0.00039464035616187823 -0.01373808065196091 -0.0034995987007343486
447 0.006305881384986315 0.004827171547941813 -0.0014837859663872038
850 0.005765945556462605 -0.019725184484465353 -0.0066063358094487325
323 -0.017465725606035 -0.012861751926781679 -0.008233112560308387
845 -0.007580781459382674 0.005832182723365504 -0.0043228161607453
313 -0.0032193659782424385 -0.0016706836098719026 0.0010592837356422963
849 0.002044049781270238 -0.01851254552993806 -0.03859033227888538
842 0.004755440895919774 0.001466053139063703 -0.0008719100537790426
158 0.012481497105026421 -0.006304664905287127 0.0001771178139433055
548 -0.023797165994132046 -0.01734312096407497 -0.0018520618165898005
543 -0.008200257197493179 0.005604696992471336 -0.0014574029332835988
546 0.0018870368224000306 -0.006447451237180805 -0.0020438249234733964
448 0.0018236554556786536 -0.0029502957214084724 0.0009646898376994028
136 -0.003367851235740178 0.006954307752144379 0.0011076784318309093
321 0.012701622013619556 -0.0016999237849610763 -0.00534251550426694
320 -0.0021737396660998463 -0.013714730256391717 0.019757781461276637
486 0.008626571699430433 0.00421651324682593 0.00032907051843884924
159 0.039862272130580335 -0.023694067411126434 0.015340811349486144
485 0.0014724840723523917 0.00857026153685203 -0.00023542738690320676
542 -0.00408924340892147 0.002806576684625701 0.004491251554536087
446 0.002747301301017327 -0.0018351146062952157 0.00025127626508817167
154 0.0014832963113962016 -0.0008966702437774792 0.01426766801059601
800 -0.014955465481957239 -0.004283215578184539 0.019040650916166354
316 0.003536361730625493 -0.0028731497723904005 -0.0029197985762449926
855 0.004385049268016563 -0.006269231077225954 -0.003684291489570726
872 -0.016345757121039604 -0.012262316689605163 -0.016690059078576756
213 -0.00512748505557024 0.002007838712349082 0.0017119468997660483
302 -0.0016959385366976812 0.0020664602278855416 -0.0023054545499549836
307 0.021762626774868756 0.022051218570365138 0.004128631004690617
551 0.004223448532686389 -0.0038730950029538017 -0.020879463355942207
236 0.005984363563561498 -0.0018175678010947036 -0.00731463199581679
57 -0.008913800096932944 -0.0116795658438187 -0.006624882939298412
507 0.009667256513768136 -0.005021463284271755 -0.0016045903906175155
610 0.03623740341850713 -0.005598698877382586 0.017807910966539286
99 -0.004993016382776365 -0.012709255476621169 -0.030745593586178004
97 0.0036912427815225515 -0.014733349860529849 -0.016015110236591166
459 0.00170962657934645 -0.0034212871362505875 -0.0011845080168835969
181 -0.0019261079604751153 -0.01082503439504658 -0.00417961312464388
182 -0.005898347027797645 -0.0024875684247726323 0.005562553540203842
183 -0.0031000277552853317 -0.004883555683125276 0.005577259886616919
184 -0.008216903998234357 -0.00018503747397021988 -0.002856961021126322
185 -0.0006540004325564352 -0.0014096104651047665 -0.000869831739655913
186 0.0021495759886952523 -0.0003196961762670158 -0.002189372906772759
262 -0.0018728101389123128 -0.0012308744525489075 0.002429486455554946
269 0.023721789235598464 0.0334046747791802 -0.01573501228007858
270 0.01244550055792226 0.015367638931997586 -0.00636263978155086
591 0.0004688394756801148 0.002365560371465867 -0.002047148688895432
593 -0.0006970479605342139 0.004785682220838233 -0.0009028794432560901
594 0.0013496512793960483 0.0033511572082590897 -0.0020239725207564347
598 0.012894621903455205 -0.003630900995775599 0.00028648842500754337
599 0.03172886263518616 0.012368890347556331 -0.03201186831606954
461 0.00401874686683727 0.004459353992162766 0.004955955664095814
263 0.00480702651910581 -0.002312714576045603 0.0032543315820664277
400 -0.003368430445054848 0.0017074436118774555 -0.0014035033854681981
458 0.0010594853000929654 -0.0011826727022799578 0.009177914248602896
595 -0.00730300383464123 0.01728514724993596 0.012918718910862955
592 0.001394761570411539 0.00590958141512362 -0.00594309971209768
457 -0.0018424274460548309 0.00022575803885734223 0.00579674641317883
460 -0.002351280485768009 0.002893790502684186 -0.0003538351026025967
189 -0.0032910793471951144 0.0191723125298367 0.018944980062634256
347 0.01997889256849045 0.009122908334208937 0.00048758607253489056
468 -0.0035923823236790374 0.022768014815926878 0.002908724099892858
467 0.00809464645920688 0.01482911650743687 -0.0018113835032027158
462 -0.005717169901053258 -0.003547348462113564 0.0036953556990892444
466 -0.00687511042713235 -0.012147529674837548 0.016126348309798793
600 -0.014944339755294493 -0.007333051561887858 0.009955082314894326
349 2.198397991635678e-05 -0.003909819652919497 -0.004244282317297977
868 -0.0043300270453320855 0.003156302850283808 -0.00044092065171965673
379 -0.015462809086182517 -0.0016077991748018273 -0.019816002317715232
418 -0.028336812818459872 0.010540905472160335 -0.007881197761942174
399 -0.0029098062161965277 0.0007875968348121184 -0.0020516123378562265
398 -0.0011042964990729013 -0.0073537602759702935 -0.0013065740761024308
404 -0.0019144070149267826 -0.0070531803509400305 0.014061674576214154
407 -0.00564580068076654 0.006500557441020009 0.005539522135894553
397 -0.004906870034612739 -0.008117184173293815 -0.0007342892731882648
403 0.0025895753240055765 0.018866431550624486 0.001697858961572155
402 0.0075681521969835274 0.002032340724137122 0.00010621825592649291
401 0.003299864551103922 -0.0043223552546275594 0.0027329164057238622
405 0.02322689672463261 -0.004115892764119684 -0.0028967620367496946
381 0.011014245721933732 -0.013193410389895379 0.007582263018714369
20 -0.02394115217031413 -0.003928666911865843 -0.032072653480968265
419 -0.000407992339732211 -0.00368867307143982 0.023723484846403724
818 -0.0020047045795798637 -0.0010602451800903125 -0.002569151063109876
190 -0.02117680062760412 -0.013491668765792239 -0.022195539974828968
380 -0.00412523392761083 0.016980112690846563 0.02224235837071238
374 -0.0009392226071165279 0.0004996227322879514 -0.0025150927887214736
373 0.001178383928625749 -0.00022954739221138254 -0.0013310088977986675
187 -0.030262607582310804 -0.005910333378335128 -0.0017656812103349782
148 -0.01668421755270482 0.0005001115473052107 0.019957946407822256
265 -0.0049936233457712875 0.0025249686571592878 -0.0022372723503219444
406 0.008363610799235855 -0.019803172542124835 0.00953570923327986
341 0.0009674387257409209 0.0025831396674681466 0.002137059899432836
865 0.001815234832284012 0.006391698327522136 -0.0008103818832087144
375 -0.0014481709520634141 -0.0067206378348540225 0.006797993988494889
342 0.0030757329279934025 -0.005121291046176012 -0.0019126003944587653
873 0.03338246901302008 -0.01617345714677803 -0.025911300059475204
463 0.0023337122110083405 -0.04871609610852669 -0.019444534766480028
817 0.0002919989506301079 -9.284779017119527e-05 -0.00013847713064496294
802 0.015158080291731943 -0.01474591627560264 -0.0019718692378065433
414 -0.00022084783072506944 0.004419931563221973 -0.00128354538273296
420 -0.027027008177547905 0.009660886754219987 -0.040325930373594616
408 -0.010651194172214787 0.015223954812825458 0.002168490133810515
19 0.03580451324590937 -0.006527367922095088 0.006225255615095259
635 0.007118299206370687 0.0022134593026103427 -0.017716762941752517
142 -0.005851486492730264 -0.005573492742747985 -0.0028467018986013852
886 -0.007611716764441167 -0.028746410248901663 0.008730049371777926
17 -0.008287013494755358 -0.03256196237216977 -0.016062087306620825
12 0.006814763788074023 -0.002592384826677766 0.001288162821194304
11 0.0015237783155356815 0.00478352815473376 -0.005280508654540011
18 0.004980484479296777 0.015699928150877944 -0.01230589278741837
413 0.004791624920715538 0.004973985410193927 -0.004082672494822313
141 -0.005032701274777559 0.006249131886396853 0.00626719358309741
147 0.009682907748685759 0.012024684961101128 0.003548288879249149
465 -0.018973801331964416 0.019277140472195895 -0.004095213926805186
376 -0.006132683730774223 -0.002858110341670244 -0.0005478620238768683
149 0.011522610883280687 -0.009636316507003587 -0.014084041107612291
622 -0.017301576534034427 0.015785925472650845 -0.020982464545984344
824 -0.002889659582736181 -0.02268633051603682 0.028602058242567792
636 0.008324662984371503 -0.018302649645826705 -0.023221132267447542
146 0.0013730457925222065 0.0018599807749644546 -0.0015643038060340632
150 -0.012470147027958681 0.0035781318536072157 0.0077483038462180945
952 0.002084656316576887 0.004542049512843569 -0.0008432959184258088
1000 -0.0019382603501371034 -0.0013785159656690264 0.0045431941930887555
219 -0.023179235484436938 -0.02296225882113284 0.0035433923065532236
464 0.007499824989268737 0.01483910877737671 -0.0018994018779109625
630 0.004079228380067278 -0.001287249725663349 -0.0004171085208051901
634 -0.00026459681227685084 0.010614639796248222 -0.0040001831654925876
382 0.003833656907563872 0.03896688741774614 0.0019572672882455485
264 -0.007358110072087939 -0.0011623537975883247 -0.004438609370165464
383 -0.031057817646359797 0.00010504358342086063 -0.015201625042171608
28 0.016412442585608495 -0.012956646123595705 0.02442909191863159
27 0.0043166350468435925 0.0026512917557737574 0.0314898282546364
377 -0.005038620526786393 -0.0007050102999217075 -0.005563982527221465
829 0.007732998582812881 -0.0004735065906717451 -0.003875097486972471
332 0.0022706626128301635 -0.0026408118066670724 -0.01708522491164457
333 -0.029724935001667934 -0.0006190082895812157 -0.004232576023612169
168 -0.0425420604875595 0.013988197397621251 -0.004027610892923761
128 0.0039262519820625775 -0.009256443723775378 0.01862687085361098
325 0.004226196830544219 -0.0033446381818653596 -0.005888265867497426
331 -0.02173334103340924 0.0027220600253930363 -0.006568053306362637
378 -0.009019775894327097 0.0011972618458123304 0.0016216178929699871
166 0.0025535020821362024 0.006371848952266155 0.0016515472806361922
326 0.006592336410198244 0.0017603592708188617 -0.0005765274385117152
161 -0.0019028184617499646 0.0008197581125706062 -0.0041499260128748565
348 -0.00852043217168066 0.014261633143940234 0.013579299435628248
751 0.0019424368790352353 0.01402596267715759 0.012810257729317893
163 0.0008147282313122758 0.006133946032239017 0.0018663760108304334
164 -0.0018745809711205692 -0.00017511826298353085 -0.0003979942278152216
753 0.005353800282915633 0.0033137873772648234 0.01469164010788332
267 -0.005025733467764311 -0.011414512356083562 0.010475244123012022
261 0.001066208747633448 0.00199674947598535 -0.00047914566481687505
162 -0.0026662756160992116 0.003964758091249659 -0.0009654241981602116
585 0.013451676180334445 -0.0026726019549046126 -0.008521392593992526
268 -0.026022393849700367 0.009631480727959552 -0.015443822148015662
266 -0.010074341182164348 0.0034108387556589293 0.0005224298594988009
359 0.00449877350400225 -0.0026208855046006285 -0.011007873306546241
358 0.002269408988071015 -0.034944363464158704 -0.017084284184484856
336 0.016882811612789837 0.02955229964200438 -0.03230495906937863
335 -0.02985097734176185 0.011791505279967763 0.004600166596842816
583 0.017183329448109522 -0.01998729006080566 -0.011390022092571821
334 -0.020907304705536527 0.00823999545722505 0.006248007862741173
330 0.0004960761256343034 0.0023066497307971602 0.0017392532179371584
578 0.000764108344694971 -0.0013633285721589795 -0.0016966232577370294
329 0.003244536118072187 0.0055475705804967764 -0.000895217449845255
327 0.0010937193465021748 -9.397248177799081e-05 -0.00424522085543253
616 -0.00922172041197751 -0.006770811521506952 0.00913423721122147
13 -0.0033256145057235175 0.0043030942254618796 0.0013920446139970846
615 0.004208803214053816 0.0033062330186717083 -0.0008960252362285977
580 -0.004805312003318488 -0.00017949805342781317 0.0033095141437367655
14 -0.01237475254675316 0.004139753855443751 -0.0027485578700067364
15 -0.00038691959449842125 0.006303235420464447 0.008899082618859452
16 0.0006208192788694078 0.00019959396009324676 0.0021719881378989064
121 0.003274403179110161 -0.0033461543735211615 -0.0013276684571599257
122 -0.004918240878434367 0.008854166062108182 0.0012438925551266156
123 0.0031768010306946854 -0.0030914229867712514 0.0028510914087399373
124 0.0052204110768806315 0.0027631846507726425 0.006897857498730101
126 0.008468899338127974 0.00359597931389588 -0.004070468203462818
127 -0.008315432118913842 0.007248101446180012 0.0006899058608997722
129 -0.016577610066892512 0.010246854730927325 -0.027311403141981796
360 0.006093887290368727 0.0031606863505136266 -0.009163983079237306
581 0.007555538150544953 -0.0018907138920740852 0.00020898153286691648
579 -0.0022209583441638475 0.0019347847391678215 0.006180870032667023
328 0.007960232391464853 0.009435788004331066 -0.002709262457238231
577 0.005469025044708469 0.0043387887291216985 -0.0010092406833698774
26 -0.006454487316625138 0.009017931359994976 0.0035895947571360815
354 0.0016580129585998865 -0.00786100288417119 -0.0003824990671609142
125 -0.0034675224182167423 -0.0014425259689890846 -0.0036892414563235946
748 -0.004651294937916144 0.0006727525797292003 0.000989146158505153
951 -0.007385432052188702 0.003894117874534786 0.004997027338024312
621 0.006641360697717905 -0.023118164655014102 0.0009146626149007822
170 -0.0338746342181192 -0.01076061180514195 0.034498974991729034
584 -0.009880064382385905 0.013095167024688258 -0.0005120314211490727
167 -0.010301033500040871 0.0017574648111884528 -0.014287278717106382
816 -0.0252648965886591 0.004388503961663749 0.01631447152713861
746 -0.0011241120003772506 0.00035983393283841914 0.005141833783327485
950 -0.0014126843791827156 0.0015227406446094995 -0.0008246502268217201
745 0.0006862136274291727 0.002923643307561588 -0.003580383801334878
353 -0.0028909079742820048 0.0038092038948212017 0.004530778392096174
752 0.021175864652317876 -0.026341110755409892 -0.02124442665572351
169 0.001182300874845015 0.00877089298465454 0.007973181743175834
836 -0.025330249941695422 -0.022932635538854287 0.02685934929626907
837 0.0005321852130137531 -0.015051335379564488 -0.009894383666673359
949 0.0027153859167379397 -0.0016666966146425058 0.0005539399762321684
835 0.005100547746132111 0.020509328079377054 0.00014086363720456968
1004 -0.010074932966207518 -0.0035438571861259073 0.002483545307553295
588 0.0051373863208880165 0.0011886638645322632 0.0038525850320376177
582 -0.001369157581315808 0.004413327363578307 -6.908693508084715e-05
587 0.0026247833430027684 0.01640905049718181 -0.005104290793924476
774 -0.0026371432190212657 -0.006242884520600016 0.0031492698771809456
21 0.0042000119968280064 0.004038863708464344 -0.009459081917614997
948 -0.002590798472546193 -0.007398470898361352 0.0024279928643279377
220 -0.023088151364188035 0.01770505519994213 -0.01569535292110856
617 -0.001264649872134452 -0.0007075806433077846 -0.007640202492476277
953 -0.008611783425827748 -0.005343525447775358 0.00026208665288633237
25 0.004073866454007831 -0.0016925607984043065 0.004262649060637711
779 -0.002925921666265376 -0.02096188541578121 0.007945205785330091
590 -0.0035265396818226773 -0.0012287496988652488 0.0029850858623409545
589 -0.004113599145520079 -0.0033957335717854495 -0.004586734140657666
596 0.001368935923556894 0.007754664942722366 -0.0021645861752372817
24 -0.00039778590482761117 -0.005182912624953571 -0.005610994008194894
942 -0.002189606655524661 -0.0027614442989523855 0.0034855206002285446
943 0.010940403582873189 0.014637930654804298 -0.004572841844026411
597 0.010992035622569155 -0.029091100398257727 -0.007120297947935708
368 0.01437662541403548 0.0029667135560233655 -0.02846448616609436
882 0.003021048022593475 -0.00047574049054688544 -0.004741233306950783
680 0.004805512575866943 0.02608170895253035 -0.020239217855973983
957 0.024992543809800385 0.004867799164020558 -0.013493161628057524
887 -0.010458261736736878 -0.002777992786385985 0.01463013405224562
369 0.0020685792634149883 -0.009243779435071587 -0.009580101983821494
674 -0.006480223312385332 6.70213051897771e-05 0.0025326698004462973
925 0.0010880222207890907 -0.005229772167053936 -0.0004072894628943253
352 -0.005206356248968229 -0.01039923963505392 0.002465253215192081
494 -0.0006899592083193266 0.0009974623517763803 0.00441091206424531
670 0.0012661126331016351 0.0021224524852980577 0.03473745817849338
747 0.0005176164466631679 0.0020247048049395876 0.0023971647044045427
825 -0.017404769736964372 -0.010731086974733638 -0.001884414085362962
946 0.014356803283971502 -0.018771503635695456 0.01278835629818955
673 -0.001592924952357797 0.005008575908240975 -0.006462205558931499
945 -0.007763856528991102 -0.022226195026031983 0.013235242130709672
940 4.52499437405407e-06 0.0017178094079050893 0.010467424875811024
938 -0.0031019815542356255 -0.0005015203418982932 0.0005279900593509484
804 -0.026882103381759948 0.004143616209969193 0.0005200798470193701
937 -0.0020036338172078815 0.0030674210757249574 0.0026688909527121238
362 -0.0018012708538738362 0.00534869945063196 -0.0030519191854479263
944 -0.010484252807486525 0.024837392274413127 -0.0036182607638676903
361 0.0031872819911626603 0.0018437944502088118 -0.008056444670021244
930 -0.0006885809847169707 -0.0038219704799195447 0.00488680160780141
504 0.006747125616220546 0.006083627458614829 -0.007630677271452117
495 0.0015535884048183176 -0.00492358350733453 0.0009772436000517885
803 -0.012875388096403553 -0.017515834820071133 -0.006225669537772699
498 0.0017688041814297867 -0.0022697719051813494 -0.0027189189806597963
926 0.003069551144380926 0.008757510221226152 0.0011218878193945477
749 0.008789150209359558 -0.003811079444418924 -0.0010228864674364897
756 0.01366376527860404 0.011987232350320103 -0.015107709030872687
666 -0.0003436361064066756 -7.298426503892535e-05 0.0009999440924402928
683 -0.0007079931317394402 0.02538926897953476 -0.0019410886872563513
769 0.004671425059945479 -0.000698306566204476 0.0008677621053277114
502 -0.0172585049323046 -0.005225694035674822 -0.004988295973641139
675 -0.0010820793185728334 0.0001319130826023107 0.0009193366060013685
682 0.00717156993452876 0.01563463941658117 0.010673231431983754
776 0.005571913728706213 0.006789503880678313 -0.027899087364104465
371 -0.006976981380630657 0.00353475624340319 0.006391536351490526
755 0.008663572316858723 0.041209433829938295 -0.0062444237505718024
677 0.00043489282014650007 -0.003318816670462154 -0.002035755195203305
750 0.003940724624413808 -0.00476345920954078 0.002028742337015246
798 -0.004637864033975789 -0.01185365839876449 -0.004129964822005475
351 -0.002939370793922975 -0.001407107021264326 0.006720845047607848
678 -0.005249233413304788 -0.002608018037320726 0.004902896654066428
586 -0.03613821404343534 0.0041188954631415815 0.0025850445141128746
754 0.002821171379284326 -0.014020516813880446 -0.031016356302407816
366 0.0016747479621692393 -0.0008859637461072768 -0.0035364945351029366
679 0.013546901314618123 -0.010304209283893211 -0.012218680311074096
978 -0.0061062097667354594 -0.003789748623947988 -0.00597187955112074
935 0.011032759143987776 -0.012474676763189436 0.012768498012463866
939 -0.0022001724299773465 -0.000883020949398671 0.007658383027531145
775 -0.021559407846823846 0.004823257927149984 0.013947043559215356
929 0.008199680214668142 -0.00037052714746138907 0.008478222940507561
364 -0.0022048939718873634 -0.0020370790769611985 -0.0031435418834052826
771 -0.004104112319809139 -0.000565180938379738 -0.001668006383299857
934 -0.004302228534311335 -0.027171969905107854 0.017289419367554456
936 -0.01910505522880034 0.0026521209953756448 -0.003976608823156651
684 0.009158416640562236 -0.0010457872914425095 0.010675358718751925
497 0.006469830033530539 -0.010185912588889708 0.0068853804705037765
350 -8.90587871247398e-05 -0.0005173831016655882 -0.0012068005370842654
370 8.13191868396612e-05 0.00394931243328692 -0.01878646864166941
676 -0.0016367970837901462 0.002689992713750293 0.0012097110736003127
363 0.00872778001519373 0.00016473362017215871 -0.003170433253135781
928 -0.0013851049958692183 0.002746896598006216 -0.004603453843902688
927 0.0034334725038084124 0.008793993201647695 -0.004786838775796729
941 0.001506694659489679 0.000985602114683371 -0.0025465914627039498
130 -0.023257098009608675 -0.009697931390283996 0.0025073731953811403
770 0.007020369518531412 -0.0028293071412318345 -0.0008798729085360742
772 -0.007157509441023793 -0.00146470968198727 -0.005527469677646713
777 -0.01048304380125383 0.005484302457899188 0.02383332849142698
367 0.010165521040139654 -0.007058255181139625 0.015186256399218069
372 -0.01759067468300017 0.0056578435277094 0.0004154394090678836
365 -0.00012707997341565862 -0.0015583364882355952 -0.0018679100738135986
773 -0.0034426662400886066 -0.0033777912887304243 -0.0013089938455878218
503 -0.015321002776858479 -0.01247233581451079 0.02834633338415306
356 0.009518581487403473 -0.01988545868417768 0.013986404645644717
876 0.009582764323896372 0.017162458119879574 0.011146868131975485
933 0.007980497265101787 0.004232081002112063 0.02230111581337284
823 0.005989077099867441 0.020536655976043598 -0.015179852196775135
355 0.0038034873396794815 -0.011733215784525698 0.003467531346207866
618 0.0037270602774185225 0.004153581346037057 -0.004585733221547795
672 0.002736930883227097 -0.007594163180502315 -0.0225266986558694
1002 -0.006517158490588049 0.010733001433747794 0.00479386768398801
188 0.012696093707033663 0.0028564059385368244 -0.030109958474806235
830 0.0061606998897348105 0.0024484866514172744 -0.0022780348118475817
871 0.0020278346189591544 0.0039837848127912846 0.02033970335328095
681 0.007577223822490689 0.01754162606842472 0.0033672725540665528
271 -0.0007638373609624553 0.00011697433199878707 0.011977014643850236
272 -0.006199406470805911 -0.007108602524624367 -0.002204971843058031
273 -0.002515715715174006 -0.006887262463628259 -0.002510955310596793
274 0.00035090860855825797 0.004657478086933726 0.003312219504841828
276 0.008895208854891288 -0.0016268787296237362 -0.0022930271263832008
277 -0.04101267026337172 -0.0379837124946353 0.004679530611724507
278 0.001978331151660019 -0.03442237731579279 -0.015162324211826143
279 -0.006155315436026723 -9.939832672498128e-05 -0.0066010325524605345
280 -0.00921074065396997 -0.003239027943459214 0.001095215163037262
631 0.002480203486386358 -0.02759691041983597 0.009197537166184131
637 -0.005483307605002411 -0.00020420272597428504 0.0010237841540679576
638 0.0013750646879633838 -0.001681866466790805 -0.0028201865573354804
639 -0.004053599578581676 -0.004588773466293394 -0.0017902398323257009
640 0.0025090663391881805 -0.005790243055890261 -0.003431920426679982
641 -0.0034353651271262203 -0.003490707000443971 -0.002353526681142774
643 0.02312381905122227 0.008161399088846047 0.013423927729599725
644 -0.01850439500681943 0.011696422486007758 0.0055404032953090794
645 0.0076509712082646 0.032505418898345836 -0.015044233318555771
990 -6.12856823186488e-05 0.002992900278090127 -0.004075372293861833
991 0.0036196461273473317 0.0008838467088132894 0.0027737890475454125
992 0.002633064324621529 -0.006232528983842656 0.0025464971821190516
993 -0.006765769911176316 -0.0015878804427110977 0.0009809576741237093
994 0.0025418573332235137 -0.002121226769446239 0.00030776574405430134
632 0.00904018723307979 0.004717781424086347 -0.016158396791621555
144 0.002870859374339007 0.0013790052575505885 -0.0042266795054756645
628 0.003170277790113229 -0.010167942221252873 -0.0015343399549897336
633 0.004023490256996207 -0.01073499935321586 -0.006415478879174934
790 -0.0016039762780429528 -0.018108841075904863 0.01830342402652599
786 -0.005624532012751579 0.007393383548550183 -0.0027057459067925107
627 0.007720629418532466 -0.004120780360683679 -0.0017648910702136994
629 -0.0034045098692356114 -0.0077447610392268355 0.003940724787644489
791 0.018514654447339813 0.01020663206712892 0.013516874543618936
625 0.004769567277411177 0.0004801956343164368 0.0008538927056558872
649 -0.0021901074517817706 0.0004853101749552608 0.005680022793619459
626 0.004018553357148862 -0.0010308400544670438 -0.003853746442873826
657 -0.013707888901379486 0.00036267540429767576 0.00823992324316936
145 -0.00164113254187082 0.004771942697882856 -0.0012655738338408983
979 0.0036073372716182604 -0.0013211272727052998 -0.0002050435182613017
784 0.006267261781173575 0.0015149791471514296 -0.003924307379511277
646 -0.005455428066237388 0.012440938216092464 -0.010872939016013137
642 -0.007123088477878239 -0.007913282026830263 -0.002723572563048249
900 0.006624447859297746 0.039086788305221935 0.015202953412847975
706 0.01803010532064865 0.01077737085988692 -0.010828510926384457
895 -0.00998542029530271 0.004936725897104655 0.0011722287319258183
1012 0.003101127267992493 0.006346011931785206 0.0024485938447086834
1011 -0.003142557184071472 0.005210173359151954 0.0017005109037662501
1010 -0.005274552147166273 0.0029410150786964963 -0.00037784606291172443
143 -0.0053452443405118035 -0.0031676611664509433 -0.004356556543271272
892 0.0003205466847886344 -0.0013453799798791603 -0.008394480218717816
894 0.001468297396562227 -0.011128636386189019 0.0025112078076780916
899 0.013940558911258113 0.01135292969430789 -0.015183872212456432
52 -0.00515386435499019 -0.0017093904024672627 0.003895517390189219
423 -0.006872519445094788 0.002763873581417433 -0.0046139879719827685
891 0.005649605451830876 -0.00029729386109015346 -0.00020902850734409698
893 -0.0027530604763377617 -0.0049215588035866065 0.003581828706886425
898 -0.01613076992737118 0.010051019938247075 0.0015525968035889463
135 5.478362336899842e-05 -0.001397587357288054 -0.000717202347430056
1014 0.0049542394774664406 -0.004112598172901075 -0.0021671934917428565
650 -0.0007378515427826088 0.001877512855069258 0.0012810766555724554
346 -0.012010840109797168 0.0062427643759323135 -0.007928679615806553
976 -0.001986041386888764 -0.0032425099289475293 -0.008090174181558888
234 -0.0014593138670084649 0.012418080753978048 0.003325834133208494
496 0.0028078108039342685 -0.00244309967242562 0.003234369384555092
614 -0.004999409879012388 0.004242678222078379 0.00518676298017099
422 -0.0008910049193730985 0.0015455103534753067 0.0018323481084198561
449 0.0017457034388079187 -0.0011563731239025911 0.0014133537087065017
421 0.002126699375685735 0.007576178272012798 0.0009330552108017256
275 0.004948687625289286 -0.009834235572034743 0.0010897364219341836
792 0.01591227461238547 -0.007775199711606537 0.015239273146713767
947 0.01718611727354147 -0.02246673124723077 -0.029598547599590602
647 -0.0272072653214381 0.026652025203594762 0.002155982714294415
59 -0.02023247700742905 -0.048339384907415774 -0.010165539179595765
648 0.020874786708157726 0.004027096453932687 0.01527727845387415
134 -0.0019004545129852161 0.005184501862330725 -0.006658345738592613
535 0.017516762263349046 -0.019775465922046365 -0.0008488702928828839
412 -0.0032319433532805937 0.0023655706266556475 -0.0008143501184153273
428 -0.024699832055649313 0.02773006423900684 -0.0028053093050351276
60 -0.0001981993426567733 0.007879381149718607 -0.004556609582444029
656 0.012532668038214956 0.010463603741278176 0.0017566071019629692
429 -0.010669643691885267 0.01050231458797852 0.006550528581855671
796 -0.001053686472601684 -0.0006852487954975777 0.0032550538991136346
470 0.0007240423762735137 0.0037188723988390337 0.00014611284337236592
619 -0.010055635134813874 -0.044033885233677204 -0.018220959452814545
442 0.008457387034445292 -0.018686928587295957 -0.0353031485914266
785 0.007631500012393589 -0.0046535955899673735 0.005946495601635763
1013 -0.0032486898438153604 -0.002929907104730484 0.0014520986370213508
783 0.00894783075347918 -0.00411167890065328 -0.0009344011131026688
208 -0.009846391054105421 0.021515376495264017 0.0063905212998489076
704 0.010550359217274286 0.003769307658790666 -0.005863890303117221
889 -0.0007933517348128103 0.0027101447202411014 0.006523985480172123
896 0.006558590077936941 0.00031418763905773393 -0.0033014133057420667
890 -0.0032896903340340422 -0.0074462233203310725 0.005887792343581309
705 0.0015206457416880215 -0.01112027038374332 0.04316226821425424
411 0.0014126790268032961 0.006000815239192273 0.0019134259432338852
959 -0.01919205514020279 -0.014493338262259172 0.011278167929070243
787 0.005727667749453058 0.006731990074447359 -0.007048689125568554
620 -0.003696625392257403 0.010588313233360621 0.005394546664307981
958 -0.010957358495569702 -0.0024174995835858173 -0.017671093255899554
789 -0.015480085545226702 -0.020282317911780662 -0.015529032488702871
781 -0.0020804291952705384 0.003415336853115336 0.0018969418159825995
612 0.006302235593096481 -0.0051278067745651615 0.009240156472699112
671 -0.027500612793954347 -0.004165241305804162 0.0057750422258230965
473 -0.0033921639147465547 0.003475466708931345 0.0019369905167870504
30 0.018830747985614637 -0.0007450097286192327 0.014673591984136376
788 0.008470401963529226 -0.008050046750109554 0.009641808308768004
339 -0.0042103696401070145 -0.003418203976869685 0.0056197070007564225
782 -0.0008003472394224236 -0.004060816848017078 0.004261555002994843
344 -0.03162511495402946 -0.009978131275759864 0.022723097584016295
897 -0.007109016670514498 -0.010076677594947844 -0.0012365807863365668
340 0.001049737343962339 0.0023498164186217373 0.0039026087910483875
203 -0.0014585023549485525 0.0006244296402172479 -0.003343067343382453
205 -0.011221401153823751 0.0023922434063061468 0.0006728557691824203
110 -0.011526375149597578 -0.004131234632890622 -0.034756609143941464
345 0.019731446384970208 -0.020798569400353704 0.010031054155482864
22 0.0046517356044016925 0.008063463873949028 0.006740931884108807
108 -0.011370687874745936 -0.011305724376851492 -0.002906500266122059
105 0.000720054347732615 0.0038200220551390164 -0.008988227412091057
102 0.0029367064344836447 0.008319083762771032 0.005663794894772137
171 -0.005502710053798638 0.005348083404904876 -0.0008475587378325358
173 -0.0011857281537276591 -0.0015015975088379 -0.0015810126745606924
174 0.0005068378118111067 0.00429928609038895 -9.713195330344201e-06
175 0.005967540615736872 0.00917010830806761 -0.0041453559327720105
176 0.0015461151188493677 0.008390193368627188 -0.0014093835870488559
177 -0.0018409865906539337 0.009619528050265494 0.0024636624357598975
179 -0.03159680929191652 0.01745182046587115 -0.015291470417631757
343 0.03286832097643505 0.0014682612659737498 1.3566042219427434e-05
23 -0.0031135446427500183 -0.000353957517345598 -0.006136054954971548
106 0.0003521560855384986 -0.0016054853353115184 -0.0002716023982009767
172 -0.0028917350052602014 -0.006261329641628852 -0.0003832106779480266
178 -0.01811306322814257 -0.0034578720731412 -0.022467163670049133
180 0.01732238759870634 0.034035847584757126 -0.00425194874485686
107 -0.007656553937524174 0.006538081930326983 0.030788402325524784
101 0.005980550549511908 0.0016108336394325593 0.006408355474200668
109 0.012155754336220063 0.012309472673395978 0.012459043567661648
104 0.00800017965414581 0.0021142602681318984 -0.00259440589659762
337 -0.003064683828123184 -7.948707632574078e-05 -0.007716943953801066
338 -0.004842924913592976 -0.0015573283764052552 0.0001068289716610012
103 -0.0010084502953397435 0.003604790862533451 0.002742445557392684
204 -0.01171277809408959 -0.006871124678070388 0.0002029174965141211
471 -0.002118296964812948 -0.004279080172312437 0.0019242181622474628
202 0.0029840946332882604 0.0016955544488687154 -0.00406289181172152
29 0.01909168869313482 -0.00246965823997017 -0.02027544572392751
206 0.001206936327796059 0.010461882583945141 -0.0007431171303710944
201 -0.005661919854633661 -0.004604247544003542 0.003725744459011269
479 0.007338121031017145 -0.031277230893848595 0.0005388956047736457
480 0.009272323137999772 0.02300186280599757 0.015648577296525877
474 -0.0012005597819405333 0.006559084539344162 -0.0013082821929125807
9 0.007928551947284394 0.014241584610377691 -0.010149922794920108
960 0.007677570176813451 -0.011139529302325844 -0.03545925148554416
235 0.0007742450261557419 -0.003416450331586251 -0.0006994920175596182
478 -0.004695336433592058 -0.005788084782678907 -0.00486151621251815
199 0.007533643243046585 -0.005111769391717644 -0.011065821272412119
210 0.04446483608190687 -0.008145876702688244 0.008265413605559315
197 -0.00790113275664938 -0.027260631413062848 0.009459092480102979
308 -0.015959549550392194 -0.008696695342412554 -0.003630572173861175
309 0.010023584307937082 0.006165241284079778 0.012690029707215406
831 0.0005256080715313169 0.006320594864902431 0.0007766919953868317
2 0.0009099514667815594 -0.0055220647593904664 -0.0009146794178416138
209 0.005280837299456671 -0.03525166804222143 0.02195151160488025
207 0.022915247656779884 0.01159829188377231 -0.003925933584868181
301 0.001052940778910483 0.0015684908040501002 -0.0028495026602587724
954 0.0015422616670962236 -0.0010673374142961 -0.00404710461413011
768 -0.010326338618780628 -0.010512211185912022 -0.02841143668809032
931 -0.009128379147221467 0.022141394654740996 0.015182353872093268
200 -0.011140772846749712 0.023153747693862088 0.032605108576930254
833 0.004155176663531282 0.004049344406864658 0.005165737946306697
472 0.007099153537576913 -0.0021790355814023136 0.0054423996978075215
10 0.02013402321996873 0.001404043505035718 0.00604265303992293
613 0.0014328686752138838 -0.0016071736162054863 0.007326304927063503
653 -0.00843549657615 -0.0002019411627263751 -0.010703058669130818
165 0.0012807521542466367 0.006529713379811254 -0.0005826413215331157
778 0.024478410460082697 0.005204354365972374 -0.0037694881740409016
703 0.0121008264734699 -0.0026045892212828137 0.013573994731669467
424 0.0011244863925970298 0.0019015564677042742 -0.00981224429081661
982 0.009524945093367404 -0.005976391980144502 -0.004578720718741048
700 0.0009967744792053483 -0.0019205724832483879 0.002691967036746805
708 0.0052067628359019555 0.009091476635654221 0.021354795286155914
611 -0.011006475151354445 -0.010411549227839774 0.013349597142473718
702 0.006632948335285544 -0.0032829661424867863 0.003480643678463211
133 -0.00585609248201685 0.0060572884373902335 -0.0014717020799712897
3 0.006105020602153192 -0.0031835053807514817 -0.002505902196654722
132 0.00012863414846105544 0.004623708140587111 0.007753419370217746
652 0.004919332206828885 -0.0038428175040590125 0.0016790843116161927
932 0.011144276648390752 -0.006304071660887726 0.020119098876434788
983 0.00016508268031406614 0.0033130569569655498 0.0010381151777567987
996 -0.00356257528378246 -0.0015936343854286387 -0.0030706294292292286
140 0.024928244260242705 -0.013151658075523348 -0.008039183012167177
193 0.0037264969065162407 -0.0014062883814110205 0.0036625022720558676
832 -0.0011356037275672183 -0.0004782152924933154 -0.0012373112804091627
7 0.030716966501933163 -0.013476992624375567 0.029569699175850155
655 -0.022662779894174454 0.007166966543191823 0.027218874982211226
427 -0.019267410267856278 -0.004586530114899623 0.026772565314619745
450 -0.008629564065200766 0.0028122244635979945 0.0018108874414270275
998 -0.004364011027435819 -0.010314701420253083 -0.005694595409289798
6 0.00010232094842099728 0.0075738833199084565 0.0019600671930397945
697 -0.005931996103623819 0.0007283265502018698 0.0035607159960699035
995 0.006378163983652432 -0.0032822847262954486 0.0020389635952999174
191 0.005553162224532796 -0.007488208185806092 -0.005665925549446473
198 -0.018854750831360515 -0.003184802024493036 0.018937773022843357
707 -0.01482215416807667 0.0016144029342581856 -0.007297501495749537
192 0.006057083218231871 0.0034212751221493684 -0.002536392838485026
139 -0.02059846962350231 -0.0025351390370589163 -0.016909260712213662
665 0.003991638502261525 0.0026538466703547995 0.00200679131248779
838 -0.00364378769695473 -0.01241648347023404 0.009546116893233451
196 0.002416870159746727 -0.009094549556110899 -0.003860972875707811
654 -0.005880619342560878 0.004276063768011783 -0.008416402497811275
4 0.0020907026015153556 0.00011986299228063498 0.007346372258948129
699 -0.001369030524485724 -0.0009205166127219218 8.707338200536237e-05
780 0.008754426665187463 0.0165317074454737 -0.009645225497151055
839 -0.008289096546462047 -0.008572284306940573 0.0008502895644335439
975 0.0027168803779674022 3.154709269874694e-05 0.008691163118730864
840 -0.017851756429915995 0.00928445675402746 0.01005877409976309
766 -0.012453267089999387 -0.004536523044046404 -0.0040101128450475525
698 0.002869417721290672 -0.00950340522833721 -0.0013025322342594106
981 0.004254251772146067 -0.0024666948991639 -0.0007865813149771272
984 -0.001105638656314139 0.0006815277671269158 -0.005416753955888269
658 -0.021414182935704552 0.0010894265087511726 0.02574725425092714
834 -0.000979321078517915 0.003907610356516833 0.0059251412260229765
767 -0.01169854133405144 0.011624898249191166 0.010400992944545856
651 -0.0035154976497413257 0.00046522345568890167 -0.0013821968813047874
999 0.006119955520643941 -0.004540121050132802 -0.005057202885297702
980 0.006469443035724429 -0.0008292953793600696 -0.005609853931765753
410 -0.0009815753349245986 -0.0003412648999770909 0.002245694702141876
764 -0.01902345296299276 2.4085610221103178e-05 -0.01717501531504025
765 0.016574411872991586 -0.022650146541022265 -0.0042756624647197535
757 -0.0018487119461956995 -0.0027706902480712178 0.0037535945342130456
763 0.014787924035511971 0.010066944219835129 -0.012025053861482862
417 -0.009319993915419373 -0.009369000077002473 0.009361684617460665
415 0.029931446035044003 0.00181574910753516 0.00946934139776716
456 0.0015857807870674463 -0.003132209769379452 0.018057135849679242
761 0.0013029349219921683 -0.0009724760285924648 -0.005070851240874308
1 0.0064992266591228556 0.006727067652317259 0.004762340368068037
660 0.012970942920665661 -0.008452876171935351 0.003739088972463877
455 -0.0136520122619821 0.0065440224374991645 -0.008099640599787516
8 -0.005068964527161544 -0.001067963114458908 -0.010327803986066832
762 0.00010611183701248553 0.002429477642902446 -0.0011979961545998668
659 -0.009229053708478298 0.027367882275840326 -0.030620359992852782
760 -0.0004487647773557256 -0.005569125866794167 0.003882731854332139
416 -0.014940573882436817 0.018052818033028727 0.012697889847288325
758 -0.001654404364895834 0.004203285921727276 0.003139388045609839
759 0.004339260391988708 -0.0017590609076128607 0.00869283332363524
701 0.00027241038184641137 -0.006116803595370336 -0.010743910555844378
409 -0.002346114183802071 0.005451939252553851 0.0024531773139333797
454 7.170579950388674e-05 -0.026119280540426545 0.009809486626434374
131 -0.0025768430782389423 7.086185624747383e-05 0.00420718547477989
997 -0.0033187997114328357 0.0021265980340411383 -0.004115457548731478

Bonds

1 2 82 83
2 3 82 89
3 3 82 90
4 4 83 84
5 2 709 710
6 3 709 715
7 3 709 716
8 3 709 717
9 4 710 711
10 5 711 712
11 4 711 713
12 2 713 714
13 6 986 987
14 6 986 988
15 6 986 989
16 6 1006 1007
17 6 1006 1008
18 6 1006 1009
19 2 965 966
20 3 966 970
21 3 966 971
22 3 966 972
23 5 963 964
24 4 963 965
25 2 505 506
26 3 505 511
27 3 505 512
28 3 505 513
29 6 985 986
30 4 962 963
31 1 81 82
32 2 81 86
33 3 81 87
34 3 81 88
35 5 84 85
36 4 84 86
37 4 506 507
38 2 62 63
39 3 62 69
40 3 62 70
41 1 61 62
42 2 61 66
43 3 61 67
44 3 61 68
45 5 819 820
46 4 819 821
47 6 1005 1006
48 1 91 92
49 2 91 96
50 3 91 97
51 3 91 98
52 3 822 826
53 3 822 827
54 3 822 828
55 2 821 822
56 3 738 742
57 3 738 743
58 3 738 744
59 3 714 718
60 3 714 719
61 3 714 720
62 2 961 962
63 3 961 967
64 3 961 968
65 3 961 969
66 3 870 874
67 3 870 875
68 3 870 876
69 2 797 798
70 4 63 64
71 2 92 93
72 3 92 99
73 3 92 100
74 1 231 232
75 2 231 236
76 3 231 237
77 3 231 238
78 4 662 663
79 2 661 662
80 3 661 667
81 3 661 668
82 3 661 669
83 2 112 113
84 3 112 119
85 3 112 120
86 1 41 42
87 2 41 46
88 3 41 47
89 3 41 48
90 5 915 916
91 4 915 917
92 1 111 112
93 2 111 116
94 3 111 117
95 3 111 118
96 3 858 862
97 3 858 863
98 3 858 864
99 2 72 73
100 3 72 79
101 3 72 80
102 2 805 806
103 3 805 811
104 3 805 812
105 3 805 813
106 5 807 808
107 4 807 809
108 2 913 914
109 3 913 919
110 3 913 920
111 3 913 921
112 4 914 915
113 4 806 807
114 5 867 868
115 4 867 869
116 6 1001 1002
117 6 1001 1003
118 6 1001 1004
119 2 809 810
120 1 71 72
121 2 71 76
122 3 71 77
123 3 71 78
124 3 918 922
125 3 918 923
126 3 918 924
127 5 94 95
128 4 94 96
129 4 93 94
130 2 857 858
131 2 917 918
132 2 212 213
133 3 212 219
134 3 212 220
135 4 73 74
136 5 74 75
137 4 74 76
138 5 663 664
139 4 663 665
140 1 211 212
141 2 211 216
142 3 211 217
143 3 211 218
144 5 114 115
145 4 114 116
146 2 689 690
147 4 113 114
148 2 869 870
149 2 493 494
150 3 493 499
151 3 493 500
152 3 493 501
153 2 901 902
154 3 901 907
155 3 901 908
156 3 901 909
157 3 810 814
158 3 810 815
159 3 810 816
160 5 879 880
161 4 879 881
162 2 881 882
163 5 555 556
164 4 555 557
165 5 735 736
166 4 735 737
167 5 387 388
168 4 387 389
169 5 903 904
170 4 903 905
171 2 905 906
172 3 906 910
173 3 906 911
174 3 906 912
175 4 554 555
176 4 734 735
177 2 733 734
178 3 733 739
179 3 733 740
180 3 733 741
181 2 557 558
182 4 386 387
183 1 291 292
184 2 291 296
185 3 291 297
186 3 291 298
187 4 33 34
188 2 877 878
189 3 877 883
190 3 877 884
191 3 877 885
192 5 44 45
193 4 44 46
194 4 293 294
195 2 737 738
196 2 292 293
197 3 292 299
198 3 292 300
199 3 390 394
200 3 390 395
201 3 390 396
202 5 294 295
203 4 294 296
204 1 31 32
205 2 31 36
206 3 31 37
207 3 31 38
208 2 685 686
209 3 685 691
210 3 685 692
211 3 685 693
212 4 43 44
213 2 553 554
214 3 553 559
215 3 553 560
216 3 553 561
217 2 389 390
218 4 878 879
219 2 32 33
220 3 32 39
221 3 32 40
222 2 385 386
223 3 385 391
224 3 385 392
225 3 385 393
226 5 687 688
227 4 687 689
228 3 558 562
229 3 558 563
230 3 558 564
231 4 686 687
232 5 34 35
233 4 34 36
234 2 42 43
235 3 42 49
236 3 42 50
237 4 902 903
238 4 866 867
239 2 232 233
240 3 232 239
241 3 232 240
242 5 54 55
243 4 54 56
244 1 221 222
245 2 221 226
246 3 221 227
247 3 221 228
248 2 222 223
249 3 222 229
250 3 222 230
251 4 223 224
252 5 224 225
253 4 224 226
254 3 510 514
255 3 510 515
256 3 510 516
257 5 531 532
258 4 531 533
259 5 284 285
260 4 284 286
261 2 725 726
262 3 726 730
263 3 726 731
264 3 726 732
265 5 723 724
266 4 723 725
267 4 530 531
268 3 606 610
269 3 606 611
270 3 606 612
271 4 283 284
272 5 603 604
273 4 603 605
274 2 721 722
275 3 721 727
276 3 721 728
277 3 721 729
278 2 601 602
279 3 601 607
280 3 601 608
281 3 601 609
282 2 425 426
283 2 605 606
284 4 602 603
285 4 722 723
286 2 517 518
287 3 517 523
288 3 517 524
289 3 517 525
290 4 518 519
291 5 64 65
292 4 64 66
293 3 306 310
294 3 306 311
295 3 306 312
296 5 519 520
297 4 519 521
298 4 53 54
299 2 521 522
300 2 509 510
301 2 282 283
302 3 282 289
303 3 282 290
304 1 281 282
305 2 281 286
306 3 281 287
307 3 281 288
308 2 529 530
309 3 529 535
310 3 529 536
311 3 529 537
312 3 426 430
313 3 426 431
314 3 426 432
315 5 194 195
316 4 194 196
317 2 541 542
318 3 541 547
319 3 541 548
320 3 541 549
321 2 533 534
322 5 214 215
323 4 214 216
324 3 534 538
325 3 534 539
326 3 534 540
327 2 305 306
328 5 303 304
329 4 303 305
330 3 438 442
331 3 438 443
332 3 438 444
333 2 569 570
334 4 233 234
335 5 435 436
336 4 435 437
337 4 434 435
338 4 243 244
339 4 253 254
340 5 254 255
341 4 254 256
342 2 469 470
343 3 469 475
344 3 469 476
345 3 469 477
346 2 252 253
347 3 252 259
348 3 252 260
349 1 241 242
350 2 241 246
351 3 241 247
352 3 241 248
353 3 522 526
354 3 522 527
355 3 522 528
356 1 251 252
357 2 251 256
358 3 251 257
359 3 251 258
360 2 242 243
361 3 242 249
362 3 242 250
363 5 244 245
364 4 244 246
365 2 853 854
366 3 853 859
367 3 853 860
368 3 853 861
369 3 318 322
370 3 318 323
371 3 318 324
372 5 567 568
373 4 567 569
374 2 565 566
375 3 565 571
376 3 565 572
377 3 565 573
378 2 437 438
379 4 566 567
380 3 570 574
381 3 570 575
382 3 570 576
383 2 317 318
384 3 690 694
385 3 690 695
386 3 690 696
387 5 795 796
388 4 795 797
389 4 314 315
390 4 854 855
391 2 433 434
392 3 433 439
393 3 433 440
394 3 433 441
395 5 315 316
396 4 315 317
397 2 841 842
398 3 841 847
399 3 841 848
400 3 841 849
401 2 152 153
402 3 152 159
403 3 152 160
404 2 481 482
405 3 481 487
406 3 481 488
407 3 481 489
408 4 794 795
409 2 545 546
410 4 153 154
411 1 151 152
412 2 151 156
413 3 151 157
414 3 151 158
415 2 793 794
416 3 793 799
417 3 793 800
418 3 793 801
419 5 843 844
420 4 843 845
421 4 482 483
422 2 445 446
423 3 445 451
424 3 445 452
425 3 445 453
426 5 483 484
427 4 483 485
428 1 51 52
429 2 51 56
430 3 51 57
431 3 51 58
432 3 846 850
433 3 846 851
434 3 846 852
435 5 447 448
436 4 447 449
437 2 845 846
438 2 313 314
439 3 313 319
440 3 313 320
441 3 313 321
442 4 842 843
443 5 543 544
444 4 543 545
445 3 546 550
446 3 546 551
447 3 546 552
448 3 486 490
449 3 486 491
450 3 486 492
451 2 485 486
452 4 542 543
453 4 446 447
454 5 154 155
455 4 154 156
456 5 855 856
457 4 855 857
458 4 213 214
459 4 302 303
460 5 507 508
461 4 507 509
462 5 459 460
463 4 459 461
464 1 181 182
465 2 181 186
466 3 181 187
467 3 181 188
468 2 182 183
469 3 182 189
470 3 182 190
471 4 183 184
472 5 184 185
473 4 184 186
474 2 262 263
475 3 262 269
476 3 262 270
477 5 591 592
478 4 591 593
479 2 593 594
480 3 594 598
481 3 594 599
482 3 594 600
483 2 461 462
484 4 263 264
485 4 458 459
486 2 457 458
487 3 457 463
488 3 457 464
489 3 457 465
490 3 462 466
491 3 462 467
492 3 462 468
493 2 349 350
494 3 349 355
495 3 349 356
496 3 349 357
497 5 399 400
498 4 399 401
499 4 398 399
500 2 397 398
501 3 397 403
502 3 397 404
503 3 397 405
504 3 402 406
505 3 402 407
506 3 402 408
507 2 401 402
508 4 818 819
509 4 374 375
510 2 373 374
511 3 373 379
512 3 373 380
513 3 373 381
514 2 341 342
515 2 865 866
516 3 865 871
517 3 865 872
518 3 865 873
519 5 375 376
520 4 375 377
521 3 342 346
522 3 342 347
523 3 342 348
524 2 817 818
525 3 817 823
526 3 817 824
527 3 817 825
528 3 414 418
529 3 414 419
530 3 414 420
531 2 142 143
532 3 142 149
533 3 142 150
534 2 12 13
535 3 12 19
536 3 12 20
537 1 11 12
538 2 11 16
539 3 11 17
540 3 11 18
541 2 413 414
542 1 141 142
543 2 141 146
544 3 141 147
545 3 141 148
546 6 1000 1001
547 3 630 634
548 3 630 635
549 3 630 636
550 5 264 265
551 4 264 266
552 2 377 378
553 2 829 830
554 3 829 835
555 3 829 836
556 3 829 837
557 2 325 326
558 3 325 331
559 3 325 332
560 3 325 333
561 3 378 382
562 3 378 383
563 3 378 384
564 4 326 327
565 1 161 162
566 2 161 166
567 3 161 167
568 3 161 168
569 4 163 164
570 5 164 165
571 4 164 166
572 1 261 262
573 2 261 266
574 3 261 267
575 3 261 268
576 2 162 163
577 3 162 169
578 3 162 170
579 3 330 334
580 3 330 335
581 3 330 336
582 4 578 579
583 2 329 330
584 5 327 328
585 4 327 329
586 4 13 14
587 5 615 616
588 4 615 617
589 5 14 15
590 4 14 16
591 1 121 122
592 2 121 126
593 3 121 127
594 3 121 128
595 2 122 123
596 3 122 129
597 3 122 130
598 4 123 124
599 5 124 125
600 4 124 126
601 2 581 582
602 5 579 580
603 4 579 581
604 2 577 578
605 3 577 583
606 3 577 584
607 3 577 585
608 3 354 358
609 3 354 359
610 3 354 360
611 5 951 952
612 4 951 953
613 4 746 747
614 4 950 951
615 2 745 746
616 3 745 751
617 3 745 752
618 3 745 753
619 2 353 354
620 2 949 950
621 3 949 955
622 3 949 956
623 3 949 957
624 3 582 586
625 3 582 587
626 3 582 588
627 3 774 778
628 3 774 779
629 3 774 780
630 1 21 22
631 2 21 26
632 3 21 27
633 3 21 28
634 2 617 618
635 2 953 954
636 4 590 591
637 2 589 590
638 3 589 595
639 3 589 596
640 3 589 597
641 5 24 25
642 4 24 26
643 3 942 946
644 3 942 947
645 3 942 948
646 3 882 886
647 3 882 887
648 3 882 888
649 4 674 675
650 2 925 926
651 3 925 931
652 3 925 932
653 3 925 933
654 4 494 495
655 5 747 748
656 4 747 749
657 2 673 674
658 3 673 679
659 3 673 680
660 3 673 681
661 4 938 939
662 2 937 938
663 3 937 943
664 3 937 944
665 3 937 945
666 4 362 363
667 2 361 362
668 3 361 367
669 3 361 368
670 3 361 369
671 3 930 934
672 3 930 935
673 3 930 936
674 5 495 496
675 4 495 497
676 3 498 502
677 3 498 503
678 3 498 504
679 4 926 927
680 2 749 750
681 3 666 670
682 3 666 671
683 3 666 672
684 2 769 770
685 3 769 775
686 3 769 776
687 3 769 777
688 5 675 676
689 4 675 677
690 2 677 678
691 3 750 754
692 3 750 755
693 3 750 756
694 3 798 802
695 3 798 803
696 3 798 804
697 5 351 352
698 4 351 353
699 3 678 682
700 3 678 683
701 3 678 684
702 3 366 370
703 3 366 371
704 3 366 372
705 5 939 940
706 4 939 941
707 2 929 930
708 5 771 772
709 4 771 773
710 2 497 498
711 4 350 351
712 5 363 364
713 4 363 365
714 5 927 928
715 4 927 929
716 2 941 942
717 4 770 771
718 2 365 366
719 2 773 774
720 3 618 622
721 3 618 623
722 3 618 624
723 4 830 831
724 1 271 272
725 2 271 276
726 3 271 277
727 3 271 278
728 2 272 273
729 3 272 279
730 3 272 280
731 4 273 274
732 5 274 275
733 4 274 276
734 2 637 638
735 3 637 643
736 3 637 644
737 3 637 645
738 4 638 639
739 5 639 640
740 4 639 641
741 2 641 642
742 6 990 991
743 6 991 992
744 6 991 993
745 6 991 994
746 5 144 145
747 4 144 146
748 3 786 790
749 3 786 791
750 3 786 792
751 5 627 628
752 4 627 629
753 2 629 630
754 2 625 626
755 3 625 631
756 3 625 632
757 3 625 633
758 2 649 650
759 3 649 655
760 3 649 656
761 3 649 657
762 4 626 627
763 3 642 646
764 3 642 647
765 3 642 648
766 6 1011 1012
767 6 1011 1013
768 6 1011 1014
769 6 1010 1011
770 4 143 144
771 3 894 898
772 3 894 899
773 3 894 900
774 2 52 53
775 3 52 59
776 3 52 60
777 5 423 424
778 4 423 425
779 5 891 892
780 4 891 893
781 2 893 894
782 4 650 651
783 5 234 235
784 4 234 236
785 4 614 615
786 4 422 423
787 2 449 450
788 2 421 422
789 3 421 427
790 3 421 428
791 3 421 429
792 5 134 135
793 4 134 136
794 4 470 471
795 2 785 786
796 5 783 784
797 4 783 785
798 2 889 890
799 3 889 895
800 3 889 896
801 3 889 897
802 4 890 891
803 5 411 412
804 4 411 413
805 2 781 782
806 3 781 787
807 3 781 788
808 3 781 789
809 2 473 474
810 5 339 340
811 4 339 341
812 4 782 783
813 4 203 204
814 2 22 23
815 3 22 29
816 3 22 30
817 2 102 103
818 3 102 109
819 3 102 110
820 1 171 172
821 2 171 176
822 3 171 177
823 3 171 178
824 4 173 174
825 5 174 175
826 4 174 176
827 4 23 24
828 2 172 173
829 3 172 179
830 3 172 180
831 1 101 102
832 2 101 106
833 3 101 107
834 3 101 108
835 5 104 105
836 4 104 106
837 2 337 338
838 3 337 343
839 3 337 344
840 3 337 345
841 4 338 339
842 4 103 104
843 5 204 205
844 4 204 206
845 5 471 472
846 4 471 473
847 2 202 203
848 3 202 209
849 3 202 210
850 1 201 202
851 2 201 206
852 3 201 207
853 3 201 208
854 3 474 478
855 3 474 479
856 3 474 480
857 5 831 832
858 4 831 833
859 2 2 3
860 3 2 9
861 3 2 10
862 2 301 302
863 3 301 307
864 3 301 308
865 3 301 309
866 3 954 958
867 3 954 959
868 3 954 960
869 2 833 834
870 2 613 614
871 3 613 619
872 3 613 620
873 3 613 621
874 2 653 654
875 3 702 706
876 3 702 707
877 3 702 708
878 4 133 134
879 4 3 4
880 2 132 133
881 3 132 139
882 3 132 140
883 6 996 997
884 6 996 998
885 6 996 999
886 4 193 194
887 3 450 454
888 3 450 455
889 3 450 456
890 2 697 698
891 3 697 703
892 3 697 704
893 3 697 705
894 6 995 996
895 1 191 192
896 2 191 196
897 3 191 197
898 3 191 198
899 2 192 193
900 3 192 199
901 3 192 200
902 2 665 666
903 3 654 658
904 3 654 659
905 3 654 660
906 5 4 5
907 4 4 6
908 5 699 700
909 4 699 701
910 4 698 699
911 6 981 982
912 6 981 983
913 6 981 984
914 3 834 838
915 3 834 839
916 3 834 840
917 5 651 652
918 4 651 653
919 6 980 981
920 4 410 411
921 2 757 758
922 3 757 763
923 3 757 764
924 3 757 765
925 2 761 762
926 1 1 2
927 2 1 6
928 3 1 7
929 3 1 8
930 3 762 766
931 3 762 767
932 3 762 768
933 4 758 759
934 5 759 760
935 4 759 761
936 2 701 702
937 2 409 410
938 3 409 415
939 3 409 416
940 3 409 417
941 1 131 132
942 2 131 136
943 3 131 137
944 3 131 138

Angles

1 1 81 82 83
2 2 81 82 89
3 2 81 82 90
4 2 83 82 89
5 2 83 82 90
6 4 89 82 90
7 1 82 83 84
8 2 710 709 715
9 2 710 709 716
10 2 710 709 717
11 4 715 709 716
12 4 715 709 717
13 4 716 709 717
14 5 709 710 711
15 3 710 711 712
16 6 710 711 713
17 3 712 711 713
18 5 711 713 714
19 7 985 986 987
20 7 985 986 988
21 7 985 986 989
22 7 987 986 988
23 7 987 986 989
24 7 988 986 989
25 7 1005 1006 1007
26 7 1005 1006 1008
27 7 1005 1006 1009
28 7 1007 1006 1008
29 7 1007 1006 1009
30 7 1008 1006 1009
31 5 963 965 966
32 2 965 966 970
33 2 965 966 971
34 2 965 966 972
35 4 970 966 971
36 4 970 966 972
37 4 971 966 972
38 3 962 963 964
39 6 962 963 965
40 3 964 963 965
41 2 506 505 511
42 2 506 505 512
43 2 506 505 513
44 4 511 505 512
45 4 511 505 513
46 4 512 505 513
47 5 961 962 963
48 1 82 81 86
49 2 82 81 87
50 2 82 81 88
51 2 86 81 87
52 2 86 81 88
53 4 87 81 88
54 3 83 84 85
55 1 83 84 86
56 3 85 84 86
57 5 505 506 507
58 1 81 86 84
59 1 61 62 63
60 2 61 62 69
61 2 61 62 70
62 2 63 62 69
63 2 63 62 70
64 4 69 62 70
65 1 62 61 66
66 2 62 61 67
67 2 62 61 68
68 2 66 61 67
69 2 66 61 68
70 4 67 61 68
71 3 818 819 820
72 6 818 819 821
73 3 820 819 821
74 1 92 91 96
75 2 92 91 97
76 2 92 91 98
77 2 96 91 97
78 2 96 91 98
79 4 97 91 98
80 2 821 822 826
81 2 821 822 827
82 2 821 822 828
83 4 826 822 827
84 4 826 822 828
85 4 827 822 828
86 5 819 821 822
87 2 737 738 742
88 2 737 738 743
89 2 737 738 744
90 4 742 738 743
91 4 742 738 744
92 4 743 738 744
93 2 713 714 718
94 2 713 714 719
95 2 713 714 720
96 4 718 714 719
97 4 718 714 720
98 4 719 714 720
99 2 962 961 967
100 2 962 961 968
101 2 962 961 969
102 4 967 961 968
103 4 967 961 969
104 4 968 961 969
105 2 869 870 874
106 2 869 870 875
107 2 869 870 876
108 4 874 870 875
109 4 874 870 876
110 4 875 870 876
111 1 91 96 94
112 5 795 797 798
113 1 62 63 64
114 1 91 92 93
115 2 91 92 99
116 2 91 92 100
117 2 93 92 99
118 2 93 92 100
119 4 99 92 100
120 1 232 231 236
121 2 232 231 237
122 2 232 231 238
123 2 236 231 237
124 2 236 231 238
125 4 237 231 238
126 5 661 662 663
127 2 662 661 667
128 2 662 661 668
129 2 662 661 669
130 4 667 661 668
131 4 667 661 669
132 4 668 661 669
133 1 111 112 113
134 2 111 112 119
135 2 111 112 120
136 2 113 112 119
137 2 113 112 120
138 4 119 112 120
139 1 42 41 46
140 2 42 41 47
141 2 42 41 48
142 2 46 41 47
143 2 46 41 48
144 4 47 41 48
145 3 914 915 916
146 6 914 915 917
147 3 916 915 917
148 1 112 111 116
149 2 112 111 117
150 2 112 111 118
151 2 116 111 117
152 2 116 111 118
153 4 117 111 118
154 2 857 858 862
155 2 857 858 863
156 2 857 858 864
157 4 862 858 863
158 4 862 858 864
159 4 863 858 864
160 1 71 72 73
161 2 71 72 79
162 2 71 72 80
163 2 73 72 79
164 2 73 72 80
165 4 79 72 80
166 2 806 805 811
167 2 806 805 812
168 2 806 805 813
169 4 811 805 812
170 4 811 805 813
171 4 812 805 813
172 3 806 807 808
173 6 806 807 809
174 3 808 807 809
175 2 914 913 919
176 2 914 913 920
177 2 914 913 921
178 4 919 913 920
179 4 919 913 921
180 4 920 913 921
181 5 913 914 915
182 5 805 806 807
183 3 866 867 868
184 6 866 867 869
185 3 868 867 869
186 7 1000 1001 1002
187 7 1000 1001 1003
188 7 1000 1001 1004
189 7 1002 1001 1003
190 7 1002 1001 1004
191 7 1003 1001 1004
192 5 807 809 810
193 1 72 71 76
194 2 72 71 77
195 2 72 71 78
196 2 76 71 77
197 2 76 71 78
198 4 77 71 78
199 2 917 918 922
200 2 917 918 923
201 2 917 918 924
202 4 922 918 923
203 4 922 918 924
204 4 923 918 924
205 1 71 76 74
206 3 93 94 95
207 1 93 94 96
208 3 95 94 96
209 1 92 93 94
210 5 855 857 858
211 5 915 917 918
212 1 211 212 213
213 2 211 212 219
214 2 211 212 220
215 2 213 212 219
216 2 213 212 220
217 4 219 212 220
218 1 111 116 114
219 1 72 73 74
220 3 73 74 75
221 1 73 74 76
222 3 75 74 76
223 3 662 663 664
224 6 662 663 665
225 3 664 663 665
226 1 212 211 216
227 2 212 211 217
228 2 212 211 218
229 2 216 211 217
230 2 216 211 218
231 4 217 211 218
232 3 113 114 115
233 1 113 114 116
234 3 115 114 116
235 5 687 689 690
236 1 112 113 114
237 5 867 869 870
238 2 494 493 499
239 2 494 493 500
240 2 494 493 501
241 4 499 493 500
242 4 499 493 501
243 4 500 493 501
244 2 902 901 907
245 2 902 901 908
246 2 902 901 909
247 4 907 901 908
248 4 907 901 909
249 4 908 901 909
250 2 809 810 814
251 2 809 810 815
252 2 809 810 816
253 4 814 810 815
254 4 814 810 816
255 4 815 810 816
256 3 878 879 880
257 6 878 879 881
258 3 880 879 881
259 5 879 881 882
260 3 554 555 556
261 6 554 555 557
262 3 556 555 557
263 3 734 735 736
264 6 734 735 737
265 3 736 735 737
266 3 386 387 388
267 6 386 387 389
268 3 388 387 389
269 3 902 903 904
270 6 902 903 905
271 3 904 903 905
272 5 903 905 906
273 2 905 906 910
274 2 905 906 911
275 2 905 906 912
276 4 910 906 911
277 4 910 906 912
278 4 911 906 912
279 5 553 554 555
280 5 733 734 735
281 2 734 733 739
282 2 734 733 740
283 2 734 733 741
284 4 739 733 740
285 4 739 733 741
286 4 740 733 741
287 1 291 296 294
288 5 555 557 558
289 5 385 386 387
290 1 292 291 296
291 2 292 291 297
292 2 292 291 298
293 2 296 291 297
294 2 296 291 298
295 4 297 291 298
296 1 32 33 34
297 2 878 877 883
298 2 878 877 884
299 2 878 877 885
300 4 883 877 884
301 4 883 877 885
302 4 884 877 885
303 3 43 44 45
304 1 43 44 46
305 3 45 44 46
306 1 292 293 294
307 5 735 737 738
308 1 291 292 293
309 2 291 292 299
310 2 291 292 300
311 2 293 292 299
312 2 293 292 300
313 4 299 292 300
314 2 389 390 394
315 2 389 390 395
316 2 389 390 396
317 4 394 390 395
318 4 394 390 396
319 4 395 390 396
320 3 293 294 295
321 1 293 294 296
322 3 295 294 296
323 1 32 31 36
324 2 32 31 37
325 2 32 31 38
326 2 36 31 37
327 2 36 31 38
328 4 37 31 38
329 2 686 685 691
330 2 686 685 692
331 2 686 685 693
332 4 691 685 692
333 4 691 685 693
334 4 692 685 693
335 1 41 46 44
336 1 31 36 34
337 1 42 43 44
338 2 554 553 559
339 2 554 553 560
340 2 554 553 561
341 4 559 553 560
342 4 559 553 561
343 4 560 553 561
344 5 387 389 390
345 5 877 878 879
346 1 31 32 33
347 2 31 32 39
348 2 31 32 40
349 2 33 32 39
350 2 33 32 40
351 4 39 32 40
352 2 386 385 391
353 2 386 385 392
354 2 386 385 393
355 4 391 385 392
356 4 391 385 393
357 4 392 385 393
358 3 686 687 688
359 6 686 687 689
360 3 688 687 689
361 2 557 558 562
362 2 557 558 563
363 2 557 558 564
364 4 562 558 563
365 4 562 558 564
366 4 563 558 564
367 5 685 686 687
368 3 33 34 35
369 1 33 34 36
370 3 35 34 36
371 1 41 42 43
372 2 41 42 49
373 2 41 42 50
374 2 43 42 49
375 2 43 42 50
376 4 49 42 50
377 5 901 902 903
378 5 865 866 867
379 1 231 232 233
380 2 231 232 239
381 2 231 232 240
382 2 233 232 239
383 2 233 232 240
384 4 239 232 240
385 3 53 54 55
386 1 53 54 56
387 3 55 54 56
388 1 222 221 226
389 2 222 221 227
390 2 222 221 228
391 2 226 221 227
392 2 226 221 228
393 4 227 221 228
394 1 221 222 223
395 2 221 222 229
396 2 221 222 230
397 2 223 222 229
398 2 223 222 230
399 4 229 222 230
400 1 222 223 224
401 3 223 224 225
402 1 223 224 226
403 3 225 224 226
404 1 221 226 224
405 1 51 56 54
406 2 509 510 514
407 2 509 510 515
408 2 509 510 516
409 4 514 510 515
410 4 514 510 516
411 4 515 510 516
412 3 530 531 532
413 6 530 531 533
414 3 532 531 533
415 3 283 284 285
416 1 283 284 286
417 3 285 284 286
418 5 723 725 726
419 2 725 726 730
420 2 725 726 731
421 2 725 726 732
422 4 730 726 731
423 4 730 726 732
424 4 731 726 732
425 3 722 723 724
426 6 722 723 725
427 3 724 723 725
428 5 529 530 531
429 2 605 606 610
430 2 605 606 611
431 2 605 606 612
432 4 610 606 611
433 4 610 606 612
434 4 611 606 612
435 1 282 283 284
436 3 602 603 604
437 6 602 603 605
438 3 604 603 605
439 2 722 721 727
440 2 722 721 728
441 2 722 721 729
442 4 727 721 728
443 4 727 721 729
444 4 728 721 729
445 2 602 601 607
446 2 602 601 608
447 2 602 601 609
448 4 607 601 608
449 4 607 601 609
450 4 608 601 609
451 5 423 425 426
452 5 603 605 606
453 5 601 602 603
454 5 721 722 723
455 1 281 286 284
456 1 61 66 64
457 2 518 517 523
458 2 518 517 524
459 2 518 517 525
460 4 523 517 524
461 4 523 517 525
462 4 524 517 525
463 5 517 518 519
464 3 63 64 65
465 1 63 64 66
466 3 65 64 66
467 2 305 306 310
468 2 305 306 311
469 2 305 306 312
470 4 310 306 311
471 4 310 306 312
472 4 311 306 312
473 3 518 519 520
474 6 518 519 521
475 3 520 519 521
476 1 52 53 54
477 5 519 521 522
478 5 507 509 510
479 1 281 282 283
480 2 281 282 289
481 2 281 282 290
482 2 283 282 289
483 2 283 282 290
484 4 289 282 290
485 1 282 281 286
486 2 282 281 287
487 2 282 281 288
488 2 286 281 287
489 2 286 281 288
490 4 287 281 288
491 2 530 529 535
492 2 530 529 536
493 2 530 529 537
494 4 535 529 536
495 4 535 529 537
496 4 536 529 537
497 2 425 426 430
498 2 425 426 431
499 2 425 426 432
500 4 430 426 431
501 4 430 426 432
502 4 431 426 432
503 3 193 194 195
504 1 193 194 196
505 3 195 194 196
506 2 542 541 547
507 2 542 541 548
508 2 542 541 549
509 4 547 541 548
510 4 547 541 549
511 4 548 541 549
512 5 531 533 534
513 3 213 214 215
514 1 213 214 216
515 3 215 214 216
516 2 533 534 538
517 2 533 534 539
518 2 533 534 540
519 4 538 534 539
520 4 538 534 540
521 4 539 534 540
522 5 303 305 306
523 3 302 303 304
524 6 302 303 305
525 3 304 303 305
526 1 211 216 214
527 2 437 438 442
528 2 437 438 443
529 2 437 438 444
530 4 442 438 443
531 4 442 438 444
532 4 443 438 444
533 5 567 569 570
534 1 232 233 234
535 3 434 435 436
536 6 434 435 437
537 3 436 435 437
538 5 433 434 435
539 1 242 243 244
540 1 252 253 254
541 3 253 254 255
542 1 253 254 256
543 3 255 254 256
544 2 470 469 475
545 2 470 469 476
546 2 470 469 477
547 4 475 469 476
548 4 475 469 477
549 4 476 469 477
550 1 251 256 254
551 1 251 252 253
552 2 251 252 259
553 2 251 252 260
554 2 253 252 259
555 2 253 252 260
556 4 259 252 260
557 1 242 241 246
558 2 242 241 247
559 2 242 241 248
560 2 246 241 247
561 2 246 241 248
562 4 247 241 248
563 2 521 522 526
564 2 521 522 527
565 2 521 522 528
566 4 526 522 527
567 4 526 522 528
568 4 527 522 528
569 1 252 251 256
570 2 252 251 257
571 2 252 251 258
572 2 256 251 257
573 2 256 251 258
574 4 257 251 258
575 1 241 242 243
576 2 241 242 249
577 2 241 242 250
578 2 243 242 249
579 2 243 242 250
580 4 249 242 250
581 1 241 246 244
582 3 243 244 245
583 1 243 244 246
584 3 245 244 246
585 2 854 853 859
586 2 854 853 860
587 2 854 853 861
588 4 859 853 860
589 4 859 853 861
590 4 860 853 861
591 2 317 318 322
592 2 317 318 323
593 2 317 318 324
594 4 322 318 323
595 4 322 318 324
596 4 323 318 324
597 3 566 567 568
598 6 566 567 569
599 3 568 567 569
600 2 566 565 571
601 2 566 565 572
602 2 566 565 573
603 4 571 565 572
604 4 571 565 573
605 4 572 565 573
606 5 435 437 438
607 5 565 566 567
608 2 569 570 574
609 2 569 570 575
610 2 569 570 576
611 4 574 570 575
612 4 574 570 576
613 4 575 570 576
614 5 315 317 318
615 2 689 690 694
616 2 689 690 695
617 2 689 690 696
618 4 694 690 695
619 4 694 690 696
620 4 695 690 696
621 3 794 795 796
622 6 794 795 797
623 3 796 795 797
624 5 313 314 315
625 5 853 854 855
626 2 434 433 439
627 2 434 433 440
628 2 434 433 441
629 4 439 433 440
630 4 439 433 441
631 4 440 433 441
632 3 314 315 316
633 6 314 315 317
634 3 316 315 317
635 2 842 841 847
636 2 842 841 848
637 2 842 841 849
638 4 847 841 848
639 4 847 841 849
640 4 848 841 849
641 1 151 152 153
642 2 151 152 159
643 2 151 152 160
644 2 153 152 159
645 2 153 152 160
646 4 159 152 160
647 2 482 481 487
648 2 482 481 488
649 2 482 481 489
650 4 487 481 488
651 4 487 481 489
652 4 488 481 489
653 5 793 794 795
654 5 543 545 546
655 1 152 153 154
656 1 152 151 156
657 2 152 151 157
658 2 152 151 158
659 2 156 151 157
660 2 156 151 158
661 4 157 151 158
662 2 794 793 799
663 2 794 793 800
664 2 794 793 801
665 4 799 793 800
666 4 799 793 801
667 4 800 793 801
668 3 842 843 844
669 6 842 843 845
670 3 844 843 845
671 5 481 482 483
672 2 446 445 451
673 2 446 445 452
674 2 446 445 453
675 4 451 445 452
676 4 451 445 453
677 4 452 445 453
678 1 151 156 154
679 3 482 483 484
680 6 482 483 485
681 3 484 483 485
682 1 52 51 56
683 2 52 51 57
684 2 52 51 58
685 2 56 51 57
686 2 56 51 58
687 4 57 51 58
688 2 845 846 850
689 2 845 846 851
690 2 845 846 852
691 4 850 846 851
692 4 850 846 852
693 4 851 846 852
694 3 446 447 448
695 6 446 447 449
696 3 448 447 449
697 5 843 845 846
698 2 314 313 319
699 2 314 313 320
700 2 314 313 321
701 4 319 313 320
702 4 319 313 321
703 4 320 313 321
704 5 841 842 843
705 3 542 543 544
706 6 542 543 545
707 3 544 543 545
708 2 545 546 550
709 2 545 546 551
710 2 545 546 552
711 4 550 546 551
712 4 550 546 552
713 4 551 546 552
714 1 131 136 134
715 2 485 486 490
716 2 485 486 491
717 2 485 486 492
718 4 490 486 491
719 4 490 486 492
720 4 491 486 492
721 5 483 485 486
722 5 541 542 543
723 5 445 446 447
724 3 153 154 155
725 1 153 154 156
726 3 155 154 156
727 3 854 855 856
728 6 854 855 857
729 3 856 855 857
730 1 212 213 214
731 5 301 302 303
732 1 231 236 234
733 3 506 507 508
734 6 506 507 509
735 3 508 507 509
736 3 458 459 460
737 6 458 459 461
738 3 460 459 461
739 1 182 181 186
740 2 182 181 187
741 2 182 181 188
742 2 186 181 187
743 2 186 181 188
744 4 187 181 188
745 1 181 182 183
746 2 181 182 189
747 2 181 182 190
748 2 183 182 189
749 2 183 182 190
750 4 189 182 190
751 1 182 183 184
752 3 183 184 185
753 1 183 184 186
754 3 185 184 186
755 1 181 186 184
756 1 261 262 263
757 2 261 262 269
758 2 261 262 270
759 2 263 262 269
760 2 263 262 270
761 4 269 262 270
762 3 590 591 592
763 6 590 591 593
764 3 592 591 593
765 5 591 593 594
766 2 593 594 598
767 2 593 594 599
768 2 593 594 600
769 4 598 594 599
770 4 598 594 600
771 4 599 594 600
772 5 459 461 462
773 1 262 263 264
774 5 457 458 459
775 2 458 457 463
776 2 458 457 464
777 2 458 457 465
778 4 463 457 464
779 4 463 457 465
780 4 464 457 465
781 2 461 462 466
782 2 461 462 467
783 2 461 462 468
784 4 466 462 467
785 4 466 462 468
786 4 467 462 468
787 2 350 349 355
788 2 350 349 356
789 2 350 349 357
790 4 355 349 356
791 4 355 349 357
792 4 356 349 357
793 3 398 399 400
794 6 398 399 401
795 3 400 399 401
796 5 397 398 399
797 2 398 397 403
798 2 398 397 404
799 2 398 397 405
800 4 403 397 404
801 4 403 397 405
802 4 404 397 405
803 2 401 402 406
804 2 401 402 407
805 2 401 402 408
806 4 406 402 407
807 4 406 402 408
808 4 407 402 408
809 5 399 401 402
810 5 817 818 819
811 5 373 374 375
812 2 374 373 379
813 2 374 373 380
814 2 374 373 381
815 4 379 373 380
816 4 379 373 381
817 4 380 373 381
818 5 339 341 342
819 2 866 865 871
820 2 866 865 872
821 2 866 865 873
822 4 871 865 872
823 4 871 865 873
824 4 872 865 873
825 3 374 375 376
826 6 374 375 377
827 3 376 375 377
828 2 341 342 346
829 2 341 342 347
830 2 341 342 348
831 4 346 342 347
832 4 346 342 348
833 4 347 342 348
834 2 818 817 823
835 2 818 817 824
836 2 818 817 825
837 4 823 817 824
838 4 823 817 825
839 4 824 817 825
840 2 413 414 418
841 2 413 414 419
842 2 413 414 420
843 4 418 414 419
844 4 418 414 420
845 4 419 414 420
846 1 141 142 143
847 2 141 142 149
848 2 141 142 150
849 2 143 142 149
850 2 143 142 150
851 4 149 142 150
852 1 11 12 13
853 2 11 12 19
854 2 11 12 20
855 2 13 12 19
856 2 13 12 20
857 4 19 12 20
858 1 12 11 16
859 2 12 11 17
860 2 12 11 18
861 2 16 11 17
862 2 16 11 18
863 4 17 11 18
864 5 411 413 414
865 1 142 141 146
866 2 142 141 147
867 2 142 141 148
868 2 146 141 147
869 2 146 141 148
870 4 147 141 148
871 1 141 146 144
872 2 629 630 634
873 2 629 630 635
874 2 629 630 636
875 4 634 630 635
876 4 634 630 636
877 4 635 630 636
878 3 263 264 265
879 1 263 264 266
880 3 265 264 266
881 5 375 377 378
882 2 830 829 835
883 2 830 829 836
884 2 830 829 837
885 4 835 829 836
886 4 835 829 837
887 4 836 829 837
888 2 326 325 331
889 2 326 325 332
890 2 326 325 333
891 4 331 325 332
892 4 331 325 333
893 4 332 325 333
894 2 377 378 382
895 2 377 378 383
896 2 377 378 384
897 4 382 378 383
898 4 382 378 384
899 4 383 378 384
900 1 161 166 164
901 5 325 326 327
902 1 162 161 166
903 2 162 161 167
904 2 162 161 168
905 2 166 161 167
906 2 166 161 168
907 4 167 161 168
908 1 162 163 164
909 3 163 164 165
910 1 163 164 166
911 3 165 164 166
912 1 262 261 266
913 2 262 261 267
914 2 262 261 268
915 2 266 261 267
916 2 266 261 268
917 4 267 261 268
918 1 161 162 163
919 2 161 162 169
920 2 161 162 170
921 2 163 162 169
922 2 163 162 170
923 4 169 162 170
924 1 261 266 264
925 2 329 330 334
926 2 329 330 335
927 2 329 330 336
928 4 334 330 335
929 4 334 330 336
930 4 335 330 336
931 5 577 578 579
932 5 327 329 330
933 3 326 327 328
934 6 326 327 329
935 3 328 327 329
936 1 12 13 14
937 3 614 615 616
938 6 614 615 617
939 3 616 615 617
940 3 13 14 15
941 1 13 14 16
942 3 15 14 16
943 1 11 16 14
944 1 122 121 126
945 2 122 121 127
946 2 122 121 128
947 2 126 121 127
948 2 126 121 128
949 4 127 121 128
950 1 121 122 123
951 2 121 122 129
952 2 121 122 130
953 2 123 122 129
954 2 123 122 130
955 4 129 122 130
956 1 122 123 124
957 3 123 124 125
958 1 123 124 126
959 3 125 124 126
960 1 121 126 124
961 5 579 581 582
962 3 578 579 580
963 6 578 579 581
964 3 580 579 581
965 2 578 577 583
966 2 578 577 584
967 2 578 577 585
968 4 583 577 584
969 4 583 577 585
970 4 584 577 585
971 1 21 26 24
972 2 353 354 358
973 2 353 354 359
974 2 353 354 360
975 4 358 354 359
976 4 358 354 360
977 4 359 354 360
978 3 950 951 952
979 6 950 951 953
980 3 952 951 953
981 5 745 746 747
982 5 949 950 951
983 2 746 745 751
984 2 746 745 752
985 2 746 745 753
986 4 751 745 752
987 4 751 745 753
988 4 752 745 753
989 5 351 353 354
990 2 950 949 955
991 2 950 949 956
992 2 950 949 957
993 4 955 949 956
994 4 955 949 957
995 4 956 949 957
996 2 581 582 586
997 2 581 582 587
998 2 581 582 588
999 4 586 582 587
1000 4 586 582 588
1001 4 587 582 588
1002 2 773 774 778
1003 2 773 774 779
1004 2 773 774 780
1005 4 778 774 779
1006 4 778 774 780
1007 4 779 774 780
1008 1 22 21 26
1009 2 22 21 27
1010 2 22 21 28
1011 2 26 21 27
1012 2 26 21 28
1013 4 27 21 28
1014 5 615 617 618
1015 5 951 953 954
1016 5 589 590 591
1017 2 590 589 595
1018 2 590 589 596
1019 2 590 589 597
1020 4 595 589 596
1021 4 595 589 597
1022 4 596 589 597
1023 3 23 24 25
1024 1 23 24 26
1025 3 25 24 26
1026 2 941 942 946
1027 2 941 942 947
1028 2 941 942 948
1029 4 946 942 947
1030 4 946 942 948
1031 4 947 942 948
1032 2 881 882 886
1033 2 881 882 887
1034 2 881 882 888
1035 4 886 882 887
1036 4 886 882 888
1037 4 887 882 888
1038 5 673 674 675
1039 2 926 925 931
1040 2 926 925 932
1041 2 926 925 933
1042 4 931 925 932
1043 4 931 925 933
1044 4 932 925 933
1045 5 493 494 495
1046 3 746 747 748
1047 6 746 747 749
1048 3 748 747 749
1049 2 674 673 679
1050 2 674 673 680
1051 2 674 673 681
1052 4 679 673 680
1053 4 679 673 681
1054 4 680 673 681
1055 5 937 938 939
1056 2 938 937 943
1057 2 938 937 944
1058 2 938 937 945
1059 4 943 937 944
1060 4 943 937 945
1061 4 944 937 945
1062 5 361 362 363
1063 2 362 361 367
1064 2 362 361 368
1065 2 362 361 369
1066 4 367 361 368
1067 4 367 361 369
1068 4 368 361 369
1069 2 929 930 934
1070 2 929 930 935
1071 2 929 930 936
1072 4 934 930 935
1073 4 934 930 936
1074 4 935 930 936
1075 3 494 495 496
1076 6 494 495 497
1077 3 496 495 497
1078 2 497 498 502
1079 2 497 498 503
1080 2 497 498 504
1081 4 502 498 503
1082 4 502 498 504
1083 4 503 498 504
1084 5 925 926 927
1085 5 747 749 750
1086 2 665 666 670
1087 2 665 666 671
1088 2 665 666 672
1089 4 670 666 671
1090 4 670 666 672
1091 4 671 666 672
1092 2 770 769 775
1093 2 770 769 776
1094 2 770 769 777
1095 4 775 769 776
1096 4 775 769 777
1097 4 776 769 777
1098 3 674 675 676
1099 6 674 675 677
1100 3 676 675 677
1101 5 675 677 678
1102 2 749 750 754
1103 2 749 750 755
1104 2 749 750 756
1105 4 754 750 755
1106 4 754 750 756
1107 4 755 750 756
1108 2 797 798 802
1109 2 797 798 803
1110 2 797 798 804
1111 4 802 798 803
1112 4 802 798 804
1113 4 803 798 804
1114 3 350 351 352
1115 6 350 351 353
1116 3 352 351 353
1117 2 677 678 682
1118 2 677 678 683
1119 2 677 678 684
1120 4 682 678 683
1121 4 682 678 684
1122 4 683 678 684
1123 2 365 366 370
1124 2 365 366 371
1125 2 365 366 372
1126 4 370 366 371
1127 4 370 366 372
1128 4 371 366 372
1129 3 938 939 940
1130 6 938 939 941
1131 3 940 939 941
1132 5 927 929 930
1133 3 770 771 772
1134 6 770 771 773
1135 3 772 771 773
1136 5 495 497 498
1137 5 349 350 351
1138 3 362 363 364
1139 6 362 363 365
1140 3 364 363 365
1141 3 926 927 928
1142 6 926 927 929
1143 3 928 927 929
1144 5 939 941 942
1145 5 769 770 771
1146 5 363 365 366
1147 5 771 773 774
1148 2 617 618 622
1149 2 617 618 623
1150 2 617 618 624
1151 4 622 618 623
1152 4 622 618 624
1153 4 623 618 624
1154 5 829 830 831
1155 1 272 271 276
1156 2 272 271 277
1157 2 272 271 278
1158 2 276 271 277
1159 2 276 271 278
1160 4 277 271 278
1161 1 271 272 273
1162 2 271 272 279
1163 2 271 272 280
1164 2 273 272 279
1165 2 273 272 280
1166 4 279 272 280
1167 1 272 273 274
1168 3 273 274 275
1169 1 273 274 276
1170 3 275 274 276
1171 1 271 276 274
1172 2 638 637 643
1173 2 638 637 644
1174 2 638 637 645
1175 4 643 637 644
1176 4 643 637 645
1177 4 644 637 645
1178 5 637 638 639
1179 3 638 639 640
1180 6 638 639 641
1181 3 640 639 641
1182 5 639 641 642
1183 7 990 991 992
1184 7 990 991 993
1185 7 990 991 994
1186 7 992 991 993
1187 7 992 991 994
1188 7 993 991 994
1189 3 143 144 145
1190 1 143 144 146
1191 3 145 144 146
1192 2 785 786 790
1193 2 785 786 791
1194 2 785 786 792
1195 4 790 786 791
1196 4 790 786 792
1197 4 791 786 792
1198 3 626 627 628
1199 6 626 627 629
1200 3 628 627 629
1201 5 627 629 630
1202 2 626 625 631
1203 2 626 625 632
1204 2 626 625 633
1205 4 631 625 632
1206 4 631 625 633
1207 4 632 625 633
1208 2 650 649 655
1209 2 650 649 656
1210 2 650 649 657
1211 4 655 649 656
1212 4 655 649 657
1213 4 656 649 657
1214 5 625 626 627
1215 2 641 642 646
1216 2 641 642 647
1217 2 641 642 648
1218 4 646 642 647
1219 4 646 642 648
1220 4 647 642 648
1221 7 1010 1011 1012
1222 7 1010 1011 1013
1223 7 1010 1011 1014
1224 7 1012 1011 1013
1225 7 1012 1011 1014
1226 7 1013 1011 1014
1227 1 142 143 144
1228 2 893 894 898
1229 2 893 894 899
1230 2 893 894 900
1231 4 898 894 899
1232 4 898 894 900
1233 4 899 894 900
1234 1 51 52 53
1235 2 51 52 59
1236 2 51 52 60
1237 2 53 52 59
1238 2 53 52 60
1239 4 59 52 60
1240 3 422 423 424
1241 6 422 423 425
1242 3 424 423 425
1243 3 890 891 892
1244 6 890 891 893
1245 3 892 891 893
1246 5 891 893 894
1247 5 649 650 651
1248 3 233 234 235
1249 1 233 234 236
1250 3 235 234 236
1251 5 613 614 615
1252 5 421 422 423
1253 5 447 449 450
1254 2 422 421 427
1255 2 422 421 428
1256 2 422 421 429
1257 4 427 421 428
1258 4 427 421 429
1259 4 428 421 429
1260 3 133 134 135
1261 1 133 134 136
1262 3 135 134 136
1263 5 469 470 471
1264 5 783 785 786
1265 3 782 783 784
1266 6 782 783 785
1267 3 784 783 785
1268 2 890 889 895
1269 2 890 889 896
1270 2 890 889 897
1271 4 895 889 896
1272 4 895 889 897
1273 4 896 889 897
1274 5 889 890 891
1275 3 410 411 412
1276 6 410 411 413
1277 3 412 411 413
1278 2 782 781 787
1279 2 782 781 788
1280 2 782 781 789
1281 4 787 781 788
1282 4 787 781 789
1283 4 788 781 789
1284 5 471 473 474
1285 3 338 339 340
1286 6 338 339 341
1287 3 340 339 341
1288 5 781 782 783
1289 1 202 203 204
1290 1 21 22 23
1291 2 21 22 29
1292 2 21 22 30
1293 2 23 22 29
1294 2 23 22 30
1295 4 29 22 30
1296 1 101 102 103
1297 2 101 102 109
1298 2 101 102 110
1299 2 103 102 109
1300 2 103 102 110
1301 4 109 102 110
1302 1 172 171 176
1303 2 172 171 177
1304 2 172 171 178
1305 2 176 171 177
1306 2 176 171 178
1307 4 177 171 178
1308 1 172 173 174
1309 3 173 174 175
1310 1 173 174 176
1311 3 175 174 176
1312 1 171 176 174
1313 1 22 23 24
1314 1 101 106 104
1315 1 171 172 173
1316 2 171 172 179
1317 2 171 172 180
1318 2 173 172 179
1319 2 173 172 180
1320 4 179 172 180
1321 1 102 101 106
1322 2 102 101 107
1323 2 102 101 108
1324 2 106 101 107
1325 2 106 101 108
1326 4 107 101 108
1327 3 103 104 105
1328 1 103 104 106
1329 3 105 104 106
1330 2 338 337 343
1331 2 338 337 344
1332 2 338 337 345
1333 4 343 337 344
1334 4 343 337 345
1335 4 344 337 345
1336 5 337 338 339
1337 1 102 103 104
1338 3 203 204 205
1339 1 203 204 206
1340 3 205 204 206
1341 3 470 471 472
1342 6 470 471 473
1343 3 472 471 473
1344 1 201 202 203
1345 2 201 202 209
1346 2 201 202 210
1347 2 203 202 209
1348 2 203 202 210
1349 4 209 202 210
1350 1 201 206 204
1351 1 202 201 206
1352 2 202 201 207
1353 2 202 201 208
1354 2 206 201 207
1355 2 206 201 208
1356 4 207 201 208
1357 2 473 474 478
1358 2 473 474 479
1359 2 473 474 480
1360 4 478 474 479
1361 4 478 474 480
1362 4 479 474 480
1363 3 830 831 832
1364 6 830 831 833
1365 3 832 831 833
1366 1 1 2 3
1367 2 1 2 9
1368 2 1 2 10
1369 2 3 2 9
1370 2 3 2 10
1371 4 9 2 10
1372 2 302 301 307
1373 2 302 301 308
1374 2 302 301 309
1375 4 307 301 308
1376 4 307 301 309
1377 4 308 301 309
1378 2 953 954 958
1379 2 953 954 959
1380 2 953 954 960
1381 4 958 954 959
1382 4 958 954 960
1383 4 959 954 960
1384 5 831 833 834
1385 2 614 613 619
1386 2 614 613 620
1387 2 614 613 621
1388 4 619 613 620
1389 4 619 613 621
1390 4 620 613 621
1391 5 651 653 654
1392 2 701 702 706
1393 2 701 702 707
1394 2 701 702 708
1395 4 706 702 707
1396 4 706 702 708
1397 4 707 702 708
1398 1 132 133 134
1399 1 2 3 4
1400 1 131 132 133
1401 2 131 132 139
1402 2 131 132 140
1403 2 133 132 139
1404 2 133 132 140
1405 4 139 132 140
1406 7 995 996 997
1407 7 995 996 998
1408 7 995 996 999
1409 7 997 996 998
1410 7 997 996 999
1411 7 998 996 999
1412 1 192 193 194
1413 2 449 450 454
1414 2 449 450 455
1415 2 449 450 456
1416 4 454 450 455
1417 4 454 450 456
1418 4 455 450 456
1419 1 1 6 4
1420 2 698 697 703
1421 2 698 697 704
1422 2 698 697 705
1423 4 703 697 704
1424 4 703 697 705
1425 4 704 697 705
1426 1 192 191 196
1427 2 192 191 197
1428 2 192 191 198
1429 2 196 191 197
1430 2 196 191 198
1431 4 197 191 198
1432 1 191 192 193
1433 2 191 192 199
1434 2 191 192 200
1435 2 193 192 199
1436 2 193 192 200
1437 4 199 192 200
1438 5 663 665 666
1439 1 191 196 194
1440 2 653 654 658
1441 2 653 654 659
1442 2 653 654 660
1443 4 658 654 659
1444 4 658 654 660
1445 4 659 654 660
1446 3 3 4 5
1447 1 3 4 6
1448 3 5 4 6
1449 3 698 699 700
1450 6 698 699 701
1451 3 700 699 701
1452 5 697 698 699
1453 7 980 981 982
1454 7 980 981 983
1455 7 980 981 984
1456 7 982 981 983
1457 7 982 981 984
1458 7 983 981 984
1459 2 833 834 838
1460 2 833 834 839
1461 2 833 834 840
1462 4 838 834 839
1463 4 838 834 840
1464 4 839 834 840
1465 3 650 651 652
1466 6 650 651 653
1467 3 652 651 653
1468 5 409 410 411
1469 2 758 757 763
1470 2 758 757 764
1471 2 758 757 765
1472 4 763 757 764
1473 4 763 757 765
1474 4 764 757 765
1475 5 759 761 762
1476 1 2 1 6
1477 2 2 1 7
1478 2 2 1 8
1479 2 6 1 7
1480 2 6 1 8
1481 4 7 1 8
1482 2 761 762 766
1483 2 761 762 767
1484 2 761 762 768
1485 4 766 762 767
1486 4 766 762 768
1487 4 767 762 768
1488 5 757 758 759
1489 3 758 759 760
1490 6 758 759 761
1491 3 760 759 761
1492 5 699 701 702
1493 2 410 409 415
1494 2 410 409 416
1495 2 410 409 417
1496 4 415 409 416
1497 4 415 409 417
1498 4 416 409 417
1499 1 132 131 136
1500 2 132 131 137
1501 2 132 131 138
1502 2 136 131 137
1503 2 136 131 138
1504 4 137 131 138

Dihedrals

1 1 81 82 83 84
2 2 81 82 83 84
3 4 83 82 81 86
4 5 83 82 81 86
5 6 83 82 81 87
6 7 83 82 81 87
7 6 83 82 81 88
8 7 83 82 81 88
9 3 82 83 84 85
10 3 82 83 84 86
11 8 84 83 82 89
12 8 84 83 82 90
13 10 709 710 711 712
14 11 709 710 711 712
15 12 709 710 711 713
16 8 711 710 709 715
17 8 711 710 709 716
18 8 711 710 709 717
19 12 710 711 713 714
20 10 712 711 713 714
21 11 712 711 713 714
22 8 711 713 714 718
23 8 711 713 714 719
24 8 711 713 714 720
25 8 963 965 966 970
26 8 963 965 966 971
27 8 963 965 966 972
28 12 962 963 965 966
29 10 964 963 965 966
30 11 964 963 965 966
31 10 961 962 963 964
32 11 961 962 963 964
33 12 961 962 963 965
34 8 963 962 961 967
35 8 963 962 961 968
36 8 963 962 961 969
37 1 82 81 86 84
38 2 82 81 86 84
39 6 86 81 82 89
40 7 86 81 82 89
41 6 86 81 82 90
42 7 86 81 82 90
43 9 87 81 82 89
44 9 87 81 82 90
45 9 88 81 82 89
46 9 88 81 82 90
47 10 505 506 507 508
48 11 505 506 507 508
49 12 505 506 507 509
50 8 507 506 505 511
51 8 507 506 505 512
52 8 507 506 505 513
53 3 81 86 84 83
54 3 81 86 84 85
55 8 84 86 81 87
56 8 84 86 81 88
57 1 61 62 63 64
58 2 61 62 63 64
59 4 63 62 61 66
60 5 63 62 61 66
61 6 63 62 61 67
62 7 63 62 61 67
63 6 63 62 61 68
64 7 63 62 61 68
65 1 62 61 66 64
66 2 62 61 66 64
67 6 66 61 62 69
68 7 66 61 62 69
69 6 66 61 62 70
70 7 66 61 62 70
71 9 67 61 62 69
72 9 67 61 62 70
73 9 68 61 62 69
74 9 68 61 62 70
75 12 818 819 821 822
76 10 820 819 821 822
77 11 820 819 821 822
78 1 92 91 96 94
79 2 92 91 96 94
80 6 96 91 92 99
81 7 96 91 92 99
82 6 96 91 92 100
83 7 96 91 92 100
84 9 97 91 92 99
85 9 97 91 92 100
86 9 98 91 92 99
87 9 98 91 92 100
88 8 819 821 822 826
89 8 819 821 822 827
90 8 819 821 822 828
91 3 91 96 94 93
92 3 91 96 94 95
93 8 94 96 91 97
94 8 94 96 91 98
95 8 795 797 798 802
96 8 795 797 798 803
97 8 795 797 798 804
98 3 62 63 64 65
99 3 62 63 64 66
100 8 64 63 62 69
101 8 64 63 62 70
102 1 91 92 93 94
103 2 91 92 93 94
104 4 93 92 91 96
105 5 93 92 91 96
106 6 93 92 91 97
107 7 93 92 91 97
108 6 93 92 91 98
109 7 93 92 91 98
110 1 232 231 236 234
111 2 232 231 236 234
112 6 236 231 232 239
113 7 236 231 232 239
114 6 236 231 232 240
115 7 236 231 232 240
116 9 237 231 232 239
117 9 237 231 232 240
118 9 238 231 232 239
119 9 238 231 232 240
120 10 661 662 663 664
121 11 661 662 663 664
122 12 661 662 663 665
123 8 663 662 661 667
124 8 663 662 661 668
125 8 663 662 661 669
126 1 111 112 113 114
127 2 111 112 113 114
128 4 113 112 111 116
129 5 113 112 111 116
130 6 113 112 111 117
131 7 113 112 111 117
132 6 113 112 111 118
133 7 113 112 111 118
134 1 42 41 46 44
135 2 42 41 46 44
136 6 46 41 42 49
137 7 46 41 42 49
138 6 46 41 42 50
139 7 46 41 42 50
140 9 47 41 42 49
141 9 47 41 42 50
142 9 48 41 42 49
143 9 48 41 42 50
144 12 914 915 917 918
145 10 916 915 917 918
146 11 916 915 917 918
147 1 112 111 116 114
148 2 112 111 116 114
149 6 116 111 112 119
150 7 116 111 112 119
151 6 116 111 112 120
152 7 116 111 112 120
153 9 117 111 112 119
154 9 117 111 112 120
155 9 118 111 112 119
156 9 118 111 112 120
157 1 71 72 73 74
158 2 71 72 73 74
159 4 73 72 71 76
160 5 73 72 71 76
161 6 73 72 71 77
162 7 73 72 71 77
163 6 73 72 71 78
164 7 73 72 71 78
165 12 806 807 809 810
166 10 808 807 809 810
167 11 808 807 809 810
168 10 913 914 915 916
169 11 913 914 915 916
170 12 913 914 915 917
171 8 915 914 913 919
172 8 915 914 913 920
173 8 915 914 913 921
174 10 805 806 807 808
175 11 805 806 807 808
176 12 805 806 807 809
177 8 807 806 805 811
178 8 807 806 805 812
179 8 807 806 805 813
180 12 866 867 869 870
181 10 868 867 869 870
182 11 868 867 869 870
183 8 807 809 810 814
184 8 807 809 810 815
185 8 807 809 810 816
186 1 72 71 76 74
187 2 72 71 76 74
188 6 76 71 72 79
189 7 76 71 72 79
190 6 76 71 72 80
191 7 76 71 72 80
192 9 77 71 72 79
193 9 77 71 72 80
194 9 78 71 72 79
195 9 78 71 72 80
196 3 71 76 74 73
197 3 71 76 74 75
198 8 74 76 71 77
199 8 74 76 71 78
200 3 92 93 94 95
201 3 92 93 94 96
202 8 94 93 92 99
203 8 94 93 92 100
204 8 855 857 858 862
205 8 855 857 858 863
206 8 855 857 858 864
207 8 915 917 918 922
208 8 915 917 918 923
209 8 915 917 918 924
210 1 211 212 213 214
211 2 211 212 213 214
212 4 213 212 211 216
213 5 213 212 211 216
214 6 213 212 211 217
215 7 213 212 211 217
216 6 213 212 211 218
217 7 213 212 211 218
218 3 111 116 114 113
219 3 111 116 114 115
220 8 114 116 111 117
221 8 114 116 111 118
222 3 72 73 74 75
223 3 72 73 74 76
224 8 74 73 72 79
225 8 74 73 72 80
226 12 662 663 665 666
227 10 664 663 665 666
228 11 664 663 665 666
229 1 212 211 216 214
230 2 212 211 216 214
231 6 216 211 212 219
232 7 216 211 212 219
233 6 216 211 212 220
234 7 216 211 212 220
235 9 217 211 212 219
236 9 217 211 212 220
237 9 218 211 212 219
238 9 218 211 212 220
239 8 687 689 690 694
240 8 687 689 690 695
241 8 687 689 690 696
242 3 112 113 114 115
243 3 112 113 114 116
244 8 114 113 112 119
245 8 114 113 112 120
246 8 867 869 870 874
247 8 867 869 870 875
248 8 867 869 870 876
249 12 878 879 881 882
250 10 880 879 881 882
251 11 880 879 881 882
252 8 879 881 882 886
253 8 879 881 882 887
254 8 879 881 882 888
255 12 554 555 557 558
256 10 556 555 557 558
257 11 556 555 557 558
258 12 734 735 737 738
259 10 736 735 737 738
260 11 736 735 737 738
261 12 386 387 389 390
262 10 388 387 389 390
263 11 388 387 389 390
264 12 902 903 905 906
265 10 904 903 905 906
266 11 904 903 905 906
267 8 903 905 906 910
268 8 903 905 906 911
269 8 903 905 906 912
270 10 553 554 555 556
271 11 553 554 555 556
272 12 553 554 555 557
273 8 555 554 553 559
274 8 555 554 553 560
275 8 555 554 553 561
276 10 733 734 735 736
277 11 733 734 735 736
278 12 733 734 735 737
279 8 735 734 733 739
280 8 735 734 733 740
281 8 735 734 733 741
282 3 291 296 294 293
283 3 291 296 294 295
284 8 294 296 291 297
285 8 294 296 291 298
286 8 555 557 558 562
287 8 555 557 558 563
288 8 555 557 558 564
289 10 385 386 387 388
290 11 385 386 387 388
291 12 385 386 387 389
292 8 387 386 385 391
293 8 387 386 385 392
294 8 387 386 385 393
295 1 292 291 296 294
296 2 292 291 296 294
297 6 296 291 292 299
298 7 296 291 292 299
299 6 296 291 292 300
300 7 296 291 292 300
301 9 297 291 292 299
302 9 297 291 292 300
303 9 298 291 292 299
304 9 298 291 292 300
305 3 32 33 34 35
306 3 32 33 34 36
307 8 34 33 32 39
308 8 34 33 32 40
309 3 292 293 294 295
310 3 292 293 294 296
311 8 294 293 292 299
312 8 294 293 292 300
313 8 735 737 738 742
314 8 735 737 738 743
315 8 735 737 738 744
316 1 291 292 293 294
317 2 291 292 293 294
318 4 293 292 291 296
319 5 293 292 291 296
320 6 293 292 291 297
321 7 293 292 291 297
322 6 293 292 291 298
323 7 293 292 291 298
324 1 32 31 36 34
325 2 32 31 36 34
326 6 36 31 32 39
327 7 36 31 32 39
328 6 36 31 32 40
329 7 36 31 32 40
330 9 37 31 32 39
331 9 37 31 32 40
332 9 38 31 32 39
333 9 38 31 32 40
334 3 41 46 44 43
335 3 41 46 44 45
336 8 44 46 41 47
337 8 44 46 41 48
338 3 31 36 34 33
339 3 31 36 34 35
340 8 34 36 31 37
341 8 34 36 31 38
342 3 42 43 44 45
343 3 42 43 44 46
344 8 44 43 42 49
345 8 44 43 42 50
346 8 387 389 390 394
347 8 387 389 390 395
348 8 387 389 390 396
349 10 877 878 879 880
350 11 877 878 879 880
351 12 877 878 879 881
352 8 879 878 877 883
353 8 879 878 877 884
354 8 879 878 877 885
355 1 31 32 33 34
356 2 31 32 33 34
357 4 33 32 31 36
358 5 33 32 31 36
359 6 33 32 31 37
360 7 33 32 31 37
361 6 33 32 31 38
362 7 33 32 31 38
363 12 686 687 689 690
364 10 688 687 689 690
365 11 688 687 689 690
366 10 685 686 687 688
367 11 685 686 687 688
368 12 685 686 687 689
369 8 687 686 685 691
370 8 687 686 685 692
371 8 687 686 685 693
372 1 41 42 43 44
373 2 41 42 43 44
374 4 43 42 41 46
375 5 43 42 41 46
376 6 43 42 41 47
377 7 43 42 41 47
378 6 43 42 41 48
379 7 43 42 41 48
380 10 901 902 903 904
381 11 901 902 903 904
382 12 901 902 903 905
383 8 903 902 901 907
384 8 903 902 901 908
385 8 903 902 901 909
386 10 865 866 867 868
387 11 865 866 867 868
388 12 865 866 867 869
389 8 867 866 865 871
390 8 867 866 865 872
391 8 867 866 865 873
392 1 231 232 233 234
393 2 231 232 233 234
394 4 233 232 231 236
395 5 233 232 231 236
396 6 233 232 231 237
397 7 233 232 231 237
398 6 233 232 231 238
399 7 233 232 231 238
400 1 222 221 226 224
401 2 222 221 226 224
402 6 226 221 222 229
403 7 226 221 222 229
404 6 226 221 222 230
405 7 226 221 222 230
406 9 227 221 222 229
407 9 227 221 222 230
408 9 228 221 222 229
409 9 228 221 222 230
410 1 221 222 223 224
411 2 221 222 223 224
412 4 223 222 221 226
413 5 223 222 221 226
414 6 223 222 221 227
415 7 223 222 221 227
416 6 223 222 221 228
417 7 223 222 221 228
418 3 222 223 224 225
419 3 222 223 224 226
420 8 224 223 222 229
421 8 224 223 222 230
422 3 221 226 224 223
423 3 221 226 224 225
424 8 224 226 221 227
425 8 224 226 221 228
426 3 51 56 54 53
427 3 51 56 54 55
428 8 54 56 51 57
429 8 54 56 51 58
430 12 530 531 533 534
431 10 532 531 533 534
432 11 532 531 533 534
433 8 723 725 726 730
434 8 723 725 726 731
435 8 723 725 726 732
436 12 722 723 725 726
437 10 724 723 725 726
438 11 724 723 725 726
439 10 529 530 531 532
440 11 529 530 531 532
441 12 529 530 531 533
442 8 531 530 529 535
443 8 531 530 529 536
444 8 531 530 529 537
445 3 282 283 284 285
446 3 282 283 284 286
447 8 284 283 282 289
448 8 284 283 282 290
449 12 602 603 605 606
450 10 604 603 605 606
451 11 604 603 605 606
452 8 423 425 426 430
453 8 423 425 426 431
454 8 423 425 426 432
455 8 603 605 606 610
456 8 603 605 606 611
457 8 603 605 606 612
458 10 601 602 603 604
459 11 601 602 603 604
460 12 601 602 603 605
461 8 603 602 601 607
462 8 603 602 601 608
463 8 603 602 601 609
464 10 721 722 723 724
465 11 721 722 723 724
466 12 721 722 723 725
467 8 723 722 721 727
468 8 723 722 721 728
469 8 723 722 721 729
470 3 281 286 284 283
471 3 281 286 284 285
472 8 284 286 281 287
473 8 284 286 281 288
474 3 61 66 64 63
475 3 61 66 64 65
476 8 64 66 61 67
477 8 64 66 61 68
478 10 517 518 519 520
479 11 517 518 519 520
480 12 517 518 519 521
481 8 519 518 517 523
482 8 519 518 517 524
483 8 519 518 517 525
484 12 518 519 521 522
485 10 520 519 521 522
486 11 520 519 521 522
487 3 52 53 54 55
488 3 52 53 54 56
489 8 54 53 52 59
490 8 54 53 52 60
491 8 519 521 522 526
492 8 519 521 522 527
493 8 519 521 522 528
494 8 507 509 510 514
495 8 507 509 510 515
496 8 507 509 510 516
497 1 281 282 283 284
498 2 281 282 283 284
499 4 283 282 281 286
500 5 283 282 281 286
501 6 283 282 281 287
502 7 283 282 281 287
503 6 283 282 281 288
504 7 283 282 281 288
505 1 282 281 286 284
506 2 282 281 286 284
507 6 286 281 282 289
508 7 286 281 282 289
509 6 286 281 282 290
510 7 286 281 282 290
511 9 287 281 282 289
512 9 287 281 282 290
513 9 288 281 282 289
514 9 288 281 282 290
515 8 531 533 534 538
516 8 531 533 534 539
517 8 531 533 534 540
518 8 303 305 306 310
519 8 303 305 306 311
520 8 303 305 306 312
521 12 302 303 305 306
522 10 304 303 305 306
523 11 304 303 305 306
524 3 211 216 214 213
525 3 211 216 214 215
526 8 214 216 211 217
527 8 214 216 211 218
528 8 567 569 570 574
529 8 567 569 570 575
530 8 567 569 570 576
531 3 232 233 234 235
532 3 232 233 234 236
533 8 234 233 232 239
534 8 234 233 232 240
535 12 434 435 437 438
536 10 436 435 437 438
537 11 436 435 437 438
538 10 433 434 435 436
539 11 433 434 435 436
540 12 433 434 435 437
541 8 435 434 433 439
542 8 435 434 433 440
543 8 435 434 433 441
544 3 242 243 244 245
545 3 242 243 244 246
546 8 244 243 242 249
547 8 244 243 242 250
548 3 252 253 254 255
549 3 252 253 254 256
550 8 254 253 252 259
551 8 254 253 252 260
552 3 251 256 254 253
553 3 251 256 254 255
554 8 254 256 251 257
555 8 254 256 251 258
556 1 251 252 253 254
557 2 251 252 253 254
558 4 253 252 251 256
559 5 253 252 251 256
560 6 253 252 251 257
561 7 253 252 251 257
562 6 253 252 251 258
563 7 253 252 251 258
564 1 242 241 246 244
565 2 242 241 246 244
566 6 246 241 242 249
567 7 246 241 242 249
568 6 246 241 242 250
569 7 246 241 242 250
570 9 247 241 242 249
571 9 247 241 242 250
572 9 248 241 242 249
573 9 248 241 242 250
574 1 252 251 256 254
575 2 252 251 256 254
576 6 256 251 252 259
577 7 256 251 252 259
578 6 256 251 252 260
579 7 256 251 252 260
580 9 257 251 252 259
581 9 257 251 252 260
582 9 258 251 252 259
583 9 258 251 252 260
584 1 241 242 243 244
585 2 241 242 243 244
586 4 243 242 241 246
587 5 243 242 241 246
588 6 243 242 241 247
589 7 243 242 241 247
590 6 243 242 241 248
591 7 243 242 241 248
592 3 241 246 244 243
593 3 241 246 244 245
594 8 244 246 241 247
595 8 244 246 241 248
596 12 566 567 569 570
597 10 568 567 569 570
598 11 568 567 569 570
599 8 435 437 438 442
600 8 435 437 438 443
601 8 435 437 438 444
602 10 565 566 567 568
603 11 565 566 567 568
604 12 565 566 567 569
605 8 567 566 565 571
606 8 567 566 565 572
607 8 567 566 565 573
608 8 315 317 318 322
609 8 315 317 318 323
610 8 315 317 318 324
611 12 794 795 797 798
612 10 796 795 797 798
613 11 796 795 797 798
614 10 313 314 315 316
615 11 313 314 315 316
616 12 313 314 315 317
617 8 315 314 313 319
618 8 315 314 313 320
619 8 315 314 313 321
620 10 853 854 855 856
621 11 853 854 855 856
622 12 853 854 855 857
623 8 855 854 853 859
624 8 855 854 853 860
625 8 855 854 853 861
626 12 314 315 317 318
627 10 316 315 317 318
628 11 316 315 317 318
629 1 151 152 153 154
630 2 151 152 153 154
631 4 153 152 151 156
632 5 153 152 151 156
633 6 153 152 151 157
634 7 153 152 151 157
635 6 153 152 151 158
636 7 153 152 151 158
637 10 793 794 795 796
638 11 793 794 795 796
639 12 793 794 795 797
640 8 795 794 793 799
641 8 795 794 793 800
642 8 795 794 793 801
643 8 543 545 546 550
644 8 543 545 546 551
645 8 543 545 546 552
646 3 152 153 154 155
647 3 152 153 154 156
648 8 154 153 152 159
649 8 154 153 152 160
650 1 152 151 156 154
651 2 152 151 156 154
652 6 156 151 152 159
653 7 156 151 152 159
654 6 156 151 152 160
655 7 156 151 152 160
656 9 157 151 152 159
657 9 157 151 152 160
658 9 158 151 152 159
659 9 158 151 152 160
660 12 842 843 845 846
661 10 844 843 845 846
662 11 844 843 845 846
663 10 481 482 483 484
664 11 481 482 483 484
665 12 481 482 483 485
666 8 483 482 481 487
667 8 483 482 481 488
668 8 483 482 481 489
669 3 151 156 154 153
670 3 151 156 154 155
671 8 154 156 151 157
672 8 154 156 151 158
673 12 482 483 485 486
674 10 484 483 485 486
675 11 484 483 485 486
676 1 52 51 56 54
677 2 52 51 56 54
678 6 56 51 52 59
679 7 56 51 52 59
680 6 56 51 52 60
681 7 56 51 52 60
682 9 57 51 52 59
683 9 57 51 52 60
684 9 58 51 52 59
685 9 58 51 52 60
686 12 446 447 449 450
687 10 448 447 449 450
688 11 448 447 449 450
689 8 843 845 846 850
690 8 843 845 846 851
691 8 843 845 846 852
692 10 841 842 843 844
693 11 841 842 843 844
694 12 841 842 843 845
695 8 843 842 841 847
696 8 843 842 841 848
697 8 843 842 841 849
698 12 542 543 545 546
699 10 544 543 545 546
700 11 544 543 545 546
701 3 131 136 134 133
702 3 131 136 134 135
703 8 134 136 131 137
704 8 134 136 131 138
705 8 483 485 486 490
706 8 483 485 486 491
707 8 483 485 486 492
708 10 541 542 543 544
709 11 541 542 543 544
710 12 541 542 543 545
711 8 543 542 541 547
712 8 543 542 541 548
713 8 543 542 541 549
714 10 445 446 447 448
715 11 445 446 447 448
716 12 445 446 447 449
717 8 447 446 445 451
718 8 447 446 445 452
719 8 447 446 445 453
720 12 854 855 857 858
721 10 856 855 857 858
722 11 856 855 857 858
723 3 212 213 214 215
724 3 212 213 214 216
725 8 214 213 212 219
726 8 214 213 212 220
727 10 301 302 303 304
728 11 301 302 303 304
729 12 301 302 303 305
730 8 303 302 301 307
731 8 303 302 301 308
732 8 303 302 301 309
733 3 231 236 234 233
734 3 231 236 234 235
735 8 234 236 231 237
736 8 234 236 231 238
737 12 506 507 509 510
738 10 508 507 509 510
739 11 508 507 509 510
740 12 458 459 461 462
741 10 460 459 461 462
742 11 460 459 461 462
743 1 182 181 186 184
744 2 182 181 186 184
745 6 186 181 182 189
746 7 186 181 182 189
747 6 186 181 182 190
748 7 186 181 182 190
749 9 187 181 182 189
750 9 187 181 182 190
751 9 188 181 182 189
752 9 188 181 182 190
753 1 181 182 183 184
754 2 181 182 183 184
755 4 183 182 181 186
756 5 183 182 181 186
757 6 183 182 181 187
758 7 183 182 181 187
759 6 183 182 181 188
760 7 183 182 181 188
761 3 182 183 184 185
762 3 182 183 184 186
763 8 184 183 182 189
764 8 184 183 182 190
765 3 181 186 184 183
766 3 181 186 184 185
767 8 184 186 181 187
768 8 184 186 181 188
769 1 261 262 263 264
770 2 261 262 263 264
771 4 263 262 261 266
772 5 263 262 261 266
773 6 263 262 261 267
774 7 263 262 261 267
775 6 263 262 261 268
776 7 263 262 261 268
777 12 590 591 593 594
778 10 592 591 593 594
779 11 592 591 593 594
780 8 591 593 594 598
781 8 591 593 594 599
782 8 591 593 594 600
783 8 459 461 462 466
784 8 459 461 462 467
785 8 459 461 462 468
786 3 262 263 264 265
787 3 262 263 264 266
788 8 264 263 262 269
789 8 264 263 262 270
790 10 457 458 459 460
791 11 457 458 459 460
792 12 457 458 459 461
793 8 459 458 457 463
794 8 459 458 457 464
795 8 459 458 457 465
796 12 398 399 401 402
797 10 400 399 401 402
798 11 400 399 401 402
799 10 397 398 399 400
800 11 397 398 399 400
801 12 397 398 399 401
802 8 399 398 397 403
803 8 399 398 397 404
804 8 399 398 397 405
805 8 399 401 402 406
806 8 399 401 402 407
807 8 399 401 402 408
808 10 817 818 819 820
809 11 817 818 819 820
810 12 817 818 819 821
811 8 819 818 817 823
812 8 819 818 817 824
813 8 819 818 817 825
814 10 373 374 375 376
815 11 373 374 375 376
816 12 373 374 375 377
817 8 375 374 373 379
818 8 375 374 373 380
819 8 375 374 373 381
820 8 339 341 342 346
821 8 339 341 342 347
822 8 339 341 342 348
823 12 374 375 377 378
824 10 376 375 377 378
825 11 376 375 377 378
826 1 141 142 143 144
827 2 141 142 143 144
828 4 143 142 141 146
829 5 143 142 141 146
830 6 143 142 141 147
831 7 143 142 141 147
832 6 143 142 141 148
833 7 143 142 141 148
834 1 11 12 13 14
835 2 11 12 13 14
836 4 13 12 11 16
837 5 13 12 11 16
838 6 13 12 11 17
839 7 13 12 11 17
840 6 13 12 11 18
841 7 13 12 11 18
842 1 12 11 16 14
843 2 12 11 16 14
844 6 16 11 12 19
845 7 16 11 12 19
846 6 16 11 12 20
847 7 16 11 12 20
848 9 17 11 12 19
849 9 17 11 12 20
850 9 18 11 12 19
851 9 18 11 12 20
852 8 411 413 414 418
853 8 411 413 414 419
854 8 411 413 414 420
855 1 142 141 146 144
856 2 142 141 146 144
857 6 146 141 142 149
858 7 146 141 142 149
859 6 146 141 142 150
860 7 146 141 142 150
861 9 147 141 142 149
862 9 147 141 142 150
863 9 148 141 142 149
864 9 148 141 142 150
865 3 141 146 144 143
866 3 141 146 144 145
867 8 144 146 141 147
868 8 144 146 141 148
869 8 375 377 378 382
870 8 375 377 378 383
871 8 375 377 378 384
872 3 161 166 164 163
873 3 161 166 164 165
874 8 164 166 161 167
875 8 164 166 161 168
876 10 325 326 327 328
877 11 325 326 327 328
878 12 325 326 327 329
879 8 327 326 325 331
880 8 327 326 325 332
881 8 327 326 325 333
882 1 162 161 166 164
883 2 162 161 166 164
884 6 166 161 162 169
885 7 166 161 162 169
886 6 166 161 162 170
887 7 166 161 162 170
888 9 167 161 162 169
889 9 167 161 162 170
890 9 168 161 162 169
891 9 168 161 162 170
892 3 162 163 164 165
893 3 162 163 164 166
894 8 164 163 162 169
895 8 164 163 162 170
896 1 262 261 266 264
897 2 262 261 266 264
898 6 266 261 262 269
899 7 266 261 262 269
900 6 266 261 262 270
901 7 266 261 262 270
902 9 267 261 262 269
903 9 267 261 262 270
904 9 268 261 262 269
905 9 268 261 262 270
906 1 161 162 163 164
907 2 161 162 163 164
908 4 163 162 161 166
909 5 163 162 161 166
910 6 163 162 161 167
911 7 163 162 161 167
912 6 163 162 161 168
913 7 163 162 161 168
914 3 261 266 264 263
915 3 261 266 264 265
916 8 264 266 261 267
917 8 264 266 261 268
918 10 577 578 579 580
919 11 577 578 579 580
920 12 577 578 579 581
921 8 579 578 577 583
922 8 579 578 577 584
923 8 579 578 577 585
924 8 327 329 330 334
925 8 327 329 330 335
926 8 327 329 330 336
927 12 326 327 329 330
928 10 328 327 329 330
929 11 328 327 329 330
930 3 12 13 14 15
931 3 12 13 14 16
932 8 14 13 12 19
933 8 14 13 12 20
934 12 614 615 617 618
935 10 616 615 617 618
936 11 616 615 617 618
937 3 11 16 14 13
938 3 11 16 14 15
939 8 14 16 11 17
940 8 14 16 11 18
941 1 122 121 126 124
942 2 122 121 126 124
943 6 126 121 122 129
944 7 126 121 122 129
945 6 126 121 122 130
946 7 126 121 122 130
947 9 127 121 122 129
948 9 127 121 122 130
949 9 128 121 122 129
950 9 128 121 122 130
951 1 121 122 123 124
952 2 121 122 123 124
953 4 123 122 121 126
954 5 123 122 121 126
955 6 123 122 121 127
956 7 123 122 121 127
957 6 123 122 121 128
958 7 123 122 121 128
959 3 122 123 124 125
960 3 122 123 124 126
961 8 124 123 122 129
962 8 124 123 122 130
963 3 121 126 124 123
964 3 121 126 124 125
965 8 124 126 121 127
966 8 124 126 121 128
967 8 579 581 582 586
968 8 579 581 582 587
969 8 579 581 582 588
970 12 578 579 581 582
971 10 580 579 581 582
972 11 580 579 581 582
973 3 21 26 24 23
974 3 21 26 24 25
975 8 24 26 21 27
976 8 24 26 21 28
977 12 950 951 953 954
978 10 952 951 953 954
979 11 952 951 953 954
980 10 745 746 747 748
981 11 745 746 747 748
982 12 745 746 747 749
983 8 747 746 745 751
984 8 747 746 745 752
985 8 747 746 745 753
986 10 949 950 951 952
987 11 949 950 951 952
988 12 949 950 951 953
989 8 951 950 949 955
990 8 951 950 949 956
991 8 951 950 949 957
992 8 351 353 354 358
993 8 351 353 354 359
994 8 351 353 354 360
995 1 22 21 26 24
996 2 22 21 26 24
997 6 26 21 22 29
998 7 26 21 22 29
999 6 26 21 22 30
1000 7 26 21 22 30
1001 9 27 21 22 29
1002 9 27 21 22 30
1003 9 28 21 22 29
1004 9 28 21 22 30
1005 8 615 617 618 622
1006 8 615 617 618 623
1007 8 615 617 618 624
1008 8 951 953 954 958
1009 8 951 953 954 959
1010 8 951 953 954 960
1011 10 589 590 591 592
1012 11 589 590 591 592
1013 12 589 590 591 593
1014 8 591 590 589 595
1015 8 591 590 589 596
1016 8 591 590 589 597
1017 10 673 674 675 676
1018 11 673 674 675 676
1019 12 673 674 675 677
1020 8 675 674 673 679
1021 8 675 674 673 680
1022 8 675 674 673 681
1023 10 493 494 495 496
1024 11 493 494 495 496
1025 12 493 494 495 497
1026 8 495 494 493 499
1027 8 495 494 493 500
1028 8 495 494 493 501
1029 12 746 747 749 750
1030 10 748 747 749 750
1031 11 748 747 749 750
1032 10 937 938 939 940
1033 11 937 938 939 940
1034 12 937 938 939 941
1035 8 939 938 937 943
1036 8 939 938 937 944
1037 8 939 938 937 945
1038 10 361 362 363 364
1039 11 361 362 363 364
1040 12 361 362 363 365
1041 8 363 362 361 367
1042 8 363 362 361 368
1043 8 363 362 361 369
1044 12 494 495 497 498
1045 10 496 495 497 498
1046 11 496 495 497 498
1047 10 925 926 927 928
1048 11 925 926 927 928
1049 12 925 926 927 929
1050 8 927 926 925 931
1051 8 927 926 925 932
1052 8 927 926 925 933
1053 8 747 749 750 754
1054 8 747 749 750 755
1055 8 747 749 750 756
1056 12 674 675 677 678
1057 10 676 675 677 678
1058 11 676 675 677 678
1059 8 675 677 678 682
1060 8 675 677 678 683
1061 8 675 677 678 684
1062 12 350 351 353 354
1063 10 352 351 353 354
1064 11 352 351 353 354
1065 12 938 939 941 942
1066 10 940 939 941 942
1067 11 940 939 941 942
1068 8 927 929 930 934
1069 8 927 929 930 935
1070 8 927 929 930 936
1071 12 770 771 773 774
1072 10 772 771 773 774
1073 11 772 771 773 774
1074 8 495 497 498 502
1075 8 495 497 498 503
1076 8 495 497 498 504
1077 10 349 350 351 352
1078 11 349 350 351 352
1079 12 349 350 351 353
1080 8 351 350 349 355
1081 8 351 350 349 356
1082 8 351 350 349 357
1083 12 362 363 365 366
1084 10 364 363 365 366
1085 11 364 363 365 366
1086 12 926 927 929 930
1087 10 928 927 929 930
1088 11 928 927 929 930
1089 8 939 941 942 946
1090 8 939 941 942 947
1091 8 939 941 942 948
1092 10 769 770 771 772
1093 11 769 770 771 772
1094 12 769 770 771 773
1095 8 771 770 769 775
1096 8 771 770 769 776
1097 8 771 770 769 777
1098 8 363 365 366 370
1099 8 363 365 366 371
1100 8 363 365 366 372
1101 8 771 773 774 778
1102 8 771 773 774 779
1103 8 771 773 774 780
1104 10 829 830 831 832
1105 11 829 830 831 832
1106 12 829 830 831 833
1107 8 831 830 829 835
1108 8 831 830 829 836
1109 8 831 830 829 837
1110 1 272 271 276 274
1111 2 272 271 276 274
1112 6 276 271 272 279
1113 7 276 271 272 279
1114 6 276 271 272 280
1115 7 276 271 272 280
1116 9 277 271 272 279
1117 9 277 271 272 280
1118 9 278 271 272 279
1119 9 278 271 272 280
1120 1 271 272 273 274
1121 2 271 272 273 274
1122 4 273 272 271 276
1123 5 273 272 271 276
1124 6 273 272 271 277
1125 7 273 272 271 277
1126 6 273 272 271 278
1127 7 273 272 271 278
1128 3 272 273 274 275
1129 3 272 273 274 276
1130 8 274 273 272 279
1131 8 274 273 272 280
1132 3 271 276 274 273
1133 3 271 276 274 275
1134 8 274 276 271 277
1135 8 274 276 271 278
1136 10 637 638 639 640
1137 11 637 638 639 640
1138 12 637 638 639 641
1139 8 639 638 637 643
1140 8 639 638 637 644
1141 8 639 638 637 645
1142 12 638 639 641 642
1143 10 640 639 641 642
1144 11 640 639 641 642
1145 8 639 641 642 646
1146 8 639 641 642 647
1147 8 639 641 642 648
1148 12 626 627 629 630
1149 10 628 627 629 630
1150 11 628 627 629 630
1151 8 627 629 630 634
1152 8 627 629 630 635
1153 8 627 629 630 636
1154 10 625 626 627 628
1155 11 625 626 627 628
1156 12 625 626 627 629
1157 8 627 626 625 631
1158 8 627 626 625 632
1159 8 627 626 625 633
1160 3 142 143 144 145
1161 3 142 143 144 146
1162 8 144 143 142 149
1163 8 144 143 142 150
1164 1 51 52 53 54
1165 2 51 52 53 54
1166 4 53 52 51 56
1167 5 53 52 51 56
1168 6 53 52 51 57
1169 7 53 52 51 57
1170 6 53 52 51 58
1171 7 53 52 51 58
1172 12 422 423 425 426
1173 10 424 423 425 426
1174 11 424 423 425 426
1175 12 890 891 893 894
1176 10 892 891 893 894
1177 11 892 891 893 894
1178 8 891 893 894 898
1179 8 891 893 894 899
1180 8 891 893 894 900
1181 10 649 650 651 652
1182 11 649 650 651 652
1183 12 649 650 651 653
1184 8 651 650 649 655
1185 8 651 650 649 656
1186 8 651 650 649 657
1187 10 613 614 615 616
1188 11 613 614 615 616
1189 12 613 614 615 617
1190 8 615 614 613 619
1191 8 615 614 613 620
1192 8 615 614 613 621
1193 10 421 422 423 424
1194 11 421 422 423 424
1195 12 421 422 423 425
1196 8 423 422 421 427
1197 8 423 422 421 428
1198 8 423 422 421 429
1199 8 447 449 450 454
1200 8 447 449 450 455
1201 8 447 449 450 456
1202 10 469 470 471 472
1203 11 469 470 471 472
1204 12 469 470 471 473
1205 8 471 470 469 475
1206 8 471 470 469 476
1207 8 471 470 469 477
1208 8 783 785 786 790
1209 8 783 785 786 791
1210 8 783 785 786 792
1211 12 782 783 785 786
1212 10 784 783 785 786
1213 11 784 783 785 786
1214 10 889 890 891 892
1215 11 889 890 891 892
1216 12 889 890 891 893
1217 8 891 890 889 895
1218 8 891 890 889 896
1219 8 891 890 889 897
1220 12 410 411 413 414
1221 10 412 411 413 414
1222 11 412 411 413 414
1223 8 471 473 474 478
1224 8 471 473 474 479
1225 8 471 473 474 480
1226 12 338 339 341 342
1227 10 340 339 341 342
1228 11 340 339 341 342
1229 10 781 782 783 784
1230 11 781 782 783 784
1231 12 781 782 783 785
1232 8 783 782 781 787
1233 8 783 782 781 788
1234 8 783 782 781 789
1235 3 202 203 204 205
1236 3 202 203 204 206
1237 8 204 203 202 209
1238 8 204 203 202 210
1239 1 21 22 23 24
1240 2 21 22 23 24
1241 4 23 22 21 26
1242 5 23 22 21 26
1243 6 23 22 21 27
1244 7 23 22 21 27
1245 6 23 22 21 28
1246 7 23 22 21 28
1247 1 101 102 103 104
1248 2 101 102 103 104
1249 4 103 102 101 106
1250 5 103 102 101 106
1251 6 103 102 101 107
1252 7 103 102 101 107
1253 6 103 102 101 108
1254 7 103 102 101 108
1255 1 172 171 176 174
1256 2 172 171 176 174
1257 6 176 171 172 179
1258 7 176 171 172 179
1259 6 176 171 172 180
1260 7 176 171 172 180
1261 9 177 171 172 179
1262 9 177 171 172 180
1263 9 178 171 172 179
1264 9 178 171 172 180
1265 3 172 173 174 175
1266 3 172 173 174 176
1267 8 174 173 172 179
1268 8 174 173 172 180
1269 3 171 176 174 173
1270 3 171 176 174 175
1271 8 174 176 171 177
1272 8 174 176 171 178
1273 3 22 23 24 25
1274 3 22 23 24 26
1275 8 24 23 22 29
1276 8 24 23 22 30
1277 3 101 106 104 103
1278 3 101 106 104 105
1279 8 104 106 101 107
1280 8 104 106 101 108
1281 1 171 172 173 174
1282 2 171 172 173 174
1283 4 173 172 171 176
1284 5 173 172 171 176
1285 6 173 172 171 177
1286 7 173 172 171 177
1287 6 173 172 171 178
1288 7 173 172 171 178
1289 1 102 101 106 104
1290 2 102 101 106 104
1291 6 106 101 102 109
1292 7 106 101 102 109
1293 6 106 101 102 110
1294 7 106 101 102 110
1295 9 107 101 102 109
1296 9 107 101 102 110
1297 9 108 101 102 109
1298 9 108 101 102 110
1299 10 337 338 339 340
1300 11 337 338 339 340
1301 12 337 338 339 341
1302 8 339 338 337 343
1303 8 339 338 337 344
1304 8 339 338 337 345
1305 3 102 103 104 105
1306 3 102 103 104 106
1307 8 104 103 102 109
1308 8 104 103 102 110
1309 12 470 471 473 474
1310 10 472 471 473 474
1311 11 472 471 473 474
1312 1 201 202 203 204
1313 2 201 202 203 204
1314 4 203 202 201 206
1315 5 203 202 201 206
1316 6 203 202 201 207
1317 7 203 202 201 207
1318 6 203 202 201 208
1319 7 203 202 201 208
1320 3 201 206 204 203
1321 3 201 206 204 205
1322 8 204 206 201 207
1323 8 204 206 201 208
1324 1 202 201 206 204
1325 2 202 201 206 204
1326 6 206 201 202 209
1327 7 206 201 202 209
1328 6 206 201 202 210
1329 7 206 201 202 210
1330 9 207 201 202 209
1331 9 207 201 202 210
1332 9 208 201 202 209
1333 9 208 201 202 210
1334 12 830 831 833 834
1335 10 832 831 833 834
1336 11 832 831 833 834
1337 1 1 2 3 4
1338 2 1 2 3 4
1339 4 3 2 1 6
1340 5 3 2 1 6
1341 6 3 2 1 7
1342 7 3 2 1 7
1343 6 3 2 1 8
1344 7 3 2 1 8
1345 8 831 833 834 838
1346 8 831 833 834 839
1347 8 831 833 834 840
1348 8 651 653 654 658
1349 8 651 653 654 659
1350 8 651 653 654 660
1351 3 132 133 134 135
1352 3 132 133 134 136
1353 8 134 133 132 139
1354 8 134 133 132 140
1355 3 2 3 4 5
1356 3 2 3 4 6
1357 8 4 3 2 9
1358 8 4 3 2 10
1359 1 131 132 133 134
1360 2 131 132 133 134
1361 4 133 132 131 136
1362 5 133 132 131 136
1363 6 133 132 131 137
1364 7 133 132 131 137
1365 6 133 132 131 138
1366 7 133 132 131 138
1367 3 192 193 194 195
1368 3 192 193 194 196
1369 8 194 193 192 199
1370 8 194 193 192 200
1371 3 1 6 4 3
1372 3 1 6 4 5
1373 8 4 6 1 7
1374 8 4 6 1 8
1375 1 192 191 196 194
1376 2 192 191 196 194
1377 6 196 191 192 199
1378 7 196 191 192 199
1379 6 196 191 192 200
1380 7 196 191 192 200
1381 9 197 191 192 199
1382 9 197 191 192 200
1383 9 198 191 192 199
1384 9 198 191 192 200
1385 1 191 192 193 194
1386 2 191 192 193 194
1387 4 193 192 191 196
1388 5 193 192 191 196
1389 6 193 192 191 197
1390 7 193 192 191 197
1391 6 193 192 191 198
1392 7 193 192 191 198
1393 8 663 665 666 670
1394 8 663 665 666 671
1395 8 663 665 666 672
1396 3 191 196 194 193
1397 3 191 196 194 195
1398 8 194 196 191 197
1399 8 194 196 191 198
1400 12 698 699 701 702
1401 10 700 699 701 702
1402 11 700 699 701 702
1403 10 697 698 699 700
1404 11 697 698 699 700
1405 12 697 698 699 701
1406 8 699 698 697 703
1407 8 699 698 697 704
1408 8 699 698 697 705
1409 12 650 651 653 654
1410 10 652 651 653 654
1411 11 652 651 653 654
1412 10 409 410 411 412
1413 11 409 410 411 412
1414 12 409 410 411 413
1415 8 411 410 409 415
1416 8 411 410 409 416
1417 8 411 410 409 417
1418 8 759 761 762 766
1419 8 759 761 762 767
1420 8 759 761 762 768
1421 1 2 1 6 4
1422 2 2 1 6 4
1423 6 6 1 2 9
1424 7 6 1 2 9
1425 6 6 1 2 10
1426 7 6 1 2 10
1427 9 7 1 2 9
1428 9 7 1 2 10
1429 9 8 1 2 9
1430 9 8 1 2 10
1431 10 757 758 759 760
1432 11 757 758 759 760
1433 12 757 758 759 761
1434 8 759 758 757 763
1435 8 759 758 757 764
1436 8 759 758 757 765
1437 12 758 759 761 762
1438 10 760 759 761 762
1439 11 760 759 761 762
1440 8 699 701 702 706
1441 8 699 701 702 707
1442 8 699 701 702 708
1443 1 132 131 136 134
1444 2 132 131 136 134
1445 6 136 131 132 139
1446 7 136 131 132 139
1447 6 136 131 132 140
1448 7 136 131 132 140
1449 9 137 131 132 139
1450 9 137 131 132 140
1451 9 138 131 132 139
1452 9 138 131 132 140

Impropers

1 1 84 83 85 86
2 1 711 710 712 713
3 1 711 712 713 710
4 1 711 713 710 712
5 1 963 965 962 964
6 1 963 964 965 962
7 1 963 962 964 965
8 1 819 820 821 818
9 1 507 506 508 509
10 1 84 86 83 85
11 1 84 85 86 83
12 1 819 821 818 820
13 1 94 96 93 95
14 1 795 797 794 796
15 1 64 63 65 66
16 1 663 664 665 662
17 1 663 662 664 665
18 1 807 808 809 806
19 1 915 914 916 917
20 1 807 806 808 809
21 1 807 809 806 808
22 1 74 76 73 75
23 1 94 95 96 93
24 1 915 916 917 914
25 1 94 93 95 96
26 1 855 857 854 856
27 1 915 917 914 916
28 1 114 116 113 115
29 1 74 73 75 76
30 1 114 115 116 113
31 1 687 689 686 688
32 1 114 113 115 116
33 1 867 869 866 868
34 1 74 75 76 73
35 1 244 245 246 243
36 1 879 881 878 880
37 1 903 905 902 904
38 1 903 904 905 902
39 1 555 554 556 557
40 1 735 734 736 737
41 1 387 388 389 386
42 1 294 296 293 295
43 1 555 557 554 556
44 1 387 386 388 389
45 1 555 556 557 554
46 1 34 33 35 36
47 1 687 688 689 686
48 1 294 293 295 296
49 1 735 737 734 736
50 1 34 35 36 33
51 1 294 295 296 293
52 1 44 46 43 45
53 1 34 36 33 35
54 1 44 43 45 46
55 1 44 45 46 43
56 1 387 389 386 388
57 1 735 736 737 734
58 1 879 878 880 881
59 1 687 686 688 689
60 1 903 902 904 905
61 1 867 866 868 869
62 1 879 880 881 878
63 1 224 223 225 226
64 1 224 225 226 223
65 1 224 226 223 225
66 1 507 508 509 506
67 1 54 56 53 55
68 1 723 724 725 722
69 1 603 604 605 602
70 1 284 285 286 283
71 1 531 532 533 530
72 1 723 725 722 724
73 1 531 530 532 533
74 1 284 283 285 286
75 1 54 55 56 53
76 1 423 425 422 424
77 1 603 605 602 604
78 1 603 602 604 605
79 1 723 722 724 725
80 1 64 65 66 63
81 1 284 286 283 285
82 1 64 66 63 65
83 1 519 518 520 521
84 1 519 520 521 518
85 1 54 53 55 56
86 1 519 521 518 520
87 1 507 509 506 508
88 1 543 544 545 542
89 1 194 195 196 193
90 1 855 856 857 854
91 1 531 533 530 532
92 1 303 305 302 304
93 1 214 216 213 215
94 1 303 304 305 302
95 1 567 569 566 568
96 1 234 233 235 236
97 1 254 255 256 253
98 1 435 434 436 437
99 1 244 243 245 246
100 1 254 253 255 256
101 1 254 256 253 255
102 1 244 246 243 245
103 1 4 5 6 3
104 1 435 436 437 434
105 1 214 215 216 213
106 1 435 437 434 436
107 1 567 568 569 566
108 1 567 566 568 569
109 1 315 317 314 316
110 1 315 314 316 317
111 1 855 854 856 857
112 1 795 794 796 797
113 1 543 545 542 544
114 1 154 153 155 156
115 1 483 482 484 485
116 1 483 484 485 482
117 1 154 156 153 155
118 1 843 844 845 842
119 1 154 155 156 153
120 1 843 845 842 844
121 1 843 842 844 845
122 1 447 448 449 446
123 1 134 136 133 135
124 1 483 485 482 484
125 1 543 542 544 545
126 1 447 446 448 449
127 1 315 316 317 314
128 1 214 213 215 216
129 1 303 302 304 305
130 1 234 236 233 235
131 1 184 183 185 186
132 1 184 185 186 183
133 1 184 186 183 185
134 1 591 593 590 592
135 1 459 461 458 460
136 1 264 263 265 266
137 1 399 400 401 398
138 1 459 458 460 461
139 1 591 592 593 590
140 1 459 460 461 458
141 1 867 868 869 866
142 1 399 398 400 401
143 1 399 401 398 400
144 1 819 818 820 821
145 1 375 374 376 377
146 1 264 265 266 263
147 1 339 341 338 340
148 1 411 413 410 412
149 1 375 376 377 374
150 1 144 146 143 145
151 1 951 952 953 950
152 1 375 377 374 376
153 1 164 166 163 165
154 1 327 326 328 329
155 1 164 163 165 166
156 1 264 266 263 265
157 1 579 578 580 581
158 1 327 329 326 328
159 1 615 616 617 614
160 1 14 13 15 16
161 1 579 580 581 578
162 1 14 15 16 13
163 1 14 16 13 15
164 1 124 123 125 126
165 1 124 126 123 125
166 1 579 581 578 580
167 1 327 328 329 326
168 1 24 26 23 25
169 1 124 125 126 123
170 1 747 748 749 746
171 1 747 746 748 749
172 1 951 950 952 953
173 1 351 353 350 352
174 1 615 617 614 616
175 1 951 953 950 952
176 1 24 25 26 23
177 1 591 590 592 593
178 1 675 674 676 677
179 1 351 352 353 350
180 1 495 494 496 497
181 1 939 940 941 938
182 1 939 938 940 941
183 1 363 362 364 365
184 1 927 926 928 929
185 1 747 749 746 748
186 1 675 677 674 676
187 1 927 929 926 928
188 1 363 364 365 362
189 1 495 497 494 496
190 1 351 350 352 353
191 1 675 676 677 674
192 1 927 928 929 926
193 1 939 941 938 940
194 1 771 770 772 773
195 1 771 772 773 770
196 1 363 365 362 364
197 1 771 773 770 772
198 1 831 830 832 833
199 1 274 273 275 276
200 1 274 276 273 275
201 1 639 638 640 641
202 1 639 640 641 638
203 1 639 641 638 640
204 1 627 628 629 626
205 1 627 629 626 628
206 1 627 626 628 629
207 1 144 145 146 143
208 1 783 784 785 782
209 1 144 143 145 146
210 1 891 892 893 890
211 1 891 893 890 892
212 1 134 135 136 133
213 1 651 650 652 653
214 1 495 496 497 494
215 1 615 614 616 617
216 1 423 422 424 425
217 1 447 449 446 448
218 1 274 275 276 273
219 1 411 412 413 410
220 1 795 796 797 794
221 1 471 470 472 473
222 1 783 785 782 784
223 1 891 890 892 893
224 1 471 473 470 472
225 1 783 782 784 785
226 1 339 340 341 338
227 1 204 203 205 206
228 1 204 205 206 203
229 1 104 105 106 103
230 1 174 173 175 176
231 1 174 175 176 173
232 1 174 176 173 175
233 1 24 23 25 26
234 1 104 106 103 105
235 1 339 338 340 341
236 1 104 103 105 106
237 1 204 206 203 205
238 1 234 235 236 233
239 1 831 833 830 832
240 1 471 472 473 470
241 1 651 653 650 652
242 1 164 165 166 163
243 1 423 424 425 422
244 1 699 700 701 698
245 1 134 133 135 136
246 1 4 3 5 6
247 1 651 652 653 650
248 1 194 193 195 196
249 1 831 832 833 830
250 1 4 6 3 5
251 1 663 665 662 664
252 1 194 196 193 195
253 1 699 698 700 701
254 1 411 410 412 413
255 1 759 761 758 760
256 1 759 760 761 758
257 1 759 758 760 761
258 1 699 701 698 700
