LAMMPS (22 Jul 2025 - Update 4)
# Restart continuation NPT chunk for composition tag=ec_dmc_3_7_liclo4_1m_298K
# Generated by scripts/curate_ff_md_data.py

read_restart    ${input_restart}
read_restart    ec_dmc_3_7_liclo4_1m_298K.npt.6.restart
Reading restart file ...
  restart file = 22 Jul 2025, LAMMPS = 22 Jul 2025
  restoring atom style full from restart
  orthogonal box = (-0.205084 -0.174084 -0.194084) to (22.731176 22.762176 22.742176)
  1 by 1 by 1 MPI processor grid
  restoring pair style lj/cut/coul/long from restart
  restoring bond style harmonic from restart
  restoring angle style harmonic from restart
  restoring dihedral style opls from restart
  restoring improper style cvff from restart
  1014 atoms
  944 bonds
  1504 angles
  1452 dihedrals
  258 impropers
Finding 1-2 1-3 1-4 neighbors ...
  special bond factors lj:    0        0        0.5     
  special bond factors coul:  0        0        0.5     
     4 = max # of 1-2 neighbors
     5 = max # of 1-3 neighbors
     9 = max # of 1-4 neighbors
    11 = max # of special neighbors
  special bonds CPU = 0.001 seconds
  read_restart CPU = 0.006 seconds
kspace_style    pppm 1.0e-4
neighbor        2.0 bin
neigh_modify    every 1 delay 0 check yes
timestep        1.0

thermo_style    custom step time temp press vol density pe ke etotal
thermo          100
variable        tracked_temperature_K equal temp
variable        tracked_density_g_cm3 equal density
variable        tracked_volume_A3 equal vol
variable        tracked_pressure_atm equal press
fix             NPT_EQ all npt temp 298.15 298.15 100.0 iso 1.0 1.0 1000.0
fix             NPT_TRACE all ave/time 100 1 100 v_tracked_temperature_K v_tracked_density_g_cm3 v_tracked_volume_A3 v_tracked_pressure_atm file ${thermo_trace}
fix             NPT_TRACE all ave/time 100 1 100 v_tracked_temperature_K v_tracked_density_g_cm3 v_tracked_volume_A3 v_tracked_pressure_atm file npt_thermo.7.dat
run             5000
PPPM initialization ...
  using 12-bit tables for long-range coulomb
  G vector (1/distance) = 0.21312902
  grid = 9 9 9
  stencil order = 5
  estimated absolute RMS force accuracy = 0.015769492
  estimated relative force accuracy = 4.7489357e-05
  using double precision FFTW3
  3d grid and FFT values/proc = 2744 729
Generated 28 of 28 mixed pair_coeff terms from arithmetic mixing rule
Neighbor list info ...
  update: every = 1 steps, delay = 0 steps, check = yes
  max neighbors/atom: 2000, page size: 100000
  master list distance cutoff = 14
  ghost atom cutoff = 14
  binsize = 7, bins = 4 4 4
  1 neighbor lists, perpetual/occasional/extra = 1 0 0
  (1) pair lj/cut/coul/long, perpetual
      attributes: half, newton on
      pair build: half/bin/newton
      stencil: half/bin/3d
      bin: standard
Per MPI rank memory allocation (min/avg/max) = 14.9 | 14.9 | 14.9 Mbytes
   Step          Time           Temp          Press          Volume        Density         PotEng         KinEng         TotEng    
     30431   30431          297.58135      758.59013      12066.124      1.1602738     -121.8521       898.5649       776.7128     
     30500   30500          306.16068      1996.6943      12066.096      1.1602765     -154.01972      924.47071      770.451      
     30600   30600          297.94532      804.70938      12050.053      1.1618213     -171.9665       899.66393      727.69743    
     30700   30700          278.4042       1462.4442      12014.657      1.1652441     -150.04575      840.65835      690.6126     
     30800   30800          294.86289     -1389.6709      11984.321      1.1681937     -186.77148      890.35636      703.58488    
     30900   30900          294.72033      1340.7521      11940.136      1.1725166     -166.85063      889.92589      723.07526    
     31000   31000          307.87542      1524.2042      11895.974      1.1768694     -188.95923      929.64848      740.68925    
     31100   31100          296.02495      746.06232      11899.45       1.1765257     -146.31168      893.86526      747.55358    
     31200   31200          289.7135       155.74721      11936.847      1.1728397     -177.28259      874.80747      697.52488    
     31300   31300          277.18833      482.42188      11972.046      1.1693915     -152.23109      836.98696      684.75587    
     31400   31400          297.94158     -485.57053      11938.335      1.1726935     -172.76679      899.65265      726.88586    
     31500   31500          291.30282     -10.915271      11841.077      1.1823256     -129.74422      879.60652      749.86231    
     31600   31600          300.54377      3.1644127      11856.329      1.1808046     -146.08823      907.51013      761.4219     
     31700   31700          293.6351       1509.3067      11951.5        1.1714017     -134.92438      886.64897      751.72459    
     31800   31800          301.85945      1103.3067      12108.7        1.1561941     -172.78208      911.48289      738.70081    
     31900   31900          285.3532      -1602.518       12199.757      1.1475646     -128.78556      861.64129      732.85573    
     32000   32000          297.12111      7.0465208      12158.209      1.1514861     -131.31477      897.1752       765.86043    
     32100   32100          305.54449      102.61663      12029.169      1.1638384     -123.50682      922.6101       799.10327    
     32200   32200          304.31008      2837.0627      11871.772      1.1792687     -129.77673      918.88274      789.106      
     32300   32300          292.60298      803.01117      11846.099      1.1818244     -147.95574      883.53244      735.5767     
     32400   32400          288.73041      279.5135       11980.031      1.168612      -149.09157      871.83897      722.7474     
     32500   32500          285.41091     -3836.5712      12115.937      1.1555036     -111.94555      861.81553      749.86998    
     32600   32600          297.43391      3322.375       12145.944      1.1526488     -113.13087      898.1197       784.98883    
     32700   32700          308.12146      236.94771      12111.224      1.1559532     -122.85398      930.39143      807.53745    
     32800   32800          293.33783      1606.8655      12004.636      1.1662168     -88.718246      885.75136      797.03311    
     32900   32900          286.1668      -2206.4216      11927.821      1.1737272     -134.26228      864.09798      729.83571    
     33000   33000          293.29442      662.30872      11863.892      1.1800519     -178.98655      885.62028      706.63373    
     33100   33100          297.93392     -549.29637      11851.472      1.1812886     -168.18927      899.62952      731.44025    
     33200   33200          302.43145      1234.1904      11914.508      1.1750387     -158.32307      913.21009      754.88702    
     33300   33300          296.89629      1874.422       11977.168      1.1688913     -123.29825      896.49635      773.1981     
     33400   33400          308.65227     -1095.9535      12054.482      1.1613945     -114.78607      931.99421      817.20815    
     33500   33500          311.26353     -1088.2213      12099.973      1.1570281     -103.08761      939.87908      836.79147    
     33600   33600          301.98632     -2675.328       12086.763      1.1582926     -136.35775      911.86598      775.50823    
     33700   33700          292.26387     -2172.9449      12026.704      1.1640769     -131.06901      882.50847      751.43947    
     33800   33800          293.14995     -2733.4739      12005.999      1.1660844     -145.25877      885.18405      739.92528    
     33900   33900          284.39781      901.31968      12017.038      1.1650132     -117.14762      858.75641      741.60878    
     34000   34000          301.00091      1338.9278      12031.269      1.1636352     -124.06464      908.89049      784.82585    
     34100   34100          306.83526     -1527.9791      12049.559      1.1618689     -113.69607      926.50767      812.8116     
     34200   34200          303.33709     -680.78584      12066.554      1.1602325     -136.12322      915.94473      779.82151    
     34300   34300          293.85256     -468.43591      12095.572      1.1574491     -160.61038      887.30562      726.69524    
     34400   34400          292.97617     -2355.2919      12057.192      1.1611334     -154.07983      884.6593       730.57947    
     34500   34500          302.56337      285.36222      11924.819      1.1740228     -171.65322      913.60842      741.9552     
     34600   34600          303.62324      2133.587       11873.684      1.1790788     -144.77728      916.80876      772.03148    
     34700   34700          314.48906      447.66386      11926.176      1.1738891     -143.00353      949.61876      806.61524    
     34800   34800          304.19555     -1236.324       12016.052      1.1651088     -144.69935      918.53689      773.83754    
     34900   34900          285.28384      415.6993       12076.516      1.1592755     -141.63414      861.43184      719.7977     
     35000   35000          291.25787     -1793.7907      12052.593      1.1615765     -152.64564      879.4708       726.82515    
     35100   35100          295.68316      1395.4335      11976.466      1.1689599     -138.08617      892.8332       754.74703    
     35200   35200          302.21232      528.5399       11970.761      1.169517      -117.31306      912.54841      795.23535    
     35300   35300          308.02152     -816.87145      11980.832      1.1685339     -140.38295      930.08962      789.70667    
     35400   35400          300.54404     -3915.7873      11914.386      1.1750507     -172.10313      907.51094      735.40781    
     35431   35431          291.05718      2211.4781      11873.001      1.1791466     -155.10681      878.86478      723.75797    
Loop time of 67.4186 on 1 procs for 5000 steps with 1014 atoms

Performance: 6.408 ns/day, 3.745 hours/ns, 74.164 timesteps/s, 75.202 katom-step/s
92.8% CPU use with 1 MPI tasks x no OpenMP threads

MPI task timing breakdown:
Section |  min time  |  avg time  |  max time  |%varavg| %total
---------------------------------------------------------------
Pair    | 58.717     | 58.717     | 58.717     |   0.0 | 87.09
Bond    | 2.4126     | 2.4126     | 2.4126     |   0.0 |  3.58
Kspace  | 2.5718     | 2.5718     | 2.5718     |   0.0 |  3.81
Neigh   | 2.4259     | 2.4259     | 2.4259     |   0.0 |  3.60
Comm    | 0.29936    | 0.29936    | 0.29936    |   0.0 |  0.44
Output  | 0.0026812  | 0.0026812  | 0.0026812  |   0.0 |  0.00
Modify  | 0.87509    | 0.87509    | 0.87509    |   0.0 |  1.30
Other   |            | 0.1142     |            |       |  0.17

Nlocal:           1014 ave        1014 max        1014 min
Histogram: 1 0 0 0 0 0 0 0 0 0
Nghost:          10123 ave       10123 max       10123 min
Histogram: 1 0 0 0 0 0 0 0 0 0
Neighs:         496317 ave      496317 max      496317 min
Histogram: 1 0 0 0 0 0 0 0 0 0

Total # of neighbors = 496317
Ave neighs/atom = 489.4645
Ave special neighs/atom = 6.7613412
Neighbor list builds = 108
Dangerous builds = 0
unfix           NPT_TRACE
unfix           NPT_EQ
write_restart   ${output_restart}
write_restart   ec_dmc_3_7_liclo4_1m_298K.npt.7.restart
System init for write_restart ...
PPPM initialization ...
  using 12-bit tables for long-range coulomb
  G vector (1/distance) = 0.20485608
  grid = 8 8 8
  stencil order = 5
  estimated absolute RMS force accuracy = 0.026158746
  estimated relative force accuracy = 7.8776286e-05
  using double precision FFTW3
  3d grid and FFT values/proc = 2197 512
Generated 28 of 28 mixed pair_coeff terms from arithmetic mixing rule
Total wall time: 0:01:07
