LAMMPS (22 Jul 2025 - Update 4)
# Restart continuation NPT chunk for composition tag=ec_dmc_3_7_liclo4_1m_298K
# Generated by scripts/curate_ff_md_data.py

read_restart    ${input_restart}
read_restart    ec_dmc_3_7_liclo4_1m_298K.npt.1.restart
Reading restart file ...
  restart file = 22 Jul 2025, LAMMPS = 22 Jul 2025
  restoring atom style full from restart
  orthogonal box = (-0.60436392 -0.57336392 -0.59336392) to (23.130456 23.161456 23.141456)
  1 by 1 by 1 MPI processor grid
  restoring pair style lj/cut/coul/long from restart
  restoring bond style harmonic from restart
  restoring angle style harmonic from restart
  restoring dihedral style opls from restart
  restoring improper style cvff from restart
  1014 atoms
  944 bonds
  1504 angles
  1452 dihedrals
  258 impropers
Finding 1-2 1-3 1-4 neighbors ...
  special bond factors lj:    0        0        0.5     
  special bond factors coul:  0        0        0.5     
     4 = max # of 1-2 neighbors
     5 = max # of 1-3 neighbors
     9 = max # of 1-4 neighbors
    11 = max # of special neighbors
  special bonds CPU = 0.002 seconds
  read_restart CPU = 0.007 seconds
kspace_style    pppm 1.0e-4
neighbor        2.0 bin
neigh_modify    every 1 delay 0 check yes
timestep        1.0

thermo_style    custom step time temp press vol density pe ke etotal
thermo          100
variable        tracked_temperature_K equal temp
variable        tracked_density_g_cm3 equal density
variable        tracked_volume_A3 equal vol
variable        tracked_pressure_atm equal press
fix             NPT_EQ all npt temp 298.15 298.15 100.0 iso 1.0 1.0 1000.0
fix             NPT_TRACE all ave/time 100 1 100 v_tracked_temperature_K v_tracked_density_g_cm3 v_tracked_volume_A3 v_tracked_pressure_atm file ${thermo_trace}
fix             NPT_TRACE all ave/time 100 1 100 v_tracked_temperature_K v_tracked_density_g_cm3 v_tracked_volume_A3 v_tracked_pressure_atm file npt_thermo.2.dat
run             5000
PPPM initialization ...
  using 12-bit tables for long-range coulomb
  G vector (1/distance) = 0.21063427
  grid = 9 9 9
  stencil order = 5
  estimated absolute RMS force accuracy = 0.01744467
  estimated relative force accuracy = 5.2534105e-05
  using double precision FFTW3
  3d grid and FFT values/proc = 2744 729
Generated 28 of 28 mixed pair_coeff terms from arithmetic mixing rule
Neighbor list info ...
  update: every = 1 steps, delay = 0 steps, check = yes
  max neighbors/atom: 2000, page size: 100000
  master list distance cutoff = 14
  ghost atom cutoff = 14
  binsize = 7, bins = 4 4 4
  1 neighbor lists, perpetual/occasional/extra = 1 0 0
  (1) pair lj/cut/coul/long, perpetual
      attributes: half, newton on
      pair build: half/bin/newton
      stencil: half/bin/3d
      bin: standard
Per MPI rank memory allocation (min/avg/max) = 14.87 | 14.87 | 14.87 Mbytes
   Step          Time           Temp          Press          Volume        Density         PotEng         KinEng         TotEng    
      5431   5431           292.63782      1483.4723      13370.813      1.0470574      11.321753      883.63763      894.95938    
      5500   5500           299.14121      230.22562      13381.492      1.0462218     -6.6147612      903.27501      896.66025    
      5600   5600           309.30285     -925.64791      13442.247      1.0414932     -17.292296      933.9587       916.6664     
      5700   5700           310.86943     -767.75995      13466.221      1.039639       2.1648591      938.68908      940.85394    
      5800   5800           307.05687      108.3945       13419.03       1.0432951      7.1155612      927.17683      934.29239    
      5900   5900           303.81667     -129.27808      13342.748      1.0492597     -30.243909      917.39284      887.14893    
      6000   6000           304.50862     -1111.9924      13289.027      1.0535014     -54.727105      919.48222      864.75512    
      6100   6100           293.76654      1122.5071      13207.823      1.0599785     -27.020548      887.04586      860.02531    
      6200   6200           305.71374      1552.7829      13110.886      1.0678156     -47.566866      923.12115      875.55429    
      6300   6300           302.05147      134.52821      13050.656      1.0727437     -29.049738      912.06272      883.01298    
      6400   6400           296.22881     -879.20909      13052.884      1.0725605     -14.609077      894.48085      879.87178    
      6500   6500           310.82277      796.62491      13110.436      1.0678522     -50.408686      938.54817      888.13949    
      6600   6600           291.93211      1448.1821      13209.385      1.0598531     -6.5510949      881.50668      874.95559    
      6700   6700           286.24068     -391.47225      13297.467      1.0528327     -17.096195      864.32108      847.22489    
      6800   6800           295.22407     -8.9792038      13356.064      1.0482136     -20.83583       891.44696      870.61113    
      6900   6900           302.44471      767.20261      13331.186      1.0501698      7.2786798      913.25012      920.5288     
      7000   7000           306.41308      513.75804      13249.908      1.0566118      7.0611481      925.23285      932.294      
      7100   7100           309.71536     -1161.436       13204.214      1.0602683     -38.555584      935.20431      896.64872    
      7200   7200           305.4533      -307.15679      13151.031      1.0645559     -62.590685      922.33476      859.74407    
      7300   7300           298.96492     -83.140263      13161.912      1.0636759     -49.904129      902.7427       852.83857    
      7400   7400           295.65071      86.129932      13151.344      1.0645307     -62.770086      892.73523      829.96515    
      7500   7500           296.97823     -702.63366      13060.817      1.071909      -92.049328      896.74374      804.69442    
      7600   7600           295.9625      -2110.6782      12876.796      1.0872277     -59.418539      893.6767       834.25816    
      7700   7700           318.37446      699.29231      12697.784      1.1025552     -81.632014      961.35096      879.71895    
      7800   7800           311.21585      3819.9026      12627.237      1.1087151     -77.734973      939.73511      862.00014    
      7900   7900           289.95626     -184.28562      12726.018      1.1001092     -62.361279      875.54048      813.17921    
      8000   8000           295.45263     -3664.8074      12870.724      1.0877405     -74.192201      892.13711      817.94491    
      8100   8100           300.10412     -1942.0821      12995.614      1.0772872     -75.582739      906.18257      830.59983    
      8200   8200           285.29372      1100.4849      13084.212      1.0699925     -19.301969      861.46168      842.15971    
      8300   8300           310.87797     -3132.0035      13127.943      1.0664282     -41.67835       938.71486      897.03651    
      8400   8400           311.91903     -162.0323       13072.395      1.0709597     -41.223539      941.85841      900.63487    
      8500   8500           308.49323     -55.685485      12984.686      1.0781938     -72.775435      931.514        858.73856    
      8600   8600           294.87888      3298.5773      12864.092      1.0883014     -46.070049      890.40464      844.33459    
      8700   8700           305.41155     -1746.4462      12797.198      1.0939901     -75.522452      922.20868      846.68623    
      8800   8800           300.61003     -1422.7045      12750.274      1.0980163     -88.355277      907.7102       819.35492    
      8900   8900           294.68442     -1076.5983      12701.617      1.1022225     -114.32557      889.81746      775.49189    
      9000   9000           291.10443     -1196.8701      12726.196      1.1000937     -107.61433      879.00747      771.39313    
      9100   9100           302.43703      788.1423       12769.842      1.0963337     -65.424053      913.22693      847.80287    
      9200   9200           313.08119      483.93779      12818.68       1.0921568     -78.615623      945.36763      866.75201    
      9300   9300           287.83372      624.26247      12850.874      1.0894207     -27.770656      869.13136      841.3607     
      9400   9400           297.50984     -156.05191      12905.063      1.0848462     -73.901657      898.34899      824.44733    
      9500   9500           295.0186       1669.0299      12910.696      1.0843729     -66.646412      890.82654      824.18013    
      9600   9600           304.9315      -1414.6564      12860.107      1.0886385     -73.493032      920.75914      847.26611    
      9700   9700           302.71652     -2352.9451      12734.421      1.0993832     -36.962595      914.07087      877.10828    
      9800   9800           303.93182      274.61763      12655.78       1.1062146     -42.695245      917.74054      875.04529    
      9900   9900           287.56684     -1086.078       12685.432      1.1036288     -52.783049      868.32548      815.54243    
     10000   10000          285.58272     -1545.3427      12771.84       1.0961622     -63.800024      862.33431      798.53429    
     10100   10100          296.11629     -569.91151      12859.76       1.0886679     -63.743525      894.14108      830.39755    
     10200   10200          296.22678      891.77589      12910.812      1.0843632     -35.621354      894.47472      858.85337    
     10300   10300          305.60707     -817.92064      12918.498      1.083718      -57.577957      922.79908      865.22112    
     10400   10400          303.56744     -1065.6199      12842.251      1.0901522     -66.257382      916.64026      850.38288    
     10431   10431          301.44158      443.64445      12797.63       1.0939532     -67.340425      910.2211       842.88067    
Loop time of 74.0986 on 1 procs for 5000 steps with 1014 atoms

Performance: 5.830 ns/day, 4.117 hours/ns, 67.478 timesteps/s, 68.422 katom-step/s
87.6% CPU use with 1 MPI tasks x no OpenMP threads

MPI task timing breakdown:
Section |  min time  |  avg time  |  max time  |%varavg| %total
---------------------------------------------------------------
Pair    | 64.1       | 64.1       | 64.1       |   0.0 | 86.51
Bond    | 2.7507     | 2.7507     | 2.7507     |   0.0 |  3.71
Kspace  | 2.9308     | 2.9308     | 2.9308     |   0.0 |  3.96
Neigh   | 2.8915     | 2.8915     | 2.8915     |   0.0 |  3.90
Comm    | 0.34936    | 0.34936    | 0.34936    |   0.0 |  0.47
Output  | 0.0030061  | 0.0030061  | 0.0030061  |   0.0 |  0.00
Modify  | 0.95768    | 0.95768    | 0.95768    |   0.0 |  1.29
Other   |            | 0.1158     |            |       |  0.16

Nlocal:           1014 ave        1014 max        1014 min
Histogram: 1 0 0 0 0 0 0 0 0 0
Nghost:           9687 ave        9687 max        9687 min
Histogram: 1 0 0 0 0 0 0 0 0 0
Neighs:         461171 ave      461171 max      461171 min
Histogram: 1 0 0 0 0 0 0 0 0 0

Total # of neighbors = 461171
Ave neighs/atom = 454.80375
Ave special neighs/atom = 6.7613412
Neighbor list builds = 120
Dangerous builds = 0
unfix           NPT_TRACE
unfix           NPT_EQ
write_restart   ${output_restart}
write_restart   ec_dmc_3_7_liclo4_1m_298K.npt.2.restart
System init for write_restart ...
PPPM initialization ...
  using 12-bit tables for long-range coulomb
  G vector (1/distance) = 0.21170156
  grid = 9 9 9
  stencil order = 5
  estimated absolute RMS force accuracy = 0.016710099
  estimated relative force accuracy = 5.0321966e-05
  using double precision FFTW3
  3d grid and FFT values/proc = 2744 729
Generated 28 of 28 mixed pair_coeff terms from arithmetic mixing rule
Total wall time: 0:01:14
