LAMMPS (22 Jul 2025 - Update 4)
# Restart continuation NPT chunk for composition tag=ec_dmc_3_7_liclo4_1m_298K
# Generated by scripts/curate_ff_md_data.py

read_restart    ${input_restart}
read_restart    ec_dmc_3_7_liclo4_1m_298K.npt.4.restart
Reading restart file ...
  restart file = 22 Jul 2025, LAMMPS = 22 Jul 2025
  restoring atom style full from restart
  orthogonal box = (-0.25542684 -0.22442684 -0.24442684) to (22.781519 22.812519 22.792519)
  1 by 1 by 1 MPI processor grid
  restoring pair style lj/cut/coul/long from restart
  restoring bond style harmonic from restart
  restoring angle style harmonic from restart
  restoring dihedral style opls from restart
  restoring improper style cvff from restart
  1014 atoms
  944 bonds
  1504 angles
  1452 dihedrals
  258 impropers
Finding 1-2 1-3 1-4 neighbors ...
  special bond factors lj:    0        0        0.5     
  special bond factors coul:  0        0        0.5     
     4 = max # of 1-2 neighbors
     5 = max # of 1-3 neighbors
     9 = max # of 1-4 neighbors
    11 = max # of special neighbors
  special bonds CPU = 0.001 seconds
  read_restart CPU = 0.006 seconds
kspace_style    pppm 1.0e-4
neighbor        2.0 bin
neigh_modify    every 1 delay 0 check yes
timestep        1.0

thermo_style    custom step time temp press vol density pe ke etotal
thermo          100
variable        tracked_temperature_K equal temp
variable        tracked_density_g_cm3 equal density
variable        tracked_volume_A3 equal vol
variable        tracked_pressure_atm equal press
fix             NPT_EQ all npt temp 298.15 298.15 100.0 iso 1.0 1.0 1000.0
fix             NPT_TRACE all ave/time 100 1 100 v_tracked_temperature_K v_tracked_density_g_cm3 v_tracked_volume_A3 v_tracked_pressure_atm file ${thermo_trace}
fix             NPT_TRACE all ave/time 100 1 100 v_tracked_temperature_K v_tracked_density_g_cm3 v_tracked_volume_A3 v_tracked_pressure_atm file npt_thermo.5.dat
run             5000
PPPM initialization ...
  using 12-bit tables for long-range coulomb
  G vector (1/distance) = 0.21281097
  grid = 9 9 9
  stencil order = 5
  estimated absolute RMS force accuracy = 0.015975008
  estimated relative force accuracy = 4.8108263e-05
  using double precision FFTW3
  3d grid and FFT values/proc = 2744 729
Generated 28 of 28 mixed pair_coeff terms from arithmetic mixing rule
Neighbor list info ...
  update: every = 1 steps, delay = 0 steps, check = yes
  max neighbors/atom: 2000, page size: 100000
  master list distance cutoff = 14
  ghost atom cutoff = 14
  binsize = 7, bins = 4 4 4
  1 neighbor lists, perpetual/occasional/extra = 1 0 0
  (1) pair lj/cut/coul/long, perpetual
      attributes: half, newton on
      pair build: half/bin/newton
      stencil: half/bin/3d
      bin: standard
Per MPI rank memory allocation (min/avg/max) = 14.9 | 14.9 | 14.9 Mbytes
   Step          Time           Temp          Press          Volume        Density         PotEng         KinEng         TotEng    
     20431   20431          297.36144      2294.2229      12225.727      1.1451269     -124.52832      897.90087      773.37255    
     20500   20500          299.9106      -822.64705      12211.225      1.1464868     -132.25535      905.59823      773.34288    
     20600   20600          293.73519     -2109.2957      12157.648      1.1515392     -139.77383      886.9512       747.17737    
     20700   20700          287.52809      726.44726      12132.81       1.1538966     -166.26014      868.2085       701.94835    
     20800   20800          295.02861      634.17781      12127.125      1.1544375     -180.2515       890.85677      710.60527    
     20900   20900          310.97486      404.84325      12080.609      1.1588826     -164.17043      939.00743      774.837      
     21000   21000          310.06783      694.51129      12009.421      1.1657522     -160.04529      936.26861      776.22332    
     21100   21100          302.36936      2233.431       12024.343      1.1643055     -161.46575      913.02261      751.55687    
     21200   21200          299.45071     -1041.5139      12161.647      1.1511605     -181.77024      904.20955      722.43931    
     21300   21300          274.88148      1069.5592      12261.893      1.1417494     -117.06508      830.02128      712.9562     
     21400   21400          301.17019      2138.1354      12280.061      1.1400602     -125.79281      909.40164      783.60883    
     21500   21500          297.44143      2500.7029      12207.688      1.146819      -94.148837      898.14242      803.99359    
     21600   21600          303.78097      1110.5548      12163.686      1.1509676     -116.25379      917.28504      801.03126    
     21700   21700          287.49429      2358.0168      12152.4        1.1520365     -106.13153      868.10642      761.97489    
     21800   21800          287.03644      292.81203      12186.063      1.1488541     -132.24284      866.72392      734.48108    
     21900   21900          289.78615     -27.650571      12220.258      1.1456393     -129.23865      875.02683      745.78819    
     22000   22000          307.12492      60.780626      12282.347      1.1398479     -109.89219      927.3823       817.49011    
     22100   22100          308.31614     -342.28675      12279.526      1.1401098     -124.84327      930.97926      806.13599    
     22200   22200          291.88058     -3244.6845      12219.827      1.1456798     -111.50249      881.35108      769.84859    
     22300   22300          291.94754      163.85788      12089.714      1.1580099     -138.50063      881.55328      743.05265    
     22400   22400          304.3907      -968.68555      11987.878      1.1678471     -175.99027      919.12615      743.13589    
     22500   22500          300.89161     -77.185035      11925.673      1.1739387     -158.21451      908.56045      750.34594    
     22600   22600          303.69254     -1199.7227      11903.03       1.1761718     -132.58304      917.01802      784.43499    
     22700   22700          301.37423      406.71195      11876.759      1.1787734     -123.7945       910.01774      786.22324    
     22800   22800          294.90651      1039.4371      11907.878      1.175693      -151.16851      890.48809      739.31958    
     22900   22900          302.81174      220.00641      11998.056      1.1668564     -195.23434      914.35839      719.12406    
     23000   23000          298.97105     -1075.6181      12025.724      1.1641717     -167.58929      902.7612       735.17191    
     23100   23100          302.23915     -320.54172      11989.36       1.1677027     -128.77908      912.62941      783.85033    
     23200   23200          323.23359      504.92277      11931.416      1.1733735     -151.40677      976.02342      824.61665    
     23300   23300          315.58689      809.94527      11949.341      1.1716135     -149.94117      952.93372      802.99255    
     23400   23400          290.97976      598.35005      12052.348      1.1616001     -106.72524      878.631        771.90575    
     23500   23500          308.19939      1671.0804      12192.993      1.1482012     -188.31493      930.62672      742.3118     
     23600   23600          284.08314      1436.8571      12285.581      1.1395479     -129.79341      857.80625      728.01284    
     23700   23700          292.08409      468.82836      12273.443      1.1406749     -127.97352      881.96562      753.9921     
     23800   23800          292.15246     -520.20205      12196.924      1.1478311     -67.529105      882.17206      814.64295    
     23900   23900          315.54648      2061.3838      12074.842      1.1594362     -151.7743       952.81172      801.03742    
     24000   24000          303.49914      2655.5038      11990.928      1.16755       -162.58218      916.43402      753.85185    
     24100   24100          293.47934      2006.0114      11996.771      1.1669814     -154.53542      886.17866      731.64323    
     24200   24200          297.11022      2024.4864      12040.926      1.162702      -163.90835      897.1423       733.23395    
     24300   24300          289.41634     -2106.6975      12104.282      1.1566162     -123.90492      873.91018      750.00527    
     24400   24400          306.51659     -3627.3085      12147.171      1.1525324     -116.0557       925.54541      809.48971    
     24500   24500          309.97865     -1195.093       12118.193      1.1552885     -131.87458      935.99931      804.12473    
     24600   24600          297.18882      3085.3024      12053.555      1.1614838     -139.20632      897.37964      758.17332    
     24700   24700          287.51461     -126.59737      12051.468      1.1616849     -122.47868      868.16778      745.6891     
     24800   24800          295.58417      2398.9057      12089.852      1.1579967     -162.25815      892.53432      730.27617    
     24900   24900          293.03185      739.40817      12198.139      1.1477167     -148.18812      884.82742      736.6393     
     25000   25000          305.65917     -572.43251      12335.04       1.1349788     -126.1286       922.95637      796.82777    
     25100   25100          309.24601     -1994.2688      12414.785      1.1276884     -111.45228      933.78705      822.33477    
     25200   25200          308.96632     -1792.3855      12406.576      1.1284345     -118.12828      932.94251      814.81423    
     25300   25300          295.33737     -2114.5871      12302.113      1.1380166     -127.62422      891.78908      764.16486    
     25400   25400          291.91793     -723.20043      12183.69       1.1490779     -152.91141      881.46389      728.55248    
     25431   25431          284.68726      2360.796       12148.048      1.1524492     -130.35187      859.63042      729.27856    
Loop time of 70.6311 on 1 procs for 5000 steps with 1014 atoms

Performance: 6.116 ns/day, 3.924 hours/ns, 70.790 timesteps/s, 71.781 katom-step/s
92.3% CPU use with 1 MPI tasks x no OpenMP threads

MPI task timing breakdown:
Section |  min time  |  avg time  |  max time  |%varavg| %total
---------------------------------------------------------------
Pair    | 61.828     | 61.828     | 61.828     |   0.0 | 87.54
Bond    | 2.4597     | 2.4597     | 2.4597     |   0.0 |  3.48
Kspace  | 2.5315     | 2.5315     | 2.5315     |   0.0 |  3.58
Neigh   | 2.5052     | 2.5052     | 2.5052     |   0.0 |  3.55
Comm    | 0.31493    | 0.31493    | 0.31493    |   0.0 |  0.45
Output  | 0.002375   | 0.002375   | 0.002375   |   0.0 |  0.00
Modify  | 0.88504    | 0.88504    | 0.88504    |   0.0 |  1.25
Other   |            | 0.1043     |            |       |  0.15

Nlocal:           1014 ave        1014 max        1014 min
Histogram: 1 0 0 0 0 0 0 0 0 0
Nghost:          10064 ave       10064 max       10064 min
Histogram: 1 0 0 0 0 0 0 0 0 0
Neighs:         485636 ave      485636 max      485636 min
Histogram: 1 0 0 0 0 0 0 0 0 0

Total # of neighbors = 485636
Ave neighs/atom = 478.93097
Ave special neighs/atom = 6.7613412
Neighbor list builds = 109
Dangerous builds = 0
unfix           NPT_TRACE
unfix           NPT_EQ
write_restart   ${output_restart}
write_restart   ec_dmc_3_7_liclo4_1m_298K.npt.5.restart
System init for write_restart ...
PPPM initialization ...
  using 12-bit tables for long-range coulomb
  G vector (1/distance) = 0.21296529
  grid = 9 9 9
  stencil order = 5
  estimated absolute RMS force accuracy = 0.015875003
  estimated relative force accuracy = 4.7807101e-05
  using double precision FFTW3
  3d grid and FFT values/proc = 2744 729
Generated 28 of 28 mixed pair_coeff terms from arithmetic mixing rule
Total wall time: 0:01:10
