LAMMPS (22 Jul 2025 - Update 4)
# Restart continuation NPT chunk for composition tag=ec_dmc_3_7_liclo4_1m_298K
# Generated by scripts/curate_ff_md_data.py

read_restart    ${input_restart}
read_restart    ec_dmc_3_7_liclo4_1m_298K.npt.5.restart
Reading restart file ...
  restart file = 22 Jul 2025, LAMMPS = 22 Jul 2025
  restoring atom style full from restart
  orthogonal box = (-0.23098002 -0.19998002 -0.21998002) to (22.757072 22.788072 22.768072)
  1 by 1 by 1 MPI processor grid
  restoring pair style lj/cut/coul/long from restart
  restoring bond style harmonic from restart
  restoring angle style harmonic from restart
  restoring dihedral style opls from restart
  restoring improper style cvff from restart
  1014 atoms
  944 bonds
  1504 angles
  1452 dihedrals
  258 impropers
Finding 1-2 1-3 1-4 neighbors ...
  special bond factors lj:    0        0        0.5     
  special bond factors coul:  0        0        0.5     
     4 = max # of 1-2 neighbors
     5 = max # of 1-3 neighbors
     9 = max # of 1-4 neighbors
    11 = max # of special neighbors
  special bonds CPU = 0.001 seconds
  read_restart CPU = 0.005 seconds
kspace_style    pppm 1.0e-4
neighbor        2.0 bin
neigh_modify    every 1 delay 0 check yes
timestep        1.0

thermo_style    custom step time temp press vol density pe ke etotal
thermo          100
variable        tracked_temperature_K equal temp
variable        tracked_density_g_cm3 equal density
variable        tracked_volume_A3 equal vol
variable        tracked_pressure_atm equal press
fix             NPT_EQ all npt temp 298.15 298.15 100.0 iso 1.0 1.0 1000.0
fix             NPT_TRACE all ave/time 100 1 100 v_tracked_temperature_K v_tracked_density_g_cm3 v_tracked_volume_A3 v_tracked_pressure_atm file ${thermo_trace}
fix             NPT_TRACE all ave/time 100 1 100 v_tracked_temperature_K v_tracked_density_g_cm3 v_tracked_volume_A3 v_tracked_pressure_atm file npt_thermo.6.dat
run             5000
PPPM initialization ...
  using 12-bit tables for long-range coulomb
  G vector (1/distance) = 0.21296529
  grid = 9 9 9
  stencil order = 5
  estimated absolute RMS force accuracy = 0.015875003
  estimated relative force accuracy = 4.7807101e-05
  using double precision FFTW3
  3d grid and FFT values/proc = 2744 729
Generated 28 of 28 mixed pair_coeff terms from arithmetic mixing rule
Neighbor list info ...
  update: every = 1 steps, delay = 0 steps, check = yes
  max neighbors/atom: 2000, page size: 100000
  master list distance cutoff = 14
  ghost atom cutoff = 14
  binsize = 7, bins = 4 4 4
  1 neighbor lists, perpetual/occasional/extra = 1 0 0
  (1) pair lj/cut/coul/long, perpetual
      attributes: half, newton on
      pair build: half/bin/newton
      stencil: half/bin/3d
      bin: standard
Per MPI rank memory allocation (min/avg/max) = 14.9 | 14.9 | 14.9 Mbytes
   Step          Time           Temp          Press          Volume        Density         PotEng         KinEng         TotEng    
     25431   25431          284.68726      2360.8389      12148.048      1.1524492     -130.35006      859.63042      729.28036    
     25500   25500          287.45778      593.6969       12158.782      1.1514318     -126.13323      867.99617      741.86294    
     25600   25600          296.77556     -74.648892      12152.884      1.1519906     -116.89857      896.13179      779.23323    
     25700   25700          306.7928      -261.09691      12158.782      1.1514318     -100.43491      926.37944      825.94453    
     25800   25800          306.97734      897.73524      12198.501      1.1476827     -84.755309      926.93667      842.18136    
     25900   25900          301.11936     -266.40048      12266.823      1.1412905     -112.58078      909.24815      796.66737    
     26000   26000          292.6795      -730.10344      12304.459      1.1377996     -134.28785      883.76347      749.47562    
     26100   26100          295.65281     -1050.7503      12296.402      1.1385451     -150.02516      892.74157      742.7164     
     26200   26200          306.32576     -1185.3519      12244.681      1.1433542     -147.77068      924.9692       777.19851    
     26300   26300          300.89362     -1110.0218      12161.797      1.1511464     -108.53364      908.56651      800.03287    
     26400   26400          294.40124     -1234.1252      12090.274      1.1579562     -127.28095      888.96237      761.68141    
     26500   26500          294.20129     -421.67403      12007.722      1.1659171     -178.69467      888.3586       709.66393    
     26600   26600          288.96709     -286.9214       11972.008      1.1693951     -139.55343      872.55363      733.0002     
     26700   26700          306.39478      241.96929      11971.989      1.169397      -146.95594      925.17759      778.22165    
     26800   26800          295.0082       3404.6388      11984.754      1.1681515     -114.46212      890.79514      776.33302    
     26900   26900          300.5533       1338.3819      12022.224      1.1645106     -148.87089      907.53888      758.66799    
     27000   27000          293.3043      -1532.2497      12024.742      1.1642668     -183.31967      885.65011      702.33045    
     27100   27100          285.58721      391.99435      11989.432      1.1676957     -180.14269      862.34788      682.20519    
     27200   27200          300.86668     -1474.6527      11982.769      1.168345      -195.43391      908.48516      713.05126    
     27300   27300          308.50845      235.77841      11990.072      1.1676334     -196.76211      931.55995      734.79784    
     27400   27400          304.70678     -1145.9488      12020.216      1.1647053     -161.92652      920.08059      758.15407    
     27500   27500          294.34366      1106.2694      12067.856      1.1601073     -113.71293      888.78851      775.07558    
     27600   27600          307.79126     -2371.3246      12213.8        1.1462451     -114.08547      929.39435      815.30888    
     27700   27700          297.87509      749.62901      12332.206      1.1352396     -49.23085       899.45187      850.22102    
     27800   27800          301.5162      -2240.7526      12385.509      1.1303539     -86.709322      910.44642      823.7371     
     27900   27900          299.92682     -457.72475      12284.665      1.1396329     -140.41167      905.6472       765.23554    
     28000   28000          293.35127     -326.96235      12099.745      1.1570499     -121.67292      885.79193      764.11901    
     28100   28100          313.42899      2309.9557      11911.726      1.1753131     -183.5443       946.41782      762.87352    
     28200   28200          293.71512      1700.9377      11816.058      1.184829      -161.03245      886.89061      725.85816    
     28300   28300          294.85264      4063.5599      11830.999      1.1833328     -212.6214       890.32541      677.70401    
     28400   28400          293.20421      878.30713      11924.708      1.1740337     -193.18873      885.34787      692.15913    
     28500   28500          296.35754     -1643.9711      11972.617      1.1693357     -171.15223      894.86955      723.71732    
     28600   28600          301.88204      2049.2364      11938.726      1.1726551     -165.51217      911.55112      746.03895    
     28700   28700          299.83128      3170.4061      11903.473      1.1761281     -149.54689      905.35871      755.81182    
     28800   28800          301.86359      1333.5758      11923.555      1.1741472     -171.83154      911.4954       739.66385    
     28900   28900          287.57959     -338.00853      11932.179      1.1732985     -182.46028      868.36398      685.9037     
     29000   29000          286.10829      555.2838       11906.132      1.1758654     -197.17936      863.9213       666.74195    
     29100   29100          309.54434      373.99604      11844.254      1.1820085     -201.88052      934.6879       732.80738    
     29200   29200          307.19854      1307.8449      11844.293      1.1820045     -171.90618      927.60461      755.69843    
     29300   29300          311.85531     -1330.9745      11945.939      1.171947      -190.55282      941.66599      751.11317    
     29400   29400          291.11209     -1894.9301      12030.874      1.1636734     -158.04229      879.03058      720.98829    
     29500   29500          279.75249     -504.55187      12022.632      1.1644712     -130.79729      844.72959      713.9323     
     29600   29600          302.2398      -319.71329      11969.397      1.1696502     -145.78758      912.63138      766.8438     
     29700   29700          310.36417      381.06839      11878.653      1.1785856     -149.01206      937.16341      788.15135    
     29800   29800          305.30722      809.31647      11808.943      1.1855429     -147.71633      921.89364      774.17731    
     29900   29900          295.58042     -923.57719      11829.777      1.183455      -148.69262      892.52297      743.83035    
     30000   30000          283.373       -1333.9709      11876.35       1.1788141     -144.97269      855.66194      710.68925    
     30100   30100          294.9789      -739.93849      11976.199      1.1689859     -172.88106      890.70666      717.8256     
     30200   30200          294.40032     -2128.5725      12069.794      1.159921      -141.39942      888.95961      747.56019    
     30300   30300          299.10243     -1345.3211      12104.882      1.1565589     -135.33036      903.15791      767.82754    
     30400   30400          298.21738      261.43948      12075.409      1.1593817     -123.7849       900.48546      776.70055    
     30431   30431          297.58135      758.62078      12066.124      1.1602738     -121.8512       898.5649       776.7137     
Loop time of 65.8265 on 1 procs for 5000 steps with 1014 atoms

Performance: 6.563 ns/day, 3.657 hours/ns, 75.957 timesteps/s, 77.021 katom-step/s
93.3% CPU use with 1 MPI tasks x no OpenMP threads

MPI task timing breakdown:
Section |  min time  |  avg time  |  max time  |%varavg| %total
---------------------------------------------------------------
Pair    | 57.71      | 57.71      | 57.71      |   0.0 | 87.67
Bond    | 2.3214     | 2.3214     | 2.3214     |   0.0 |  3.53
Kspace  | 2.3935     | 2.3935     | 2.3935     |   0.0 |  3.64
Neigh   | 2.2026     | 2.2026     | 2.2026     |   0.0 |  3.35
Comm    | 0.30742    | 0.30742    | 0.30742    |   0.0 |  0.47
Output  | 0.0028127  | 0.0028127  | 0.0028127  |   0.0 |  0.00
Modify  | 0.79591    | 0.79591    | 0.79591    |   0.0 |  1.21
Other   |            | 0.09334    |            |       |  0.14

Nlocal:           1014 ave        1014 max        1014 min
Histogram: 1 0 0 0 0 0 0 0 0 0
Nghost:           9930 ave        9930 max        9930 min
Histogram: 1 0 0 0 0 0 0 0 0 0
Neighs:         488805 ave      488805 max      488805 min
Histogram: 1 0 0 0 0 0 0 0 0 0

Total # of neighbors = 488805
Ave neighs/atom = 482.05621
Ave special neighs/atom = 6.7613412
Neighbor list builds = 104
Dangerous builds = 0
unfix           NPT_TRACE
unfix           NPT_EQ
write_restart   ${output_restart}
write_restart   ec_dmc_3_7_liclo4_1m_298K.npt.6.restart
System init for write_restart ...
PPPM initialization ...
  using 12-bit tables for long-range coulomb
  G vector (1/distance) = 0.21312902
  grid = 9 9 9
  stencil order = 5
  estimated absolute RMS force accuracy = 0.015769492
  estimated relative force accuracy = 4.7489357e-05
  using double precision FFTW3
  3d grid and FFT values/proc = 2744 729
Generated 28 of 28 mixed pair_coeff terms from arithmetic mixing rule
Total wall time: 0:01:05
