LAMMPS (22 Jul 2025 - Update 4)
# Initial NPT chunk for composition tag=ec_dmc_3_7_liclo4_1m_298K
# Generated by scripts/curate_ff_md_data.py

units           real
boundary        p p p
atom_style      full
bond_style      harmonic
angle_style     harmonic
dihedral_style  opls
improper_style  cvff

pair_style      lj/cut/coul/long 12.0 12.0
pair_modify     mix arithmetic
special_bonds   lj/coul 0.0 0.0 0.5

read_data       ec_dmc_3_7_liclo4_1m_298K.lmp
Reading data file ...
  triclinic box = (-0.075000003 -0.044 -0.064000003) to (22.601092 22.632092 22.612092) with tilt (0 0 0)
  1 by 2 by 2 MPI processor grid
  reading atoms ...
  1014 atoms
  scanning bonds ...
  4 = max bonds/atom
  scanning angles ...
  6 = max angles/atom
  scanning dihedrals ...
  10 = max dihedrals/atom
  scanning impropers ...
  1 = max impropers/atom
  triclinic box = (-0.075000003 -0.044 -0.064000003) to (22.601092 22.632092 22.612092) with tilt (0 0 0)
  1 by 2 by 2 MPI processor grid
  reading bonds ...
  944 bonds
  reading angles ...
  1504 angles
  reading dihedrals ...
  1452 dihedrals
  reading impropers ...
  258 impropers
Finding 1-2 1-3 1-4 neighbors ...
  special bond factors lj:    0        0        0.5     
  special bond factors coul:  0        0        0.5     
     4 = max # of 1-2 neighbors
     5 = max # of 1-3 neighbors
     9 = max # of 1-4 neighbors
    11 = max # of special neighbors
  special bonds CPU = 0.001 seconds
  read_data CPU = 0.037 seconds

# openff-interchange writes the box as triclinic with zero tilt; PPPM stalls
# indefinitely in triclinic mode on this brew LAMMPS build, but works fine
# after change_box all ortho converts the zero-tilt box to orthogonal.
change_box      all ortho
Changing box ...
  orthogonal box = (-0.075000003 -0.044 -0.064000003) to (22.601092 22.632092 22.612092)
kspace_style    pppm 1.0e-4

min_style       cg
minimize        1.0e-4 1.0e-6 10000 100000
PPPM initialization ...
  using 12-bit tables for long-range coulomb
  G vector (1/distance) = 0.2053055
  grid = 8 8 8
  stencil order = 5
  estimated absolute RMS force accuracy = 0.025704958
  estimated relative force accuracy = 7.7409719e-05
  using double precision FFTW3
  3d grid and FFT values/proc = 1053 128
Generated 28 of 28 mixed pair_coeff terms from arithmetic mixing rule
Neighbor list info ...
  update: every = 1 steps, delay = 0 steps, check = yes
  max neighbors/atom: 2000, page size: 100000
  master list distance cutoff = 14
  ghost atom cutoff = 14
  binsize = 7, bins = 4 4 4
  1 neighbor lists, perpetual/occasional/extra = 1 0 0
  (1) pair lj/cut/coul/long, perpetual
      attributes: half, newton on
      pair build: half/bin/newton
      stencil: half/bin/3d
      bin: standard
Per MPI rank memory allocation (min/avg/max) = 14.1 | 14.38 | 14.48 Mbytes
   Step          Temp          E_pair         E_mol          TotEng         Press     
         0   0              4080.6936      20393.221      24473.915      138637.76    
       396   0             -3625.204       3147.3501     -477.85386      5708.1063    
Loop time of 3.75525 on 4 procs for 396 steps with 1014 atoms

95.9% CPU use with 4 MPI tasks x no OpenMP threads

Minimization stats:
  Stopping criterion = energy tolerance
  Energy initial, next-to-last, final = 
      24473.9146539013   -477.82480921458   -477.85385677057
  Force two-norm initial, final = 7419.9526 107.75356
  Force max component initial, final = 1352.5546 30.778076
  Final line search alpha, max atom move = 0.00078574912 0.024183846
  Iterations, force evaluations = 396 795

MPI task timing breakdown:
Section |  min time  |  avg time  |  max time  |%varavg| %total
---------------------------------------------------------------
Pair    | 2.2913     | 2.5381     | 2.706      |   9.6 | 67.59
Bond    | 0.059745   | 0.071886   | 0.078456   |   2.7 |  1.91
Kspace  | 0.81313    | 0.98612    | 1.2447     |  16.1 | 26.26
Neigh   | 0.039649   | 0.039749   | 0.039856   |   0.0 |  1.06
Comm    | 0.096708   | 0.097617   | 0.098854   |   0.3 |  2.60
Output  | 0          | 0          | 0          |   0.0 |  0.00
Modify  | 0          | 0          | 0          |   0.0 |  0.00
Other   |            | 0.0218     |            |       |  0.58

Nlocal:          253.5 ave         263 max         240 min
Histogram: 1 0 0 0 0 1 0 1 0 1
Nghost:        6482.75 ave        6542 max        6430 min
Histogram: 1 0 1 0 0 0 1 0 0 1
Neighs:         126508 ave      132791 max      119467 min
Histogram: 1 0 0 1 0 0 0 1 0 1

Total # of neighbors = 506030
Ave neighs/atom = 499.04339
Ave special neighs/atom = 6.7613412
Neighbor list builds = 10
Dangerous builds = 0
velocity        all create 298.15 130367 dist gaussian
neighbor        2.0 bin
neigh_modify    every 1 delay 0 check yes
timestep        1.0

thermo_style    custom step time temp press vol density pe ke etotal
thermo          100
variable        tracked_temperature_K equal temp
variable        tracked_density_g_cm3 equal density
variable        tracked_volume_A3 equal vol
variable        tracked_pressure_atm equal press
fix             NPT_EQ all npt temp 298.15 298.15 100.0 iso 1.0 1.0 1000.0
fix             NPT_TRACE all ave/time 100 1 100 v_tracked_temperature_K v_tracked_density_g_cm3 v_tracked_volume_A3 v_tracked_pressure_atm file ${thermo_trace}
fix             NPT_TRACE all ave/time 100 1 100 v_tracked_temperature_K v_tracked_density_g_cm3 v_tracked_volume_A3 v_tracked_pressure_atm file npt_thermo.1.dat
run             5000
PPPM initialization ...
  using 12-bit tables for long-range coulomb
  G vector (1/distance) = 0.2053055
  grid = 8 8 8
  stencil order = 5
  estimated absolute RMS force accuracy = 0.025704958
  estimated relative force accuracy = 7.7409719e-05
  using double precision FFTW3
  3d grid and FFT values/proc = 1053 128
Generated 28 of 28 mixed pair_coeff terms from arithmetic mixing rule
Per MPI rank memory allocation (min/avg/max) = 13.35 | 13.35 | 13.36 Mbytes
   Step          Time           Temp          Press          Volume        Density         PotEng         KinEng         TotEng    
       396   396            298.15         9237.5544      11660.163      1.2006701     -477.85386      900.28199      422.42813    
       400   400            172.55356      6567.4513      11660.846      1.2005997     -81.950365      521.03593      439.08556    
       500   500            184.26531      1349.667       12016.538      1.1650617     -53.199536      556.40027      503.20074    
       600   600            246.26959     -605.69464      12612.652      1.1099972     -115.3335       743.62594      628.29244    
       700   700            286.43173     -497.44838      12988.709      1.0778599     -84.207394      864.89796      780.69056    
       800   800            295.96377     -3886.609       13276.897      1.0544639      21.253643      893.68052      914.93417    
       900   900            317.26449     -2647.7493      13535.391      1.0343261      41.482462      957.99935      999.48181    
      1000   1000           317.31265     -5.7153685      13808.393      1.0138768      36.476631      958.14478      994.62141    
      1100   1100           285.37226     -1315.7746      14044.601      0.99682493     85.462128      861.69884      947.16097    
      1200   1200           281.17312     -1595.284       14129.572      0.9908303      65.333899      849.01926      914.35316    
      1300   1300           288.48642     -141.2898       14079.248      0.99437186     59.724531      871.10221      930.82674    
      1400   1400           298.96764      242.81271      13982.963      1.001219       64.859896      902.7509       967.61079    
      1500   1500           289.16988      188.31431      13954.3        1.0032756      97.635392      873.16599      970.80138    
      1600   1600           293.54278     -505.69826      14039.082      0.99721677     67.398793      886.3702       953.769      
      1700   1700           304.39645     -2829.5         14101.896      0.99277491     28.700451      919.14351      947.84396    
      1800   1800           296.86392     -996.94707      14098.694      0.99300035     52.347053      896.39859      948.74565    
      1900   1900           298.26654      2416.6368      14100.732      0.99285685     40.003175      900.6339       940.63707    
      2000   2000           299.70883      1015.2184      14190.838      0.98655259     64.791907      904.98898      969.78088    
      2100   2100           315.66043     -1632.4465      14200.482      0.98588265     48.41118       953.15579      1001.567     
      2200   2200           306.0927       434.10063      14106.43       0.99245578     56.047879      924.26544      980.31332    
      2300   2300           300.67148      460.71924      14068.322      0.99514415     54.43736       907.89575      962.33311    
      2400   2400           305.72079      140.4581       14107.185      0.9924027      36.762988      923.14246      959.90545    
      2500   2500           312.64435      943.37267      14131.998      0.99066023     27.364399      944.04855      971.41295    
      2600   2600           300.08745      2908.3947      14122.741      0.99130958     72.335473      906.13224      978.46772    
      2700   2700           306.08909      1569.8388      14135.202      0.99043571     83.617392      924.25456      1007.872     
      2800   2800           299.4157       167.65138      14109.217      0.99225974     123.28916      904.10385      1027.393     
      2900   2900           304.9732      -178.36004      14117.35       0.99168809     68.500757      920.88505      989.38581    
      3000   3000           297.78563      690.54516      14134.955      0.99045301     46.735173      899.18174      945.91691    
      3100   3100           291.81573     -481.89811      14142.09       0.98995326     64.718569      881.15526      945.87383    
      3200   3200           304.86406     -731.64268      14102.353      0.99274271     30.976264      920.5555       951.53176    
      3300   3300           295.35827      1040.2137      13974.358      1.0018355      44.004498      891.85218      935.85668    
      3400   3400           287.45371      1654.3016      13837.789      1.011723       17.505768      867.98389      885.48966    
      3500   3500           293.12358     -701.19388      13675.159      1.0237547     -1.551204       885.10441      883.5532     
      3600   3600           298.93606     -175.99232      13536.099      1.034272       31.181555      902.65555      933.83711    
      3700   3700           307.63034      160.94923      13492.558      1.0376097      22.424375      928.90845      951.33283    
      3800   3800           302.97071      589.61294      13480.058      1.0385718      13.552071      914.83842      928.39049    
      3900   3900           300.29452     -508.68986      13470.343      1.0393209     -3.6663667      906.75751      903.09114    
      4000   4000           298.40755     -45.413672      13494.214      1.0374823     -14.687119      901.05968      886.37256    
      4100   4100           305.7375       596.6306       13597.419      1.0296078     -16.070252      923.19291      907.12266    
      4200   4200           297.0972       1047.1908      13725.594      1.0199929      42.906459      897.10299      940.00945    
      4300   4300           308.85049      2315.0593      13854.155      1.0105278      65.048154      932.59278      997.64093    
      4400   4400           309.28287      184.40121      13980.119      1.0014227      43.921208      933.89835      977.81956    
      4500   4500           296.33343     -1436.7506      14000.251      0.99998269     24.307119      894.79675      919.10387    
      4600   4600           297.73402      1602.5254      13974.65       1.0018146      10.826521      899.0259       909.85242    
      4700   4700           291.67285      1793.7999      13959.471      1.0029039      43.545285      880.72385      924.26914    
      4800   4800           300.54928      557.81192      13935.06       1.0046608      40.110796      907.52674      947.63754    
      4900   4900           303.49032      1749.2654      13949.243      1.0036393      36.171028      916.40741      952.57843    
      5000   5000           291.27842      831.90373      14038.291      0.99727297     57.327457      879.53284      936.8603     
      5100   5100           285.0653       107.21934      14089.826      0.99362533     40.127519      860.77193      900.89945    
      5200   5200           291.18871     -417.23627      14070.233      0.99500896     34.3849        879.26195      913.64685    
      5300   5300           315.35836      688.98495      13994.761      1.0003749      8.9259527      952.24367      961.16962    
      5396   5396           313.33467     -328.27856      14002.701      0.9998077      3.3662968      946.13303      949.49932    
Loop time of 14.6647 on 4 procs for 5000 steps with 1014 atoms

Performance: 29.458 ns/day, 0.815 hours/ns, 340.955 timesteps/s, 345.728 katom-step/s
94.5% CPU use with 4 MPI tasks x no OpenMP threads

MPI task timing breakdown:
Section |  min time  |  avg time  |  max time  |%varavg| %total
---------------------------------------------------------------
Pair    | 7.7321     | 8.7344     | 9.2583     |  21.0 | 59.56
Bond    | 0.39641    | 0.43739    | 0.47227    |   4.4 |  2.98
Kspace  | 3.4861     | 4.0316     | 5.0499     |  31.0 | 27.49
Neigh   | 0.48508    | 0.48649    | 0.48802    |   0.2 |  3.32
Comm    | 0.60942    | 0.61725    | 0.62152    |   0.6 |  4.21
Output  | 0.0060017  | 0.0074569  | 0.0079772  |   1.0 |  0.05
Modify  | 0.2441     | 0.24615    | 0.24879    |   0.4 |  1.68
Other   |            | 0.104      |            |       |  0.71

Nlocal:          253.5 ave         277 max         241 min
Histogram: 1 2 0 0 0 0 0 0 0 1
Nghost:        5797.75 ave        5874 max        5725 min
Histogram: 2 0 0 0 0 0 0 0 1 1
Neighs:         105508 ave      112947 max       92432 min
Histogram: 1 0 0 0 0 0 0 1 1 1

Total # of neighbors = 422034
Ave neighs/atom = 416.2071
Ave special neighs/atom = 6.7613412
Neighbor list builds = 123
Dangerous builds = 0
unfix           NPT_TRACE
unfix           NPT_EQ
write_restart   ${output_restart}
write_restart   ec_dmc_3_7_liclo4_1m_298K.npt.1.restart
System init for write_restart ...
PPPM initialization ...
  using 12-bit tables for long-range coulomb
  G vector (1/distance) = 0.2095052
  grid = 9 9 9
  stencil order = 5
  estimated absolute RMS force accuracy = 0.018251875
  estimated relative force accuracy = 5.4964979e-05
  using double precision FFTW3
  3d grid and FFT values/proc = 1400 225
Generated 28 of 28 mixed pair_coeff terms from arithmetic mixing rule
Total wall time: 0:00:18
