LAMMPS (22 Jul 2025 - Update 4)
# Restart continuation NPT chunk for composition tag=ec_dmc_3_7_liclo4_1m_298K
# Generated by scripts/curate_ff_md_data.py

read_restart    ${input_restart}
read_restart    ec_dmc_3_7_liclo4_1m_298K.npt.3.restart
Reading restart file ...
  restart file = 22 Jul 2025, LAMMPS = 22 Jul 2025
  restoring atom style full from restart
  orthogonal box = (-0.28102727 -0.25002727 -0.27002727) to (22.807119 22.838119 22.818119)
  1 by 1 by 1 MPI processor grid
  restoring pair style lj/cut/coul/long from restart
  restoring bond style harmonic from restart
  restoring angle style harmonic from restart
  restoring dihedral style opls from restart
  restoring improper style cvff from restart
  1014 atoms
  944 bonds
  1504 angles
  1452 dihedrals
  258 impropers
Finding 1-2 1-3 1-4 neighbors ...
  special bond factors lj:    0        0        0.5     
  special bond factors coul:  0        0        0.5     
     4 = max # of 1-2 neighbors
     5 = max # of 1-3 neighbors
     9 = max # of 1-4 neighbors
    11 = max # of special neighbors
  special bonds CPU = 0.001 seconds
  read_restart CPU = 0.006 seconds
kspace_style    pppm 1.0e-4
neighbor        2.0 bin
neigh_modify    every 1 delay 0 check yes
timestep        1.0

thermo_style    custom step time temp press vol density pe ke etotal
thermo          100
variable        tracked_temperature_K equal temp
variable        tracked_density_g_cm3 equal density
variable        tracked_volume_A3 equal vol
variable        tracked_pressure_atm equal press
fix             NPT_EQ all npt temp 298.15 298.15 100.0 iso 1.0 1.0 1000.0
fix             NPT_TRACE all ave/time 100 1 100 v_tracked_temperature_K v_tracked_density_g_cm3 v_tracked_volume_A3 v_tracked_pressure_atm file ${thermo_trace}
fix             NPT_TRACE all ave/time 100 1 100 v_tracked_temperature_K v_tracked_density_g_cm3 v_tracked_volume_A3 v_tracked_pressure_atm file npt_thermo.4.dat
run             5000
PPPM initialization ...
  using 12-bit tables for long-range coulomb
  G vector (1/distance) = 0.21264962
  grid = 9 9 9
  stencil order = 5
  estimated absolute RMS force accuracy = 0.016080147
  estimated relative force accuracy = 4.8424885e-05
  using double precision FFTW3
  3d grid and FFT values/proc = 2744 729
Generated 28 of 28 mixed pair_coeff terms from arithmetic mixing rule
Neighbor list info ...
  update: every = 1 steps, delay = 0 steps, check = yes
  max neighbors/atom: 2000, page size: 100000
  master list distance cutoff = 14
  ghost atom cutoff = 14
  binsize = 7, bins = 4 4 4
  1 neighbor lists, perpetual/occasional/extra = 1 0 0
  (1) pair lj/cut/coul/long, perpetual
      attributes: half, newton on
      pair build: half/bin/newton
      stencil: half/bin/3d
      bin: standard
Per MPI rank memory allocation (min/avg/max) = 14.9 | 14.9 | 14.9 Mbytes
   Step          Time           Temp          Press          Volume        Density         PotEng         KinEng         TotEng    
     15431   15431          282.40623      1484.3497      12307.425      1.1375254     -132.01253      852.74273      720.7302     
     15500   15500          287.17425     -834.63063      12323.328      1.1360574     -135.87346      867.14006      731.2666     
     15600   15600          301.86643     -584.26057      12361.546      1.1325451     -123.64549      911.50397      787.85848    
     15700   15700          294.76144     -1691.6433      12355.785      1.1330732     -88.110928      890.05004      801.93911    
     15800   15800          305.48865     -1484.79        12367.353      1.1320133     -121.20669      922.4415       801.23481    
     15900   15900          294.70946     -1499.6459      12376.244      1.1312001     -108.64145      889.89306      781.25161    
     16000   16000          303.88661      200.40023      12427.473      1.126537      -182.28964      917.60402      735.31438    
     16100   16100          290.60919     -4898.5581      12488.847      1.1210009     -145.99527      877.51205      731.51678    
     16200   16200          300.52467     -1238.6525      12429.338      1.126368      -106.59737      907.45246      800.85509    
     16300   16300          299.02623     -1197.4692      12364.841      1.1322433     -90.640415      902.92783      812.28741    
     16400   16400          288.76125      3386.5706      12321.856      1.1361932     -81.719484      871.93209      790.2126     
     16500   16500          295.70643      3766.7779      12325.772      1.1358322     -132.14284      892.90349      760.76064    
     16600   16600          292.88362      769.96346      12350.446      1.133563      -143.8434       884.37984      740.53644    
     16700   16700          291.74914     -1184.8783      12310.256      1.1372638     -126.28268      880.9542       754.67152    
     16800   16800          307.15147     -3770.4777      12276.154      1.140423      -115.93295      927.46248      811.52953    
     16900   16900          298.18268      1465.3357      12294.118      1.1387566     -79.448535      900.38067      820.93214    
     17000   17000          290.82866      678.83906      12363.139      1.1323992     -86.182034      878.17476      791.99273    
     17100   17100          282.32467      240.50854      12417.5        1.1274417     -91.342247      852.49644      761.1542     
     17200   17200          289.61373     -997.24241      12409.747      1.1281462     -109.43303      874.5062       765.07317    
     17300   17300          302.18166     -1474.117       12369.471      1.1318195     -79.822045      912.45584      832.63379    
     17400   17400          311.0504      -1543.8433      12336.798      1.1348171     -100.1133       939.23553      839.12223    
     17500   17500          310.70023     -2323.4366      12326.941      1.1357244     -150.53347      938.17818      787.64471    
     17600   17600          292.34462     -1883.823       12275.995      1.1404377     -123.65708      882.75229      759.09521    
     17700   17700          303.40826     -649.88624      12211.021      1.146506      -153.17969      916.15961      762.97992    
     17800   17800          307.2757       162.47173      12176.377      1.149768      -134.2518       927.83761      793.5858     
     17900   17900          303.71252      1870.4299      12138.183      1.1533859     -69.734931      917.07835      847.34342    
     18000   18000          303.5743       2004.853       12205.516      1.1470231     -54.884676      916.66099      861.77632    
     18100   18100          300.35232     -2501.081       12361.651      1.1325355     -121.65182      906.93202      785.2802     
     18200   18200          295.38112     -4469.1046      12445.821      1.1248763     -130.3165       891.92119      761.6047     
     18300   18300          294.10849     -1578.2831      12410.41       1.1280859     -112.09459      888.07841      775.98382    
     18400   18400          307.63239      2953.3229      12308.023      1.1374702     -116.65526      928.91464      812.25938    
     18500   18500          309.52221      1307.372       12238.78       1.1439056     -108.73033      934.62107      825.89075    
     18600   18600          296.90473      52.403614      12207.725      1.1468155     -120.38112      896.52181      776.14069    
     18700   18700          286.85923      1007.3184      12190.73       1.1484143     -132.25276      866.18883      733.93607    
     18800   18800          289.61242      496.06366      12205          1.1470716     -134.41371      874.50226      740.08855    
     18900   18900          299.76813     -1523.8452      12240.528      1.1437422     -122.53022      905.16802      782.6378     
     19000   19000          305.85006     -1743.8585      12307.672      1.1375026     -120.17708      923.53277      803.35569    
     19100   19100          304.9277      -781.97908      12301.739      1.1380512     -117.26576      920.74766      803.48191    
     19200   19200          304.00986      251.05392      12269.476      1.1410437     -121.53119      917.97618      796.44499    
     19300   19300          301.95401     -1995.3328      12250.265      1.1428331     -119.95355      911.76842      791.81487    
     19400   19400          274.26854      347.66234      12226.791      1.1450273     -109.35079      828.17048      718.81969    
     19500   19500          286.7576      -1648.9937      12202.114      1.1473429     -146.78749      865.88195      719.09446    
     19600   19600          302.09755     -1504.7954      12195.758      1.1479409     -145.51994      912.20184      766.6819     
     19700   19700          300.44795      45.199777      12194.879      1.1480236     -111.99148      907.22078      795.2293     
     19800   19800          294.25218      1387.261       12175.582      1.1498431     -104.34876      888.51229      784.16353    
     19900   19900          288.65641     -2021.0775      12184.666      1.1489859     -137.33706      871.61551      734.27845    
     20000   20000          292.60038     -3390.6503      12129.883      1.1541751     -175.66719      883.52457      707.85739    
     20100   20100          290.50386      2446.9711      12066.938      1.1601956     -148.78477      877.19402      728.40925    
     20200   20200          297.74043     -1011.3522      12079.23       1.159015      -147.40446      899.04526      751.6408     
     20300   20300          306.79501      36.19667       12143.208      1.1529086     -160.64735      926.38611      765.73877    
     20400   20400          308.22812     -1326.7336      12213.596      1.1462643     -153.25391      930.71347      777.45957    
     20431   20431          297.36144      2294.2234      12225.727      1.1451269     -124.5281       897.90087      773.37277    
Loop time of 80.0722 on 1 procs for 5000 steps with 1014 atoms

Performance: 5.395 ns/day, 4.448 hours/ns, 62.444 timesteps/s, 63.318 katom-step/s
85.5% CPU use with 1 MPI tasks x no OpenMP threads

MPI task timing breakdown:
Section |  min time  |  avg time  |  max time  |%varavg| %total
---------------------------------------------------------------
Pair    | 69.606     | 69.606     | 69.606     |   0.0 | 86.93
Bond    | 2.8417     | 2.8417     | 2.8417     |   0.0 |  3.55
Kspace  | 3.0193     | 3.0193     | 3.0193     |   0.0 |  3.77
Neigh   | 2.996      | 2.996      | 2.996      |   0.0 |  3.74
Comm    | 0.37023    | 0.37023    | 0.37023    |   0.0 |  0.46
Output  | 0.0037318  | 0.0037318  | 0.0037318  |   0.0 |  0.00
Modify  | 1.1193     | 1.1193     | 1.1193     |   0.0 |  1.40
Other   |            | 0.1163     |            |       |  0.15

Nlocal:           1014 ave        1014 max        1014 min
Histogram: 1 0 0 0 0 0 0 0 0 0
Nghost:          10052 ave       10052 max       10052 min
Histogram: 1 0 0 0 0 0 0 0 0 0
Neighs:         483097 ave      483097 max      483097 min
Histogram: 1 0 0 0 0 0 0 0 0 0

Total # of neighbors = 483097
Ave neighs/atom = 476.42702
Ave special neighs/atom = 6.7613412
Neighbor list builds = 111
Dangerous builds = 0
unfix           NPT_TRACE
unfix           NPT_EQ
write_restart   ${output_restart}
write_restart   ec_dmc_3_7_liclo4_1m_298K.npt.4.restart
System init for write_restart ...
PPPM initialization ...
  using 12-bit tables for long-range coulomb
  G vector (1/distance) = 0.21281097
  grid = 9 9 9
  stencil order = 5
  estimated absolute RMS force accuracy = 0.015975008
  estimated relative force accuracy = 4.8108263e-05
  using double precision FFTW3
  3d grid and FFT values/proc = 2744 729
Generated 28 of 28 mixed pair_coeff terms from arithmetic mixing rule
Total wall time: 0:01:20
