LAMMPS (22 Jul 2025 - Update 4)
# Restart continuation NPT chunk for composition tag=ec_dmc_3_7_liclo4_1m_298K
# Generated by scripts/curate_ff_md_data.py

read_restart    ${input_restart}
read_restart    ec_dmc_3_7_liclo4_1m_298K.npt.2.restart
Reading restart file ...
  restart file = 22 Jul 2025, LAMMPS = 22 Jul 2025
  restoring atom style full from restart
  orthogonal box = (-0.43230323 -0.40130323 -0.42130323) to (22.958395 22.989395 22.969395)
  1 by 1 by 1 MPI processor grid
  restoring pair style lj/cut/coul/long from restart
  restoring bond style harmonic from restart
  restoring angle style harmonic from restart
  restoring dihedral style opls from restart
  restoring improper style cvff from restart
  1014 atoms
  944 bonds
  1504 angles
  1452 dihedrals
  258 impropers
Finding 1-2 1-3 1-4 neighbors ...
  special bond factors lj:    0        0        0.5     
  special bond factors coul:  0        0        0.5     
     4 = max # of 1-2 neighbors
     5 = max # of 1-3 neighbors
     9 = max # of 1-4 neighbors
    11 = max # of special neighbors
  special bonds CPU = 0.001 seconds
  read_restart CPU = 0.006 seconds
kspace_style    pppm 1.0e-4
neighbor        2.0 bin
neigh_modify    every 1 delay 0 check yes
timestep        1.0

thermo_style    custom step time temp press vol density pe ke etotal
thermo          100
variable        tracked_temperature_K equal temp
variable        tracked_density_g_cm3 equal density
variable        tracked_volume_A3 equal vol
variable        tracked_pressure_atm equal press
fix             NPT_EQ all npt temp 298.15 298.15 100.0 iso 1.0 1.0 1000.0
fix             NPT_TRACE all ave/time 100 1 100 v_tracked_temperature_K v_tracked_density_g_cm3 v_tracked_volume_A3 v_tracked_pressure_atm file ${thermo_trace}
fix             NPT_TRACE all ave/time 100 1 100 v_tracked_temperature_K v_tracked_density_g_cm3 v_tracked_volume_A3 v_tracked_pressure_atm file npt_thermo.3.dat
run             5000
PPPM initialization ...
  using 12-bit tables for long-range coulomb
  G vector (1/distance) = 0.21170156
  grid = 9 9 9
  stencil order = 5
  estimated absolute RMS force accuracy = 0.016710099
  estimated relative force accuracy = 5.0321966e-05
  using double precision FFTW3
  3d grid and FFT values/proc = 2744 729
Generated 28 of 28 mixed pair_coeff terms from arithmetic mixing rule
Neighbor list info ...
  update: every = 1 steps, delay = 0 steps, check = yes
  max neighbors/atom: 2000, page size: 100000
  master list distance cutoff = 14
  ghost atom cutoff = 14
  binsize = 7, bins = 4 4 4
  1 neighbor lists, perpetual/occasional/extra = 1 0 0
  (1) pair lj/cut/coul/long, perpetual
      attributes: half, newton on
      pair build: half/bin/newton
      stencil: half/bin/3d
      bin: standard
Per MPI rank memory allocation (min/avg/max) = 14.87 | 14.87 | 14.87 Mbytes
   Step          Time           Temp          Press          Volume        Density         PotEng         KinEng         TotEng    
     10431   10431          301.44158      444.23253      12797.63       1.0939532     -67.313686      910.2211       842.90741    
     10500   10500          296.61238      424.75969      12782.099      1.0952824     -59.564013      895.63904      836.07502    
     10600   10600          304.70316     -83.910387      12776.527      1.0957601     -92.209809      920.06966      827.85985    
     10700   10700          290.2964      -930.36427      12726.079      1.1001039     -77.38109       876.56758      799.18649    
     10800   10800          298.48206      2648.625       12623.184      1.1090711     -129.69757      901.28466      771.58709    
     10900   10900          295.16311      831.02592      12544.503      1.1160273     -110.26914      891.26288      780.99375    
     11000   11000          299.17907     -482.16517      12518.4        1.1183545     -65.406705      903.38934      837.98263    
     11100   11100          314.14112      323.13423      12576.115      1.1132221     -104.29631      948.56814      844.27184    
     11200   11200          294.72204      540.50346      12660.979      1.1057603     -70.927022      889.93104      819.00402    
     11300   11300          305.45336     -103.68368      12729.735      1.0997879     -114.42457      922.33492      807.91036    
     11400   11400          291.27689     -1681.2563      12747.384      1.0982652     -67.492509      879.5282       812.03569    
     11500   11500          290.44844      287.78522      12711.678      1.1013501     -53.443353      877.02667      823.58331    
     11600   11600          301.32549      820.38524      12681.575      1.1039645     -73.210875      909.87058      836.6597     
     11700   11700          302.03434     -602.21583      12686.53       1.1035333     -68.312904      912.011        843.69809    
     11800   11800          297.20929      375.10082      12672.393      1.1047644     -105.68081      897.44147      791.76066    
     11900   11900          288.12841     -1264.4297      12662.757      1.1056051     -104.92725      870.02119      765.09393    
     12000   12000          296.88911     -570.60151      12635.536      1.1079869     -103.34387      896.47465      793.13078    
     12100   12100          304.24065      392.19386      12579.869      1.1128899     -109.19102      918.67306      809.48204    
     12200   12200          297.98332      764.46828      12638.008      1.1077702     -85.87902       899.77868      813.89966    
     12300   12300          304.81604     -1416.445       12725.707      1.100136      -57.795836      920.41051      862.61468    
     12400   12400          305.09916     -1031.9439      12783.015      1.0952039     -30.047731      921.26538      891.21765    
     12500   12500          311.69272     -723.09892      12817.78       1.0922335     -75.67274       941.17507      865.50233    
     12600   12600          299.32088     -6.5530058      12783.839      1.0951334     -92.926195      903.81752      810.89132    
     12700   12700          289.79298     -1003.6545      12675.996      1.1044503     -70.404744      875.04747      804.64272    
     12800   12800          288.30194      1441.2705      12577.271      1.1131197     -40.119668      870.54517      830.4255     
     12900   12900          299.21118      1687.9522      12539.605      1.1164633     -48.920014      903.48629      854.56627    
     13000   13000          297.47614      872.96673      12548.429      1.1156782     -62.653706      898.24724      835.59353    
     13100   13100          290.40467      136.41262      12597.645      1.1113195     -104.93801      876.89449      771.95648    
     13200   13200          291.30299     -262.80254      12690.548      1.1031839     -102.261        879.60703      777.34603    
     13300   13300          295.4752       623.41166      12701.122      1.1022654     -67.034172      892.20527      825.1711     
     13400   13400          302.13616      1295.7592      12632.705      1.1082352     -67.711704      912.31842      844.60672    
     13500   13500          296.40943      9.0481831      12624.796      1.1089295     -56.881777      895.02624      838.14446    
     13600   13600          295.76104     -677.93054      12656.576      1.106145      -70.92538       893.06839      822.14301    
     13700   13700          281.14319      1852.3403      12641.802      1.1074378     -78.90488       848.92889      770.02401    
     13800   13800          290.84729      1012.546       12541.096      1.1163305     -123.96361      878.231        754.26739    
     13900   13900          294.22285      822.13758      12510.491      1.1190615     -88.944047      888.42373      799.47969    
     14000   14000          304.46898      628.5051       12517.307      1.1184521     -98.878742      919.36254      820.4838     
     14100   14100          304.1589       1965.877       12528.781      1.1174278     -111.33144      918.42622      807.09477    
     14200   14200          302.48788     -682.81046      12516.298      1.1185423     -126.10079      913.38048      787.27969    
     14300   14300          286.79847      1705.8878      12506.317      1.119435      -94.165433      866.00534      771.83991    
     14400   14400          289.2657      -3307.9574      12517.668      1.1184199     -100.73169      873.4553       772.72361    
     14500   14500          293.86216     -1117.2822      12531.673      1.1171699     -78.250519      887.33459      809.08407    
     14600   14600          299.6197      -180.36702      12516.284      1.1185435     -57.930529      904.71984      846.78931    
     14700   14700          301.47003      2572.6313      12550.916      1.1154571     -69.212838      910.30701      841.09418    
     14800   14800          297.81653     -462.71937      12598.06       1.1112829     -100.79881      899.27506      798.47625    
     14900   14900          287.95887      2206.854       12536.341      1.116754      -114.75823      869.50925      754.75102    
     15000   15000          293.87364      239.74616      12388.333      1.1300962     -124.1621       887.36926      763.20716    
     15100   15100          295.49209      1142.868       12226.001      1.1451012     -110.07358      892.25627      782.18268    
     15200   15200          295.06788     -868.36633      12147.946      1.1524589     -90.519594      890.97535      800.45576    
     15300   15300          301.88401      1032.408       12155.643      1.1517292     -122.06719      911.55704      789.48985    
     15400   15400          290.05904      1514.7659      12264.615      1.1414959     -140.90758      875.85083      734.94325    
     15431   15431          282.40623      1484.177       12307.425      1.1375254     -132.01834      852.74273      720.72439    
Loop time of 68.4953 on 1 procs for 5000 steps with 1014 atoms

Performance: 6.307 ns/day, 3.805 hours/ns, 72.998 timesteps/s, 74.020 katom-step/s
90.1% CPU use with 1 MPI tasks x no OpenMP threads

MPI task timing breakdown:
Section |  min time  |  avg time  |  max time  |%varavg| %total
---------------------------------------------------------------
Pair    | 58.751     | 58.751     | 58.751     |   0.0 | 85.77
Bond    | 2.8832     | 2.8832     | 2.8832     |   0.0 |  4.21
Kspace  | 2.7648     | 2.7648     | 2.7648     |   0.0 |  4.04
Neigh   | 2.689      | 2.689      | 2.689      |   0.0 |  3.93
Comm    | 0.34494    | 0.34494    | 0.34494    |   0.0 |  0.50
Output  | 0.0040218  | 0.0040218  | 0.0040218  |   0.0 |  0.01
Modify  | 0.94956    | 0.94956    | 0.94956    |   0.0 |  1.39
Other   |            | 0.109      |            |       |  0.16

Nlocal:           1014 ave        1014 max        1014 min
Histogram: 1 0 0 0 0 0 0 0 0 0
Nghost:           9970 ave        9970 max        9970 min
Histogram: 1 0 0 0 0 0 0 0 0 0
Neighs:         480608 ave      480608 max      480608 min
Histogram: 1 0 0 0 0 0 0 0 0 0

Total # of neighbors = 480608
Ave neighs/atom = 473.97239
Ave special neighs/atom = 6.7613412
Neighbor list builds = 115
Dangerous builds = 0
unfix           NPT_TRACE
unfix           NPT_EQ
write_restart   ${output_restart}
write_restart   ec_dmc_3_7_liclo4_1m_298K.npt.3.restart
System init for write_restart ...
PPPM initialization ...
  using 12-bit tables for long-range coulomb
  G vector (1/distance) = 0.21264962
  grid = 9 9 9
  stencil order = 5
  estimated absolute RMS force accuracy = 0.016080147
  estimated relative force accuracy = 4.8424885e-05
  using double precision FFTW3
  3d grid and FFT values/proc = 2744 729
Generated 28 of 28 mixed pair_coeff terms from arithmetic mixing rule
Total wall time: 0:01:08
