Title

1059 atoms
989 bonds
1628 angles
1557 dihedrals
255 impropers

10 atom types
9 bond types
11 angle types
19 dihedral types
1 improper types
-0.02300000004 23.27254793 xlo xhi
-0.033000000000000008 23.26254793 ylo yhi
-0.0050000004000000011 23.290547929999999 zlo zhi
0.0 0.0 0.0 xy xz yz

Masses

1	12.01078
2	15.99943
3	12.01078
4	15.99943
5	1.007947
6	6.9412
7	18.998403
8	30.973762
9	28.08553
10	1.007947


Pair Coeffs

1	0.10884061	3.3795318
2	0.16846514	3.0251065
3	0.086879315	3.4806469
4	0.2102061	3.0398122
5	0.016409246	2.5832257
6	0.0279896	1.8263424
7	0.061	3.1181455
8	0.2	3.7417746
9	0.1078	3.3977095
10	0.015779483	2.6445434

Bond Coeffs

1	215.30139056395	1.533627603844
2	227.0371466687	1.436323905911
3	357.8191474159	1.094206460752
4	291.34206305815	1.356061963393
5	762.0385000435	1.225002296183
6	440	1.64
7	114.445	1.535
8	141.135	1.427
9	261.22952634755	1.628101720845


Angle Coeffs

1	91.51855890415	108.1730591511
2	66.75631831595	109.9380527584
3	63.3100334572	123.6058900035
4	36.776637850755	108.3543135269
5	119.8958895535	112.8736161145
6	84.54765779845	120.1049996386
7	89.85732216855	108.9071707171
8	29.935	112.63
9	38.72	107.62
10	21.635	109.68
11	27.695	119.9


Dihedral Coeffs

1 1	0.111302960584	3	0
2 1	0.438911435509	1	180
3 1	1.763607254567	2	180
4 1	-0.01533770820035	3	0
5 1	0.4191503124266	2	0
6 1	0.1311347012225	3	0
7 1	0.436546671918	1	0
8 1	0.2631113656674667	3	0
9 1	0.2279946533057	3	0
10 1	0.3021951447071	2	180
11 1	1.350045656671	1	180
12 1	3.481871717726	2	180
13 1	0.13	3	0
14 1	0.383	3	0
15 1	3.95	1	180
16 1	0.4341790442654	3	0
17 1	9.358349710902999	1	0
18 1	-1.887255581613	2	0
19 1	0.25	1	0


Improper Coeffs

1 4.305232227926667	-1	2


Atoms

1	1	1	0.0955	12.423	0.71000004	20.107
2	1	1	0.0955	11.215	1.405	19.517
3	1	2	-0.4048	11.732	1.78	18.232
4	1	3	0.8478	12.436	0.66299999	17.802
5	1	4	-0.5484	12.598	0.24400002	16.605
6	1	2	-0.4048	12.951001	0.060000002	18.958
7	1	5	0.0798	12.098	-0	20.879
8	1	5	0.0798	13.169001	1.459	20.472
9	1	5	0.0798	10.432	0.61900002	19.372
10	1	5	0.0798	10.872001	2.2690001	20.084
11	2	1	0.0955	11.234001	13.142	4.8590002
12	2	1	0.0955	10.274	11.976	4.744
13	2	2	-0.4048	9.0970001	12.55	5.3319998
14	2	3	0.8478	9.0349998	13.832001	4.802
15	2	4	-0.5484	7.9949999	14.526	4.5349998
16	2	2	-0.4048	10.362	14.237001	4.6079998
17	2	5	0.0798	12.019	13.047	4.098
18	2	5	0.0798	11.627001	13.226	5.9030004
19	2	5	0.0798	10.089001	11.820001	3.6520002
20	2	5	0.0798	10.593	11.078	5.27
21	3	1	0.0955	9.2019997	15.769	19.566
22	3	1	0.0955	9.6359997	17.049	20.246
23	3	2	-0.4048	8.3959999	17.771999	20.257999
24	3	3	0.8478	7.447	16.826	20.624001
25	3	4	-0.5484	6.375	17.004	21.297001
26	3	2	-0.4048	7.8959999	15.604	20.104
27	3	5	0.0798	9.8800001	14.954	19.851
28	3	5	0.0798	9.1190004	15.919	18.461
29	3	5	0.0798	9.9020004	16.778999	21.299
30	3	5	0.0798	10.418	17.594999	19.721001
31	4	1	0.0955	3.325	0.85299999	3.9100001
32	4	1	0.0955	2.2639999	1.025	4.9759998
33	4	2	-0.4048	1.239	1.6849999	4.2179999
34	4	3	0.8478	1.2079999	1.0039999	3.0090001
35	4	4	-0.5484	0.20299999	0.79100007	2.2479999
36	4	2	-0.4048	2.523	0.57999998	2.7680001
37	4	5	0.0798	3.9790001	0.012	4.1760001
38	4	5	0.0798	3.8729999	1.813	3.743
39	4	5	0.0798	1.9060001	-0.001	5.2410002
40	4	5	0.0798	2.579	1.617	5.8330007
41	5	1	0.0955	19.280001	2.76	4.4180002
42	5	1	0.0955	18.826	1.3160001	4.4429998
43	5	2	-0.4048	17.403	1.4920001	4.5110002
44	5	3	0.8478	17.136	2.5110002	3.6070001
45	5	4	-0.5484	16.093	2.674	2.8870001
46	5	2	-0.4048	18.257	3.3529999	3.628
47	5	5	0.0798	20.268	2.8260002	3.944
48	5	5	0.0798	19.243	3.2019999	5.4450006
49	5	5	0.0798	19.086	0.88100004	3.4460001
50	5	5	0.0798	19.204	0.74000001	5.2870007
51	6	1	0.0955	5.6620002	3.1099999	20.364
52	6	1	0.0955	5.2950001	4.5640001	20.573999
53	6	2	-0.4048	6.448	5.0200005	21.299
54	6	3	0.8478	7.5229998	4.4429998	20.638
55	6	4	-0.5484	8.7030001	4.9130001	20.489002
56	6	2	-0.4048	7.0640001	3.211	20.150002
57	6	5	0.0798	5.1300001	2.721	19.486
58	6	5	0.0798	5.4820004	2.52	21.297001
59	6	5	0.0798	5.2950001	5.0440001	19.563999
60	6	5	0.0798	4.3759999	4.7189999	21.136
61	7	1	0.0955	11.421	8.1689997	2.016
62	7	1	0.0955	12.069	8.4530001	0.67799997
63	7	2	-0.4048	12.435001	7.1230001	0.27900001
64	7	3	0.8478	11.332001	6.3470001	0.60600001
65	7	4	-0.5484	10.896	5.3039999	0.010000001
66	7	2	-0.4048	10.766	6.9359999	1.7460001
67	7	5	0.0798	10.716	8.9750004	2.2609999
68	7	5	0.0798	12.199	7.9980001	2.8010001
69	7	5	0.0798	11.257	8.8190002	-0
70	7	5	0.0798	12.933001	9.1140003	0.727
71	8	1	0.0955	16.122999	8.7110004	5.4089999
72	8	1	0.0955	16.912001	9.7419996	4.632
73	8	2	-0.4048	16.610001	9.342	3.2870002
74	8	3	0.8478	15.25	9.066	3.3050001
75	8	4	-0.5484	14.402	9.217	2.3610001
76	8	2	-0.4048	14.970001	8.5749998	4.5879998
77	8	5	0.0798	15.885	9.1049995	6.4060001
78	8	5	0.0798	16.666	7.7329998	5.4299998
79	8	5	0.0798	16.427999	10.731	4.8280001
80	8	5	0.0798	17.983	9.7299995	4.8280001
81	9	1	0.0955	5.316	4.1459999	5.9949999
82	9	1	0.0955	4.3769999	3.3110001	6.8379998
83	9	2	-0.4048	3.1110001	3.7170002	6.2950001
84	9	3	0.8478	3.3150003	3.7450001	4.9229999
85	9	4	-0.5484	2.474	3.4920001	3.994
86	9	2	-0.4048	4.6550002	4.1139998	4.7360001
87	9	5	0.0798	6.3039999	3.6680002	5.9619999
88	9	5	0.0798	5.3400002	5.2030001	6.362
89	9	5	0.0798	4.559	2.243	6.559
90	9	5	0.0798	4.4400001	3.5039999	7.9070001
91	10	1	0.0955	9.1450005	19.802	1.714
92	10	1	0.0955	8.4379997	18.472	1.5650001
93	10	2	-0.4048	7.1929998	18.764	2.2179999
94	10	3	0.8478	6.8510003	20.028999	1.7620001
95	10	4	-0.5484	5.6820006	20.508001	1.5640001
96	10	2	-0.4048	8.0600004	20.706001	1.55
97	10	5	0.0798	9.901	19.906	0.926
98	10	5	0.0798	9.5539999	19.915001	2.7490001
99	10	5	0.0798	8.243	18.332001	0.472
100	10	5	0.0798	8.9530001	17.632999	2.0309999
101	11	1	0.0955	7.5799999	0.54400003	11.649
102	11	1	0.0955	6.9400001	1.9160001	11.647
103	11	2	-0.4048	7.8530002	2.6300001	12.494
104	11	3	0.8478	9.1099997	2.2149999	12.076
105	11	4	-0.5484	10.199001	2.8840003	12.068
106	11	2	-0.4048	8.96	0.88800007	11.651
107	11	5	0.0798	7.2839999	-0.001	10.743
108	11	5	0.0798	7.3430004	0.001	12.597
109	11	5	0.0798	7.0340004	2.312	10.605
110	11	5	0.0798	5.9229999	1.938	12.037
111	12	1	0.0955	14.487	3.319	12.11
112	12	1	0.0955	14.436001	4.8319998	12.095001
113	12	2	-0.4048	15.736	5.1399999	12.623
114	12	3	0.8478	16.59	4.2540002	11.98
115	12	4	-0.5484	17.809999	4.4369998	11.646
116	12	2	-0.4048	15.845001	3.0880001	11.757001
117	12	5	0.0798	13.785	2.921	11.365
118	12	5	0.0798	14.312	2.9300001	13.144001
119	12	5	0.0798	14.404	5.1410003	11.021
120	12	5	0.0798	13.641	5.2620001	12.701
121	13	1	0.0955	15.831001	16.653	2.8400002
122	13	1	0.0955	15.321001	16.216999	1.483
123	13	2	-0.4048	15.402001	14.79	1.622
124	13	3	0.8478	14.917001	14.538001	2.8980002
125	13	4	-0.5484	14.271001	13.514	3.3080003
126	13	2	-0.4048	15.276001	15.647	3.677
127	13	5	0.0798	15.444001	17.653999	3.073
128	13	5	0.0798	16.945999	16.582001	2.8830001
129	13	5	0.0798	14.243001	16.51	1.436
130	13	5	0.0798	15.913	16.576	0.64300001
131	14	1	0.0955	20.184	8.8909998	20.282
132	14	1	0.0955	20.351999	7.3870001	20.26
133	14	2	-0.4048	19.17	6.9829998	20.966999
134	14	3	0.8478	18.165001	7.7909999	20.454002
135	14	4	-0.5484	16.927999	7.5089998	20.298002
136	14	2	-0.4048	18.775999	9.0100002	20.127001
137	14	5	0.0798	20.738001	9.3339996	19.445
138	14	5	0.0798	20.473001	9.3039999	21.281002
139	14	5	0.0798	20.255001	7.0690002	19.191999
140	14	5	0.0798	21.257999	7.0279999	20.746
141	15	1	0.0955	4.0619998	15.776	9.2869997
142	15	1	0.0955	5.2780004	14.982	8.8610001
143	15	2	-0.4048	4.777	13.644	9.0019999
144	15	3	0.8478	3.4960003	13.696001	8.4709997
145	15	4	-0.5484	2.859	12.774	7.8559999
146	15	2	-0.4048	3.0139999	14.984001	8.7419996
147	15	5	0.0798	4.1040001	16.780001	8.8439999
148	15	5	0.0798	3.9660001	15.781001	10.402001
149	15	5	0.0798	5.4330006	15.193	7.7729998
150	15	5	0.0798	6.1620002	15.151	9.4729996
151	16	1	0.0955	14.567001	10.869001	14.873
152	16	1	0.0955	13.548001	11.589001	14.016
153	16	2	-0.4048	13.969001	11.174001	12.708
154	16	3	0.8478	14.244001	9.8210001	12.846001
155	16	4	-0.5484	14.106001	8.8950005	11.975001
156	16	2	-0.4048	14.714001	9.6499996	14.155001
157	16	5	0.0798	14.157	10.716	15.880001
158	16	5	0.0798	15.544	11.413001	14.863
159	16	5	0.0798	12.556	11.123	14.237001
160	16	5	0.0798	13.558001	12.673	14.120001
161	17	1	0.0955	8.0419998	13.441	12.088001
162	17	1	0.0955	9.342	13.816	11.407
163	17	2	-0.4048	9.7740002	12.528	10.944
164	17	3	0.8478	8.6230001	11.937	10.439
165	17	4	-0.5484	8.5200005	11.115	9.4659996
166	17	2	-0.4048	7.5630002	12.423	11.217001
167	17	5	0.0798	7.3780003	14.315	12.118
168	17	5	0.0798	8.2399998	12.991	13.092001
169	17	5	0.0798	9.0710001	14.442	10.521001
170	17	5	0.0798	10.077	14.278001	12.065
171	18	1	0.0955	9.2959995	9.4680004	18.517
172	18	1	0.0955	10.045	8.1549997	18.580999
173	18	2	-0.4048	10.729	8.184	17.319
174	18	3	0.8478	11.192001	9.4879999	17.205999
175	18	4	-0.5484	12.257	9.8999996	16.632
176	18	2	-0.4048	10.249	10.294	17.858999
177	18	5	0.0798	9.073	9.8129997	19.535
178	18	5	0.0798	8.3909998	9.3739996	17.865999
179	18	5	0.0798	10.8	8.2550001	19.399
180	18	5	0.0798	9.4069996	7.277	18.674999
181	19	1	0.0955	2.4170001	13.988	11.620001
182	19	1	0.0955	2.0139999	12.535	11.483001
183	19	2	-0.4048	2.9780002	12.088001	10.517
184	19	3	0.8478	4.1719999	12.664	10.928
185	19	4	-0.5484	5.3559999	12.196001	10.808
186	19	2	-0.4048	3.8310001	13.889	11.517
187	19	5	0.0798	2.092	14.368	12.597
188	19	5	0.0798	2.0339999	14.585	10.755
189	19	5	0.0798	2.2379999	12.046	12.464
190	19	5	0.0798	0.99299997	12.382001	11.137
191	20	1	0.0955	14.164	20.438002	19.811001
192	20	1	0.0955	13.171	20.271999	18.68
193	20	2	-0.4048	12.116001	19.577	19.360001
194	20	3	0.8478	12	20.229	20.580002
195	20	4	-0.5484	10.948	20.407	21.283001
196	20	2	-0.4048	13.29	20.671001	20.908001
197	20	5	0.0798	14.816	21.296001	19.604
198	20	5	0.0798	14.719	19.483999	19.99
199	20	5	0.0798	12.811001	21.298	18.416
200	20	5	0.0798	13.548001	19.705	17.83
201	21	1	0.0955	15.232	14.497	10.914001
202	21	1	0.0955	13.864001	13.857001	10.819
203	21	2	-0.4048	13.032	15.026001	10.774001
204	21	3	0.8478	13.692001	15.888	9.9090004
205	21	4	-0.5484	13.184	16.749001	9.1120005
206	21	2	-0.4048	15.061001	15.632	10.073
207	21	5	0.0798	15.99	13.802	10.531
208	21	5	0.0798	15.431	14.849	11.957001
209	21	5	0.0798	13.817	13.346	9.8249998
210	21	5	0.0798	13.61	13.212	11.659001
211	22	1	0.0955	11.502	12.463001	20.280001
212	22	1	0.0955	12.343	11.677	19.297001
213	22	2	-0.4048	12.193001	12.485	18.120001
214	22	3	0.8478	12.315001	13.790001	18.577999
215	22	4	-0.5484	12.802	14.799	17.964001
216	22	2	-0.4048	11.789	13.796	19.878
217	22	5	0.0798	11.837	12.25	21.303001
218	22	5	0.0798	10.414	12.264	20.113001
219	22	5	0.0798	13.402	11.752	19.649
220	22	5	0.0798	12.005	10.655001	19.132999
221	23	1	0.0955	2.8380001	3.7969999	12.42
222	23	1	0.0955	3.1080003	5.2259998	12.838
223	23	2	-0.4048	3.405	5.039	14.23
224	23	3	0.8478	4.2189999	3.915	14.262
225	23	4	-0.5484	5.1669998	3.651	15.078
226	23	2	-0.4048	3.7969999	3.098	13.204001
227	23	5	0.0798	3.0179999	3.6900001	11.342
228	23	5	0.0798	1.814	3.4809999	12.738
229	23	5	0.0798	4.0440001	5.5430002	12.313
230	23	5	0.0798	2.2690001	5.9050007	12.69
231	24	1	0.0955	11.006001	0.97500002	3.1170001
232	24	1	0.0955	11.028	0.87800002	4.6269999
233	24	2	-0.4048	12.273001	0.19100001	4.8260002
234	24	3	0.8478	13.151001	0.80400002	3.9430001
235	24	4	-0.5484	14.409	0.98799998	4.0819998
236	24	2	-0.4048	12.382001	1.1950001	2.8380001
237	24	5	0.0798	10.375	1.8200002	2.8130002
238	24	5	0.0798	10.699	-0.001	2.665
239	24	5	0.0798	11.131	1.9220001	5.0139999
240	24	5	0.0798	10.19	0.33000004	5.0550003
241	25	1	0.0955	8.151	7.7259998	8.4770002
242	25	1	0.0955	6.8800001	7.8450003	7.6630001
243	25	2	-0.4048	6.9300003	6.6160007	6.9230003
244	25	3	0.8478	7.3239999	5.6660004	7.8540001
245	25	4	-0.5484	7.0029998	4.4299998	7.9039998
246	25	2	-0.4048	8.165	6.3309999	8.757
247	25	5	0.0798	8.0629997	8.335	9.3859997
248	25	5	0.0798	9.0430002	7.9770002	7.8520007
249	25	5	0.0798	6.0289998	7.7920003	8.3870001
250	25	5	0.0798	6.8460007	8.7130003	7.007
251	26	1	0.0955	0.68000007	12.733001	15.872001
252	26	1	0.0955	1.788	11.999001	16.596001
253	26	2	-0.4048	1.086	10.821	17.02
254	26	3	0.8478	0.32499999	10.456	15.917
255	26	4	-0.5484	-0.013	9.2799997	15.546
256	26	2	-0.4048	-0.013	11.65	15.266
257	26	5	0.0798	1.1160001	13.419	15.133
258	26	5	0.0798	-0.003	13.234	16.601999
259	26	5	0.0798	2.54	11.708001	15.821
260	26	5	0.0798	2.2119999	12.543	17.438
261	27	1	0.0955	8.7690001	19.698	8.6529999
262	27	1	0.0955	7.6630001	18.829	8.0950003
263	27	2	-0.4048	6.8230004	18.702	9.2519999
264	27	3	0.8478	6.7860003	19.978001	9.7959995
265	27	4	-0.5484	5.8280001	20.540001	10.429
266	27	2	-0.4048	8.0319996	20.556	9.5150003
267	27	5	0.0798	9.2559996	20.243	7.8340001
268	27	5	0.0798	9.4750004	19.087999	9.2700005
269	27	5	0.0798	7.1259999	19.444	7.3299999
270	27	5	0.0798	7.9940004	17.860001	7.7270002
271	28	1	0.0955	1.028	14.232	19.599001
272	28	1	0.0955	2.2360001	13.555001	20.209999
273	28	2	-0.4048	3.2940001	14.288	19.573999
274	28	3	0.8478	2.8760002	15.61	19.620001
275	28	4	-0.5484	3.5950003	16.662001	19.725
276	28	2	-0.4048	1.4780002	15.58	19.530001
277	28	5	0.0798	0.164	14.111	20.264
278	28	5	0.0798	0.85100001	13.858	18.559999
279	28	5	0.0798	2.23	13.809	21.299
280	28	5	0.0798	2.3039999	12.487	20.007
281	29	1	0.0955	2.0339999	8.7159996	11.187
282	29	1	0.0955	0.68000007	8.1309996	11.524
283	29	2	-0.4048	0.375	8.8549995	12.725
284	29	3	0.8478	0.75500005	10.161	12.448
285	29	4	-0.5484	0.233	11.244	12.882
286	29	2	-0.4048	1.85	10.071	11.577
287	29	5	0.0798	2.2219999	8.6110001	10.110001
288	29	5	0.0798	2.8299999	8.2620001	11.828001
289	29	5	0.0798	-0.023	8.4619999	10.719
290	29	5	0.0798	0.68300003	7.0539999	11.689
291	30	1	0.0955	17.16	11.27	1.311
292	30	1	0.0955	16.669001	12.702	1.3050001
293	30	2	-0.4048	15.38	12.532	0.69599998
294	30	3	0.8478	14.858	11.397	1.299
295	30	4	-0.5484	13.634	11.131	1.556
296	30	2	-0.4048	15.953001	10.569	1.584
297	30	5	0.0798	17.909	11.142	2.1029999
298	30	5	0.0798	17.524	10.975	0.29499999
299	30	5	0.0798	16.521999	12.995	2.375
300	30	5	0.0798	17.296	13.391	0.74199998
301	31	1	0.1266165	9.2150002	19.833	16.974001
302	31	2	-0.3889835	8.0909996	20.443001	16.349001
303	31	3	0.7551165	6.8740005	19.798	16.518999
304	31	4	-0.5800835	6.8620005	18.74	17.202999
305	31	2	-0.3889835	5.7319999	20.337999	15.936001
306	31	1	0.1266165	4.4819999	19.694	16.099001
307	31	5	0.0582835	9.2989998	18.805	16.596001
308	31	5	0.0582835	10.139	20.431999	16.889
309	31	5	0.0582835	8.9359999	19.791	18.066
310	31	5	0.0582835	3.8340001	20.241001	16.809999
311	31	5	0.0582835	4.0440001	19.622	15.083
312	31	5	0.0582835	4.6220002	18.676001	16.565001
313	32	1	0.1266165	20.281	15.523	9.1829996
314	32	2	-0.3889835	19.462999	16.667999	8.9700003
315	32	3	0.7551165	18.146	16.417999	8.6110001
316	32	4	-0.5800835	17.785999	15.216	8.5039997
317	32	2	-0.3889835	17.288	17.49	8.3870001
318	32	1	0.1266165	15.941	17.254999	8.0200005
319	32	5	0.0582835	20.270002	14.92	8.2650003
320	32	5	0.0582835	21.290001	15.772	9.5579996
321	32	5	0.0582835	19.749001	14.95	9.9960003
322	32	5	0.0582835	15.251001	17.457001	8.8610001
323	32	5	0.0582835	15.75	17.900999	7.1390004
324	32	5	0.0582835	15.785	16.164	7.7780004
325	33	1	0.1266165	11.737001	14.701	1.651
326	33	2	-0.3889835	10.868	15.187	2.6680002
327	33	3	0.7551165	11.470001	15.905	3.6930001
328	33	4	-0.5800835	12.718	16.066	3.641
329	33	2	-0.3889835	10.682	16.41	4.7220001
330	33	1	0.1266165	11.278	17.143999	5.7750006
331	33	5	0.0582835	12.501	14.072	2.1270001
332	33	5	0.0582835	11.201	14.221	0.81300008
333	33	5	0.0582835	12.236	15.628	1.247
334	33	5	0.0582835	11.066	18.226999	5.684
335	33	5	0.0582835	10.882	16.704	6.7119999
336	33	5	0.0582835	12.402	17.066999	5.7210007
337	34	1	0.1266165	1.2029999	19.802999	10.337
338	34	2	-0.3889835	1.566	18.429001	10.244001
339	34	3	0.7551165	1.026	17.726	9.1759996
340	34	4	-0.5800835	0.26800001	18.351	8.3870001
341	34	2	-0.3889835	1.336	16.379	9.0220003
342	34	1	0.1266165	0.79500008	15.646	7.9390001
343	34	5	0.0582835	0.10700001	19.863001	10.387
344	34	5	0.0582835	1.732	20.339001	11.145
345	34	5	0.0582835	1.5420001	20.245001	9.3570004
346	34	5	0.0582835	1.5570002	15.451001	7.1609998
347	34	5	0.0582835	0.37900001	14.718	8.3800001
348	34	5	0.0582835	-0.001	16.25	7.415
349	35	1	0.1266165	7.2940006	14.978	1.193
350	35	2	-0.3889835	8.052	14.142	0.32499999
351	35	3	0.7551165	9.0950003	13.439001	0.91300005
352	35	4	-0.5800835	9.2840004	13.596	2.148
353	35	2	-0.3889835	9.8789997	12.602	0.125
354	35	1	0.1266165	10.947	11.878	0.70700002
355	35	5	0.0582835	7.9829998	15.691	1.666
356	35	5	0.0582835	6.4210005	15.440001	0.69800007
357	35	5	0.0582835	6.9050002	14.276	1.9840001
358	35	5	0.0582835	10.697001	10.805	0.81300008
359	35	5	0.0582835	11.824001	12.055	0.054000001
360	35	5	0.0582835	11.134	12.233	1.761
361	36	1	0.1266165	12.163	9.8940001	10.661
362	36	2	-0.3889835	12.924	10.652	9.7279997
363	36	3	0.7551165	12.785	10.295	8.3940001
364	36	4	-0.5800835	12.008	9.342	8.1210003
365	36	2	-0.3889835	13.499001	10.993	7.4250002
366	36	1	0.1266165	13.37	10.643	6.0599999
367	36	5	0.0582835	12.436	8.8360004	10.545
368	36	5	0.0582835	12.235001	10.277	11.695
369	36	5	0.0582835	11.096	10.028	10.323
370	36	5	0.0582835	12.763	11.385001	5.5080004
371	36	5	0.0582835	14.404	10.554	5.671
372	36	5	0.0582835	12.801	9.6739998	5.9549999
373	37	1	0.1266165	9.7119999	4.6539998	9.2259998
374	37	2	-0.3889835	10.317	5.9030004	8.9099998
375	37	3	0.7551165	11.184	5.9030004	7.8260002
376	37	4	-0.5800835	11.364001	4.8140001	7.2189999
377	37	2	-0.3889835	11.813001	7.0890002	7.4590006
378	37	1	0.1266165	12.701	7.1069999	6.3560004
379	37	5	0.0582835	10.512	3.924	9.4090004
380	37	5	0.0582835	8.96	4.7270002	10.033001
381	37	5	0.0582835	9.1689997	4.3629999	8.2819996
382	37	5	0.0582835	12.244	7.5999999	5.4770002
383	37	5	0.0582835	13.615	7.6220007	6.7129998
384	37	5	0.0582835	12.922	6.0560007	6.0120006
385	38	1	0.1266165	1.975	2.6760004	18.083
386	38	2	-0.3889835	3.2969999	2.411	17.628
387	38	3	0.7551165	4.178	3.483	17.655001
388	38	4	-0.5800835	3.743	4.5890002	18.073
389	38	2	-0.3889835	5.4879999	3.2969999	17.225
390	38	1	0.1266165	6.4000006	4.3790002	17.245001
391	38	5	0.0582835	1.562	3.4920001	17.474001
392	38	5	0.0582835	1.342	1.7720001	18.131001
393	38	5	0.0582835	2.1140001	3.0500002	19.136999
394	38	5	0.0582835	7.1300001	4.2779999	18.070999
395	38	5	0.0582835	6.8779998	4.3909998	16.245001
396	38	5	0.0582835	5.8590002	5.3460002	17.459
397	39	1	0.1266165	5.3649998	13.96	4.362
398	39	2	-0.3889835	5.9170003	15.238	4.6599998
399	39	3	0.7551165	5.1660004	16.046	5.5030003
400	39	4	-0.5800835	4.0710001	15.59	5.9280005
401	39	2	-0.3889835	5.6440001	17.309	5.8380003
402	39	1	0.1266165	4.8909998	18.146	6.6950006
403	39	5	0.0582835	4.3720002	14.114	3.9180002
404	39	5	0.0582835	6.0419998	13.321	3.7680001
405	39	5	0.0582835	5.2350001	13.472	5.3699999
406	39	5	0.0582835	5.3400002	18.198999	7.7049999
407	39	5	0.0582835	4.8460002	19.132	6.1910005
408	39	5	0.0582835	3.862	17.716	6.8610001
409	40	1	0.1266165	2.6719999	10.674	4.4070001
410	40	2	-0.3889835	3.8829999	11.129	5
411	40	3	0.7551165	5.0430007	10.896	4.2729998
412	40	4	-0.5800835	4.9310002	10.307001	3.165
413	40	2	-0.3889835	6.2650003	11.313	4.7909999
414	40	1	0.1266165	7.4580002	11.083001	4.0640001
415	40	5	0.0582835	2.766	9.5959997	4.223
416	40	5	0.0582835	1.7720001	10.968	4.9770002
417	40	5	0.0582835	2.6329999	11.205	3.4130001
418	40	5	0.0582835	7.8400002	12.016	3.608
419	40	5	0.0582835	8.1689997	10.632	4.7849998
420	40	5	0.0582835	7.2600002	10.397	3.191
421	41	1	0.1266165	2.904	3.5769999	0.39399999
422	41	2	-0.3889835	2.8780003	4.9510002	0.025000002
423	41	3	0.7551165	1.8660002	5.7160001	0.58999997
424	41	4	-0.5800835	1.064	5.1389999	1.372
425	41	2	-0.3889835	1.778	7.0679998	0.27500001
426	41	1	0.1266165	0.75300002	7.862	0.84100002
427	41	5	0.0582835	1.933	3.1350002	0.131
428	41	5	0.0582835	3.7810001	3.0360003	-0.0050000004
429	41	5	0.0582835	2.9980001	3.5929999	1.5180001
430	41	5	0.0582835	1.149	8.5299997	1.63
431	41	5	0.0582835	0.29699999	8.415	-0.0040000002
432	41	5	0.0582835	-0.0020000001	7.2119999	1.3700001
433	42	1	0.1266165	4.704	9.1920004	10.328001
434	42	2	-0.3889835	4.29	7.8720002	9.9940004
435	42	3	0.7551165	5.1310005	6.8470001	10.406
436	42	4	-0.5800835	6.1770005	7.1630001	11.032
437	42	2	-0.3889835	4.79	5.5300002	10.114001
438	42	1	0.1266165	5.6350002	4.4720001	10.525
439	42	5	0.0582835	5.7020001	9.3549995	9.8999996
440	42	5	0.0582835	3.957	9.9619999	10.063
441	42	5	0.0582835	4.7930002	9.1780005	11.452
442	42	5	0.0582835	5.2049999	3.9219999	11.384
443	42	5	0.0582835	5.7770004	3.8330002	9.6309996
444	42	5	0.0582835	6.6149998	4.8779998	10.908001
445	43	1	0.1266165	7.0419998	10.187	12.532
446	43	2	-0.3889835	6.0650005	10.435	13.538
447	43	3	0.7551165	5.6100006	11.742	13.638
448	43	4	-0.5800835	6.0910006	12.592	12.842001
449	43	2	-0.3889835	4.6539998	12.058	14.599
450	43	1	0.1266165	4.1789999	13.385	14.715
451	43	5	0.0582835	7.8979998	10.85	12.718
452	43	5	0.0582835	7.3000002	9.118	12.43
453	43	5	0.0582835	6.5409999	10.509	11.575001
454	43	5	0.0582835	3.154	13.485001	14.309
455	43	5	0.0582835	4.2420001	13.636	15.793
456	43	5	0.0582835	4.8039999	14.084	14.088
457	44	1	0.1266165	0.63700008	3.0480001	6.6570001
458	44	2	-0.3889835	1.664	2.638	7.5539999
459	44	3	0.7551165	1.2410001	2.085	8.7539997
460	44	4	-0.5800835	-0	1.9920001	8.9510002
461	44	2	-0.3889835	2.1900001	1.6619999	9.6800003
462	44	1	0.1266165	1.777	1.096	10.909
463	44	5	0.0582835	-0.001	3.773	7.1789999
464	44	5	0.0582835	1.024	3.392	5.6810002
465	44	5	0.0582835	0.039000001	2.1099999	6.474
466	44	5	0.0582835	1.929	0	10.922001
467	44	5	0.0582835	2.3559999	1.622	11.694001
468	44	5	0.0582835	0.66600001	1.2309999	11.051001
469	45	1	0.1266165	18.219	16.927999	19.395
470	45	2	-0.3889835	19.223	15.92	19.384001
471	45	3	0.7551165	18.98	14.826001	18.563999
472	45	4	-0.5800835	17.906	14.814	17.906
473	45	2	-0.3889835	19.919001	13.801001	18.503
474	45	1	0.1266165	19.688	12.678001	17.673
475	45	5	0.0582835	17.271	16.461	19.694
476	45	5	0.0582835	18.502001	17.818001	19.986
477	45	5	0.0582835	18.136	17.249001	18.316999
478	45	5	0.0582835	20.322001	12.708	16.766001
479	45	5	0.0582835	19.882	11.789	18.306
480	45	5	0.0582835	18.629999	12.689	17.282
481	46	1	0.1266165	17.299999	14.168	13.562001
482	46	2	-0.3889835	17.308001	13.558001	12.276
483	46	3	0.7551165	18.555	13.225001	11.766
484	46	4	-0.5800835	19.566	13.487	12.472
485	46	2	-0.3889835	18.639999	12.625	10.513
486	46	1	0.1266165	19.903	12.280001	9.9779997
487	46	5	0.0582835	17.919001	15.074	13.513
488	46	5	0.0582835	16.283001	14.326	13.962001
489	46	5	0.0582835	17.815001	13.418001	14.228
490	46	5	0.0582835	20.074001	11.187	10.017
491	46	5	0.0582835	19.914	12.681	8.9449997
492	46	5	0.0582835	20.731001	12.722	10.605
493	47	1	0.1266165	11.213001	12.229	8.2279997
494	47	2	-0.3889835	10.67	13.520001	7.9759998
495	47	3	0.7551165	10.696	14.412001	9.04
496	47	4	-0.5800835	11.192001	14.011001	10.127
497	47	2	-0.3889835	10.182	15.693001	8.8660002
498	47	1	0.1266165	10.2	16.614	9.9399996
499	47	5	0.0582835	10.67	11.79	9.0749998
500	47	5	0.0582835	11.256	11.591	7.3270006
501	47	5	0.0582835	12.275	12.433	8.5500002
502	47	5	0.0582835	10.976	17.389999	9.7939997
503	47	5	0.0582835	9.1759996	17.033001	9.9969997
504	47	5	0.0582835	10.492	16.096001	10.898
505	48	1	0.1266165	10.905	5.3540001	17.518999
506	48	2	-0.3889835	12.154001	4.9099998	17.000999
507	48	3	0.7551165	12.904	4.0910001	17.834
508	48	4	-0.5800835	12.426	3.8120003	18.966
509	48	2	-0.3889835	14.136	3.619	17.393
510	48	1	0.1266165	14.915	2.7839999	18.23
511	48	5	0.0582835	11.096	5.8839998	18.462
512	48	5	0.0582835	10.306	5.9210005	16.784
513	48	5	0.0582835	10.346001	4.402	17.75
514	48	5	0.0582835	14.892	1.732	17.886
515	48	5	0.0582835	15.935	3.217	18.225
516	48	5	0.0582835	14.48	2.7540002	19.27
517	49	1	0.1266165	9.8889999	13.283	16.618
518	49	2	-0.3889835	10.287	14.206	17.627001
519	49	3	0.7551165	10.836	15.4	17.179001
520	49	4	-0.5800835	10.937	15.568	15.935
521	49	2	-0.3889835	11.248001	16.349001	18.108999
522	49	1	0.1266165	11.810001	17.572001	17.671
523	49	5	0.0582835	10.766	13.061	15.994
524	49	5	0.0582835	9.3730001	12.393	17.021999
525	49	5	0.0582835	9.1429996	13.856	15.998
526	49	5	0.0582835	11.1	18.410999	17.795
527	49	5	0.0582835	12.741001	17.704	18.257
528	49	5	0.0582835	12.017001	17.534	16.563
529	50	1	0.1266165	3.4779999	7.2280002	16.924
530	50	2	-0.3889835	3.7130001	7.5799999	18.283001
531	50	3	0.7551165	5.0419998	7.7399998	18.650999
532	50	4	-0.5800835	5.9200001	7.5620003	17.766001
533	50	2	-0.3889835	5.3460002	8.0830002	19.964001
534	50	1	0.1266165	6.6960001	8.25	20.358
535	50	5	0.0582835	4.0209999	6.296	16.714001
536	50	5	0.0582835	2.4059999	7.2060003	16.659
537	50	5	0.0582835	3.957	8.0620003	16.334999
538	50	5	0.0582835	6.9489999	9.3190002	20.490999
539	50	5	0.0582835	6.8150001	7.6590004	21.287001
540	50	5	0.0582835	7.3900003	7.8909998	19.544001
541	51	1	0.1266165	18.261999	7.0130005	10.439
542	51	2	-0.3889835	19.079	5.9720001	9.9139996
543	51	3	0.7551165	18.412001	4.836	9.4779997
544	51	4	-0.5800835	17.157	4.8169999	9.5810003
545	51	2	-0.3889835	19.146999	3.777	8.9519997
546	51	1	0.1266165	18.483999	2.6100001	8.5030003
547	51	5	0.0582835	17.677	6.6000004	11.272
548	51	5	0.0582835	18.827999	7.9299998	10.683001
549	51	5	0.0582835	17.556999	7.2639999	9.5959997
550	51	5	0.0582835	18.462	2.5569999	7.3979998
551	51	5	0.0582835	19.023001	1.7589999	8.9650002
552	51	5	0.0582835	17.399	2.631	8.8100004
553	52	1	0.1266165	15.169	4.5170002	20.792
554	52	2	-0.3889835	15.088	4.862	19.413
555	52	3	0.7551165	14.243001	5.9170003	19.097
556	52	4	-0.5800835	13.624	6.4749999	20.042
557	52	2	-0.3889835	14.113001	6.309	17.768
558	52	1	0.1266165	13.256001	7.382	17.427
559	52	5	0.0582835	14.156	4.2800002	21.143999
560	52	5	0.0582835	15.924	3.7390003	21.002003
561	52	5	0.0582835	15.511	5.467	21.295002
562	52	5	0.0582835	13.829001	8.2939997	17.174
563	52	5	0.0582835	12.633	7.0160003	16.586
564	52	5	0.0582835	12.624001	7.6780005	18.313999
565	53	1	0.1266165	17.458	12.817	20.191
566	53	2	-0.3889835	16.837	14.014	19.735001
567	53	3	0.7551165	15.636	14.348001	20.344999
568	53	4	-0.5800835	15.198001	13.575	21.239002
569	53	2	-0.3889835	14.972	15.505	19.951
570	53	1	0.1266165	13.746	15.861	20.561001
571	53	5	0.0582835	16.747	11.99	20.054001
572	53	5	0.0582835	18.454	12.646	19.743999
573	53	5	0.0582835	17.606001	12.984	21.296001
574	53	5	0.0582835	13.873	16.708	21.261002
575	53	5	0.0582835	13.049001	16.087999	19.73
576	53	5	0.0582835	13.366001	15.015	21.203001
577	54	1	0.1266165	15.997	17.485001	13.615
578	54	2	-0.3889835	14.941	16.893	12.866
579	54	3	0.7551165	14.042	16.118999	13.586
580	54	4	-0.5800835	14.231	16.003	14.826001
581	54	2	-0.3889835	12.984	15.509	12.92
582	54	1	0.1266165	12.059001	14.715	13.637
583	54	5	0.0582835	16.546	16.681	14.123
584	54	5	0.0582835	16.627001	18.167	13.015001
585	54	5	0.0582835	15.47	18.107	14.393
586	54	5	0.0582835	11.091	15.237001	13.765
587	54	5	0.0582835	11.967	13.768	13.068
588	54	5	0.0582835	12.427	14.535	14.688
589	55	1	0.1266165	4.4109998	17.705999	0.71399999
590	55	2	-0.3889835	3.684	16.855	1.5930002
591	55	3	0.7551165	2.777	17.481001	2.438
592	55	4	-0.5800835	2.674	18.733999	2.3599999
593	55	2	-0.3889835	2.0309999	16.711	3.325
594	55	1	0.1266165	1.103	17.333	4.1929998
595	55	5	0.0582835	4.9450002	18.448999	1.3230001
596	55	5	0.0582835	5.0469999	17.153	-0
597	55	5	0.0582835	3.6140001	18.236	0.119
598	55	5	0.0582835	0.061000004	17.158001	3.8640001
599	55	5	0.0582835	1.311	16.923	5.2020001
600	55	5	0.0582835	1.227	18.454	4.165
601	56	1	0.1266165	11.635	1.099	8.0740004
602	56	2	-0.3889835	10.548	1.5650001	7.2820001
603	56	3	0.7551165	9.2779999	1.2460001	7.7430005
604	56	4	-0.5800835	9.191	0.57999998	8.809
605	56	2	-0.3889835	8.1669998	1.6680001	7.0200005
606	56	1	0.1266165	6.8639998	1.3530002	7.474
607	56	5	0.0582835	11.551	0.0080000004	8.1610003
608	56	5	0.0582835	12.618	1.459	7.7179999
609	56	5	0.0582835	11.454	1.5549999	9.0889997
610	56	5	0.0582835	6.3610001	2.2379999	7.9070001
611	56	5	0.0582835	6.3299999	0.93800002	6.5960002
612	56	5	0.0582835	6.9130001	0.60900003	8.3210001
613	57	1	0.1266165	12.411001	19.155001	7.7850003
614	57	2	-0.3889835	12.943	19.063999	6.467
615	57	3	0.7551165	14.069	19.834999	6.21
616	57	4	-0.5800835	14.522	20.542	7.1490002
617	57	2	-0.3889835	14.644001	19.797001	4.9429998
618	57	1	0.1266165	15.791	20.576	4.6630001
619	57	5	0.0582835	12.176	20.209	7.9860001
620	57	5	0.0582835	11.577	18.454	7.9660006
621	57	5	0.0582835	13.266	18.844999	8.4510002
622	57	5	0.0582835	16.701	19.948999	4.605
623	57	5	0.0582835	15.572	21.107002	3.7149999
624	57	5	0.0582835	15.993	21.296001	5.507
625	58	1	0.1266165	4.1479998	0.66600001	14.968
626	58	2	-0.3889835	3.7590001	1.982	15.346001
627	58	3	0.7551165	2.473	2.3640001	14.991001
628	58	4	-0.5800835	1.7640001	1.529	14.369
629	58	2	-0.3889835	2.0239999	3.6380002	15.328001
630	58	1	0.1266165	0.71600008	4.0450001	14.973001
631	58	5	0.0582835	4.0380001	0.579	13.878001
632	58	5	0.0582835	5.1410003	0.377	15.356001
633	58	5	0.0582835	3.3840001	-0.001	15.46
634	58	5	0.0582835	0.045000002	4.0619998	15.853
635	58	5	0.0582835	0.82700008	5.039	14.496001
636	58	5	0.0582835	0.24800001	3.296	14.271001
637	59	1	0.1266165	2.4319999	17.857	13.888
638	59	2	-0.3889835	2.8529999	17.728001	15.242
639	59	3	0.7551165	2.267	18.6	16.149
640	59	4	-0.5800835	1.423	19.424	15.708
641	59	2	-0.3889835	2.6320002	18.531	17.49
642	59	1	0.1266165	2.0450001	19.412001	18.43
643	59	5	0.0582835	2.6270003	18.889999	13.568
644	59	5	0.0582835	2.8540001	17.080999	13.225001
645	59	5	0.0582835	1.3160001	17.698999	13.929
646	59	5	0.0582835	1.3050001	18.891001	19.066
647	59	5	0.0582835	2.8870001	19.841	19.009001
648	59	5	0.0582835	1.4530001	20.213001	17.9
649	60	1	0.1266165	12.528	18.304001	11.609
650	60	2	-0.3889835	13.463	19.101	12.328
651	60	3	0.7551165	14.695	19.294001	11.719
652	60	4	-0.5800835	14.885	18.756001	10.597
653	60	2	-0.3889835	15.659	20.063	12.365
654	60	1	0.1266165	16.921	20.271	11.76
655	60	5	0.0582835	12.99	17.325001	11.419
656	60	5	0.0582835	11.534	18.259001	12.088001
657	60	5	0.0582835	12.407	18.84	10.624
658	60	5	0.0582835	17.014	21.298	11.359
659	60	5	0.0582835	17.673	20.042999	12.542
660	60	5	0.0582835	17.041	19.601	10.86
661	61	1	0.1266165	0.96899998	5.2090001	9.3430004
662	61	2	-0.3889835	1.732	5.1240005	8.1440001
663	61	3	0.7551165	1.145	5.6630001	7.0079999
664	61	4	-0.5800835	-0	6.1750002	7.1269999
665	61	2	-0.3889835	1.8330001	5.6160002	5.8000002
666	61	1	0.1266165	1.25	6.1589999	4.631
667	61	5	0.0582835	0.0050000004	4.711	9.1689997
668	61	5	0.0582835	1.5170001	4.8540001	10.234001
669	61	5	0.0582835	0.78299999	6.3130002	9.4759998
670	61	5	0.0582835	1.724	7.119	4.3499999
671	61	5	0.0582835	1.3559999	5.381	3.849
672	61	5	0.0582835	0.167	6.4190001	4.8150001
673	62	1	0.1266165	11.954001	20.764999	4.3509998
674	62	2	-0.3889835	11.922001	19.434	3.848
675	62	3	0.7551165	11.882	19.305	2.4660001
676	62	4	-0.5800835	11.877001	20.361002	1.779
677	62	2	-0.3889835	11.848001	18.033001	1.903
678	62	1	0.1266165	11.807001	17.882999	0.49600002
679	62	5	0.0582835	11.072001	21.296001	3.9680002
680	62	5	0.0582835	12.081001	20.813	5.448
681	62	5	0.0582835	12.876	21.216	3.8829999
682	62	5	0.0582835	12.783001	17.546	0.097000003
683	62	5	0.0582835	10.987	17.166	0.292
684	62	5	0.0582835	11.623	18.879	-0.001
685	63	1	0.1266165	7.914	0.99299997	20.113001
686	63	2	-0.3889835	7.0550003	1.29	19.018
687	63	3	0.7551165	7.6590004	1.3520001	17.768999
688	63	4	-0.5800835	8.8999996	1.145	17.708
689	63	2	-0.3889835	6.8810005	1.638	16.650999
690	63	1	0.1266165	7.4800005	1.706	15.371
691	63	5	0.0582835	8.7080002	1.7510002	20.139
692	63	5	0.0582835	7.3720002	0.86100006	21.066999
693	63	5	0.0582835	8.3739996	-0	19.844
694	63	5	0.0582835	7.2320004	0.81600004	14.761
695	63	5	0.0582835	7.1209998	2.652	14.919
696	63	5	0.0582835	8.6040001	1.687	15.461
697	64	1	0.1266165	16.771999	9.9860001	17.208
698	64	2	-0.3889835	15.406	9.849	17.587
699	64	3	0.7551165	15.167	9.6339998	18.937
700	64	4	-0.5800835	16.162001	9.5760002	19.707001
701	64	2	-0.3889835	13.855	9.4910002	19.379999
702	64	1	0.1266165	13.592	9.2700005	20.753
703	64	5	0.0582835	17.306	9.0799999	17.525
704	64	5	0.0582835	16.903999	10.25	16.143
705	64	5	0.0582835	17.143999	10.855	17.822001
706	64	5	0.0582835	13.184	10.178001	21.237
707	64	5	0.0582835	12.896	8.4090004	20.792999
708	64	5	0.0582835	14.551	9.0559998	21.308001
709	65	1	0.1266165	4.4130001	8.368	5.8540006
710	65	2	-0.3889835	5.4940004	8.8260002	5.0500007
711	65	3	0.7551165	6.1900001	7.8509998	4.3499999
712	65	4	-0.5800835	5.8140001	6.6550007	4.48
713	65	2	-0.3889835	7.2600002	8.2259998	3.543
714	65	1	0.1266165	7.9800005	7.2449999	2.822
715	65	5	0.0582835	4.8060002	7.6290007	6.566
716	65	5	0.0582835	3.8340001	9.1890001	6.3150001
717	65	5	0.0582835	3.7320004	7.8390002	5.1279998
718	65	5	0.0582835	7.7360005	7.2750001	1.743
719	65	5	0.0582835	9.0509996	7.4429998	3.0270002
720	65	5	0.0582835	7.6780005	6.21	3.154
721	66	1	0.1266165	3.427	10.179	0.44999999
722	66	2	-0.3889835	4.6090002	9.4300003	0.186
723	66	3	0.7551165	5.7980003	9.9890003	0.63599998
724	66	4	-0.5800835	5.7360001	11.097001	1.2309999
725	66	2	-0.3889835	6.994	9.3129997	0.41299999
726	66	1	0.1266165	8.2150002	9.868	0.86400002
727	66	5	0.0582835	3.5469999	11.174001	-0
728	66	5	0.0582835	2.5030003	9.6490002	0.15800001
729	66	5	0.0582835	3.4150002	10.291	1.5710001
730	66	5	0.0582835	8.5970001	9.3339996	1.7550001
731	66	5	0.0582835	8.9069996	9.8170004	0
732	66	5	0.0582835	8.0600004	10.929001	1.212
733	67	1	0.1266165	14.486	20.337999	1.2810001
734	67	2	-0.3889835	15.705	19.909	1.875
735	67	3	0.7551165	16.469999	19.024	1.127
736	67	4	-0.5800835	16.028999	18.677	-0.001
737	67	2	-0.3889835	17.676001	18.561001	1.646
738	67	1	0.1266165	18.468	17.659	0.898
739	67	5	0.0582835	13.883	19.447001	1.056
740	67	5	0.0582835	13.962001	21.112001	1.8710001
741	67	5	0.0582835	14.803	20.811003	0.30700001
742	67	5	0.0582835	19.358	18.159	0.47100002
743	67	5	0.0582835	18.728001	16.836	1.5930002
744	67	5	0.0582835	17.896	17.282	0.0020000001
745	68	1	0.1266165	16.993999	9.2950001	12.657
746	68	2	-0.3889835	18.389999	9.5670004	12.601
747	68	3	0.7551165	18.84	10.611	13.398
748	68	4	-0.5800835	17.99	11.224001	14.096001
749	68	2	-0.3889835	20.194	10.934	13.393001
750	68	1	0.1266165	20.671001	11.995	14.199
751	68	5	0.0582835	16.455999	10.213001	12.382001
752	68	5	0.0582835	16.702	8.3990002	12.081001
753	68	5	0.0582835	16.798	9.0780001	13.746
754	68	5	0.0582835	21.222	11.617001	15.081
755	68	5	0.0582835	21.298	12.622	13.534001
756	68	5	0.0582835	19.808001	12.58	14.631
757	69	1	0.1266165	3.4790001	14.24	0.84399998
758	69	2	-0.3889835	3.2479999	14.770001	2.145
759	69	3	0.7551165	2.3610001	14.062	2.944
760	69	4	-0.5800835	1.839	13.022001	2.46
761	69	2	-0.3889835	2.0869999	14.522	4.2280002
762	69	1	0.1266165	1.1849999	13.813	5.0570006
763	69	5	0.0582835	2.5120001	14.169001	0.32800001
764	69	5	0.0582835	4.2610002	14.784001	0.285
765	69	5	0.0582835	3.8610003	13.196	1.034
766	69	5	0.0582835	1.717	13.258	5.8520002
767	69	5	0.0582835	0.48100001	14.571	5.4559999
768	69	5	0.0582835	0.648	13.018	4.4629998
769	70	1	0.1266165	20.769001	16.099001	4.0689998
770	70	2	-0.3889835	20.878	17.503	3.8600001
771	70	3	0.7551165	20.343	18.311001	4.8540001
772	70	4	-0.5800835	19.812	17.745001	5.8460002
773	70	2	-0.3889835	20.413	19.694	4.717
774	70	1	0.1266165	19.872999	20.533001	5.7199998
775	70	5	0.0582835	19.705999	15.855	4.1939998
776	70	5	0.0582835	21.292	15.503	3.3000002
777	70	5	0.0582835	21.295002	15.924	5.0510001
778	70	5	0.0582835	20.670002	21.002003	6.3280005
779	70	5	0.0582835	19.243999	21.275002	5.1880002
780	70	5	0.0582835	19.27	19.927999	6.4569998
781	71	1	0.1266165	7.0560002	16.247999	17.577
782	71	2	-0.3889835	7.2150002	14.907	18.027
783	71	3	0.7551165	6.3400002	14.489001	19.02
784	71	4	-0.5800835	5.4879999	15.318001	19.438
785	71	2	-0.3889835	6.4370003	13.190001	19.509001
786	71	1	0.1266165	5.5539999	12.746	20.522001
787	71	5	0.0582835	7.1570005	16.913	18.445
788	71	5	0.0582835	7.71	16.500999	16.723
789	71	5	0.0582835	5.9899998	16.292999	17.212999
790	71	5	0.0582835	4.7859998	12.060001	20.117001
791	71	5	0.0582835	6.1919999	12.274	21.295002
792	71	5	0.0582835	4.9679999	13.615	20.941
793	72	1	0.1266165	15.051001	12.748001	17.264
794	72	2	-0.3889835	14.844	13.986	17.936001
795	72	3	0.7551165	15.282001	15.122	17.268999
796	72	4	-0.5800835	15.82	14.968	16.139999
797	72	2	-0.3889835	15.113	16.367001	17.865999
798	72	1	0.1266165	15.554	17.535999	17.201
799	72	5	0.0582835	16.125	12.648	17.056
800	72	5	0.0582835	14.601001	11.887001	17.790001
801	72	5	0.0582835	14.506001	12.870001	16.285
802	72	5	0.0582835	14.703001	18.115	16.792999
803	72	5	0.0582835	16.143999	18.105	17.948
804	72	5	0.0582835	16.174999	17.266001	16.299
805	73	1	0.1266165	16.868	5.1040001	4.6420002
806	73	2	-0.3889835	17.139	3.9489999	5.427
807	73	3	0.7551165	16.076	3.076	5.6160002
808	73	4	-0.5800835	14.973001	3.3740001	5.086
809	73	2	-0.3889835	16.268	1.925	6.3740005
810	73	1	0.1266165	15.196	1.024	6.5770001
811	73	5	0.0582835	16.038	5.6490002	5.1130004
812	73	5	0.0582835	17.766001	5.7160001	4.4419999
813	73	5	0.0582835	16.511	4.6919999	3.6559999
814	73	5	0.0582835	15.317	0.10700001	5.9700003
815	73	5	0.0582835	15.173	0.82099998	7.6660004
816	73	5	0.0582835	14.227	1.4780002	6.2179999
817	74	1	0.1266165	6.4190001	10.94	17.141001
818	74	2	-0.3889835	5.8380003	10.546	15.902
819	74	3	0.7551165	4.507	10.157	15.950001
820	74	4	-0.5800835	3.928	10.182	17.069
821	74	2	-0.3889835	3.8729999	9.7589998	14.777001
822	74	1	0.1266165	2.516	9.3579998	14.806
823	74	5	0.0582835	6.316	10.105	17.846001
824	74	5	0.0582835	7.447	11.33	17.035
825	74	5	0.0582835	5.7680006	11.79	17.493999
826	74	5	0.0582835	1.8559999	10.133	14.371
827	74	5	0.0582835	2.473	8.3959999	14.257001
828	74	5	0.0582835	2.1619999	9.2460003	15.871
829	75	1	0.1266165	17.461	17.466999	5.4530001
830	75	2	-0.3889835	18.054001	16.396999	6.1799998
831	75	3	0.7551165	18.099001	15.170001	5.533
832	75	4	-0.5800835	17.617001	15.103001	4.3699999
833	75	2	-0.3889835	18.665001	14.078001	6.1830001
834	75	1	0.1266165	18.719	12.82	5.539
835	75	5	0.0582835	16.438999	17.169001	5.1810002
836	75	5	0.0582835	17.535	18.440001	5.9720001
837	75	5	0.0582835	18.076	17.537001	4.5110002
838	75	5	0.0582835	19.746	12.582001	5.1999998
839	75	5	0.0582835	18.326	12.087001	6.2709999
840	75	5	0.0582835	18.103001	12.835001	4.5939999
841	76	1	0.1266165	11.446	7.1640005	12.528
842	76	2	-0.3889835	11.578001	5.8200002	12.078
843	76	3	0.7551165	12.267	5.6409998	10.887001
844	76	4	-0.5800835	12.713001	6.6669998	10.308
845	76	2	-0.3889835	12.435001	4.3540001	10.386
846	76	1	0.1266165	13.135	4.152	9.1730003
847	76	5	0.0582835	10.947	7.7410002	11.737001
848	76	5	0.0582835	10.975	7.2460003	13.524
849	76	5	0.0582835	12.508	7.5300002	12.624001
850	76	5	0.0582835	14.143	3.7320004	9.3520002
851	76	5	0.0582835	12.493	3.4870002	8.5600004
852	76	5	0.0582835	13.323001	5.1380005	8.658
853	77	1	0.1266165	5.2600002	7.4499998	13.886
854	77	2	-0.3889835	6.0930004	6.5560002	13.156
855	77	3	0.7551165	7.177	6.0310001	13.847
856	77	4	-0.5800835	7.335	6.3850002	15.046
857	77	2	-0.3889835	8.0349998	5.1500006	13.196
858	77	1	0.1266165	9.1459999	4.6059999	13.884
859	77	5	0.0582835	5.8850002	8.2770004	14.251001
860	77	5	0.0582835	4.362	7.7640004	13.325
861	77	5	0.0582835	4.9130001	6.8449998	14.772
862	77	5	0.0582835	8.9779997	3.5440001	14.148001
863	77	5	0.0582835	10.017	4.7519999	13.215
864	77	5	0.0582835	9.2889996	5.1270003	14.874
865	78	1	0.1266165	3.2190001	20.813999	4.645
866	78	2	-0.3889835	4.408	21.152	5.3500004
867	78	3	0.7551165	5.5940003	20.673	4.8109999
868	78	4	-0.5800835	5.5240006	19.987	3.757
869	78	2	-0.3889835	6.7969999	20.965002	5.448
870	78	1	0.1266165	8.0159998	20.485001	4.9130001
871	78	5	0.0582835	3.1640003	19.719	4.5760002
872	78	5	0.0582835	2.3150001	21.296001	5.059
873	78	5	0.0582835	3.3829999	21.23	3.6100001
874	78	5	0.0582835	8.592	21.296001	4.427
875	78	5	0.0582835	8.5559998	20.02	5.7610006
876	78	5	0.0582835	7.8170004	19.742001	4.0869999
877	79	1	0.1266165	11.854	4.204	14.721001
878	79	2	-0.3889835	13.024	3.7170002	15.370001
879	79	3	0.7551165	13.353	2.391	15.121001
880	79	4	-0.5800835	12.600001	1.735	14.352001
881	79	2	-0.3889835	14.484	1.847	15.721001
882	79	1	0.1266165	14.834	0.49700004	15.479001
883	79	5	0.0582835	11.01	3.5650001	15.016001
884	79	5	0.0582835	11.689	5.2850003	14.875001
885	79	5	0.0582835	12.059001	4.0440001	13.624
886	79	5	0.0582835	15.705	0.421	14.801001
887	79	5	0.0582835	15.021	0.050000004	16.475
888	79	5	0.0582835	14.001001	-0.033	14.934
889	80	1	0.1266165	4.6919999	18.427999	11.141
890	80	2	-0.3889835	5.8330007	17.618999	11.4
891	80	3	0.7551165	5.9330006	17.096001	12.682
892	80	4	-0.5800835	5.0180001	17.377001	13.501
893	80	2	-0.3889835	7.0230002	16.295	13.007001
894	80	1	0.1266165	7.1409998	15.754	14.309
895	80	5	0.0582835	4.6890001	19.254999	11.864
896	80	5	0.0582835	4.6100001	18.74	10.084
897	80	5	0.0582835	3.8170002	17.753	11.364001
898	80	5	0.0582835	6.9110003	14.672001	14.320001
899	80	5	0.0582835	8.1750002	15.979	14.638
900	80	5	0.0582835	6.3759999	16.216	14.997
901	81	1	0.1266165	20.262001	7.7740002	6.9790001
902	81	2	-0.3889835	19.370001	6.717	7.3150005
903	81	3	0.7551165	18.034	7.0690002	7.4569998
904	81	4	-0.5800835	17.725	8.2770004	7.2810001
905	81	2	-0.3889835	17.105	6.0869999	7.7859998
906	81	1	0.1266165	15.739001	6.427	7.9349999
907	81	5	0.0582835	20.178001	8.5500002	7.7509999
908	81	5	0.0582835	21.292999	7.4270005	6.7839999
909	81	5	0.0582835	19.854	8.184	6.0120006
910	81	5	0.0582835	15.138	6.0770006	7.0749998
911	81	5	0.0582835	15.419001	5.9780002	8.8970003
912	81	5	0.0582835	15.611	7.5480003	7.9360003
913	82	1	0.1266165	7.8559999	3.4979999	2.605
914	82	2	-0.3889835	8.9809999	4.2659998	2.1919999
915	82	3	0.7551165	10.078	4.2470002	3.0420003
916	82	4	-0.5800835	9.9899998	3.5639999	4.0970001
917	82	2	-0.3889835	11.213001	4.9749999	2.7019999
918	82	1	0.1266165	12.341	4.9689999	3.5569999
919	82	5	0.0582835	7.5450001	3.8559999	3.5969999
920	82	5	0.0582835	7.0480003	3.4679999	1.852
921	82	5	0.0582835	8.2589998	2.451	2.7130003
922	82	5	0.0582835	13.159	4.3499999	3.1430001
923	82	5	0.0582835	12.627	6.0310001	3.6880002
924	82	5	0.0582835	12.085	4.4819999	4.5419998
925	83	1	0.1266165	13.710001	20.341999	15.254001
926	83	2	-0.3889835	12.711	19.393999	15.614
927	83	3	0.7551165	11.707	19.181999	14.68
928	83	4	-0.5800835	11.759	19.836	13.605
929	83	2	-0.3889835	10.696	18.268999	14.964
930	83	1	0.1266165	9.6639996	18.040001	14.024
931	83	5	0.0582835	13.213	21.298	15.042
932	83	5	0.0582835	14.535	20.405003	15.987
933	83	5	0.0582835	14.14	19.940001	14.292001
934	83	5	0.0582835	9.7880001	17.065001	13.516001
935	83	5	0.0582835	8.7150002	18.113001	14.592
936	83	5	0.0582835	9.7110004	18.802999	13.194
937	84	1	0.1266165	8.0480003	15.234001	6.9740005
938	84	2	-0.3889835	7.0510001	14.299001	6.5799999
939	84	3	0.7551165	6.7550001	13.3	7.4970002
940	84	4	-0.5800835	7.3850007	13.3	8.5880003
941	84	2	-0.3889835	5.79	12.349	7.1789999
942	84	1	0.1266165	5.4759998	11.323	8.1009998
943	84	5	0.0582835	8.967	14.677	7.2030001
944	84	5	0.0582835	8.1789999	16.061001	6.2529998
945	84	5	0.0582835	7.6500006	15.678	7.9310007
946	84	5	0.0582835	4.4980001	11.502	8.5880003
947	84	5	0.0582835	5.5040002	10.378	7.5240002
948	84	5	0.0582835	6.2190003	11.315001	8.9490004
949	85	1	0.1266165	17.124001	10.365	8.8590002
950	85	2	-0.3889835	16.927	11.085	7.6480002
951	85	3	0.7551165	15.838001	11.946	7.6200004
952	85	4	-0.5800835	15.122	12.019	8.6540003
953	85	2	-0.3889835	15.584001	12.684001	6.4679999
954	85	1	0.1266165	14.478001	13.566	6.4210005
955	85	5	0.0582835	16.209999	9.7919998	9.0670004
956	85	5	0.0582835	18.054001	9.7679996	8.8640003
957	85	5	0.0582835	17.231001	11.167001	9.6440001
958	85	5	0.0582835	14.8	14.622001	6.4879999
959	85	5	0.0582835	13.946	13.335	5.4770002
960	85	5	0.0582835	13.814	13.412	7.3210001
961	86	6	1	9.2790003	6.9250007	10.558
962	87	6	1	7.9640002	10.565	7.4099998
963	88	6	1	18.584999	4.7010002	6.9190001
964	89	6	1	17.466999	15.357	11.020001
965	90	6	1	4.6240001	13.611001	17.959
966	91	6	1	10.335001	6.3870001	20.464001
967	92	6	1	16.534	17.349001	10.976
968	93	7	-0.082766714	2.1059999	15.677	15.515001
969	93	8	-0.50339971	1.2359999	15.617	16.955999
970	93	7	-0.082766714	0.88300002	16.877001	15.923
971	93	7	-0.082766714	0.89900005	16.972	17.865
972	93	7	-0.082766714	0.025000002	15.305	15.859001
973	93	7	-0.082766714	2.4549999	14.888	16.075001
974	93	7	-0.082766714	2.5690002	14.855	17.577
975	94	7	-0.082766714	17.615999	18.804001	15.674
976	94	8	-0.50339971	18.919001	19.319	14.739
977	94	7	-0.082766714	19.167999	17.971001	15.687
978	94	7	-0.082766714	20.483999	19.351999	15.311001
979	94	7	-0.082766714	18.572001	17.871	14
980	94	7	-0.082766714	17.344	19.665001	15.181
981	94	7	-0.082766714	18.252001	20.829	14.876001
982	95	7	-0.082766714	5.5539999	6.8740005	1.4320002
983	95	8	-0.50339971	4.5560002	6.3829999	2.6970003
984	95	7	-0.082766714	4.6040001	5.3920002	1.358
985	95	7	-0.082766714	3.0360003	5.744	2.4530001
986	95	7	-0.082766714	5.7150002	5.1920004	2.7490001
987	95	7	-0.082766714	5.5800004	7.5929999	2.1670001
988	95	7	-0.082766714	4.4239998	7.9970002	3.046
989	96	7	-0.082766714	8.7650003	20.650002	13.922
990	96	8	-0.50339971	7.8189998	20.659	12.527
991	96	7	-0.082766714	7.3520002	19.614	13.739
992	96	7	-0.082766714	7.2259998	19.267	11.83
993	96	7	-0.082766714	6.7440004	21.295002	13.624
994	96	7	-0.082766714	9.1890001	21.297001	13.243
995	96	7	-0.082766714	9.2069998	21.115999	11.747
996	97	7	-0.082766714	10.596	9.5830002	14.783
997	97	8	-0.50339971	8.9980001	9.7580004	14.279001
998	97	7	-0.082766714	9.2919998	9.9530001	15.908001
999	97	7	-0.082766714	7.7090001	9.1359997	15.132
1000	97	7	-0.082766714	9.3400002	11.317	14.747
1001	97	7	-0.082766714	10.548	9.3889999	13.774
1002	97	7	-0.082766714	9.4049997	8.7159996	13.059
1003	98	7	-0.082766714	9.5539999	5.1329999	6.0100002
1004	98	8	-0.50339971	8.8240004	6.2919998	5.0300002
1005	98	7	-0.082766714	10.098	6.8080001	5.9720001
1006	98	7	-0.082766714	8.5100002	7.8450003	5.5469999
1007	98	7	-0.082766714	10.318001	6.1840005	4.3070002
1008	98	7	-0.082766714	8.7589998	4.697	5.5240006
1009	98	7	-0.082766714	7.4550004	5.3730006	5.1850004
1010	99	7	-0.082766714	1.89	8.1420002	6.2910004
1011	99	8	-0.50339971	0.93500006	8.9440002	7.4229999
1012	99	7	-0.082766714	1.775	7.6110001	7.967
1013	99	7	-0.082766714	-0.0040000002	8.1429996	8.5419998
1014	99	7	-0.082766714	2.451	9.2690001	8.0240002
1015	99	7	-0.082766714	1.3940001	8.908	5.816
1016	99	7	-0.082766714	-0.003	9.3800001	6.1290002
1017	100	1	-0.3481	17.568001	1.556	20.204
1018	100	9	1.0437	18.865	2.651	19.391001
1019	100	1	-0.3481	19.426001	3.957	20.617001
1020	100	1	-0.3481	20.322001	1.558	19.028
1021	100	2	-0.7108	18.169001	3.3720002	18.044001
1022	100	8	0.753312	19.082001	3.569	16.667
1023	100	2	-0.7108	19.607	2.23	15.807
1024	100	9	1.0437	19.525	2.3369999	14.115
1025	100	1	-0.3481	20.4	0.79900002	13.448
1026	100	1	-0.3481	17.789	2.2390001	13.472
1027	100	1	-0.3481	20.406	3.779	13.387001
1028	100	2	-0.7108	19.489	5.0949998	16.122999
1029	100	9	1.0437	18.237	6.2309999	16.018
1030	100	1	-0.3481	17.190001	6.3150001	17.556999
1031	100	1	-0.3481	17.077	5.9140005	14.591
1032	100	1	-0.3481	18.989	7.9360003	15.78
1033	100	10	0.051144	17.65	0.5	19.841999
1034	100	10	0.051144	16.549999	1.8980001	19.957001
1035	100	10	0.051144	17.75	1.483	21.302002
1036	100	10	0.051144	19.705999	4.8499999	20.011002
1037	100	10	0.051144	18.601999	4.2020001	21.310001
1038	100	10	0.051144	20.357	3.641	21.152
1039	100	10	0.051144	21.233002	2.1289999	18.804001
1040	100	10	0.051144	20.063999	0.79900002	18.257999
1041	100	10	0.051144	20.534	0.98000002	19.954
1042	100	10	0.051144	19.698	-0.028999999	13.582
1043	100	10	0.051144	21.296001	0.66900009	14.063
1044	100	10	0.051144	20.699001	0.98500007	12.402
1045	100	10	0.051144	17.825001	2.3599999	12.372
1046	100	10	0.051144	17.402	1.204	13.641
1047	100	10	0.051144	17.105	2.96	13.94
1048	100	10	0.051144	21.396	3.8610003	13.889
1049	100	10	0.051144	19.861	4.7220001	13.358001
1050	100	10	0.051144	20.618999	3.5240002	12.306
1051	100	10	0.051144	16.649	5.3590007	17.635
1052	100	10	0.051144	16.407	7.079	17.35
1053	100	10	0.051144	17.732	6.625	18.451
1054	100	10	0.051144	17.577	5.309	13.811001
1055	100	10	0.051144	16.184	5.3500004	14.960001
1056	100	10	0.051144	16.771999	6.8990002	14.136
1057	100	10	0.051144	18.242001	8.6090002	15.337
1058	100	10	0.051144	19.916	7.8979998	15.175
1059	100	10	0.051144	19.246	8.3739996	16.768

Bonds

1	1	1	2
2	2	1	6
3	3	1	7
4	3	1	8
5	2	2	3
6	3	2	9
7	3	2	10
8	4	3	4
9	5	4	5
10	4	4	6
11	1	11	12
12	2	11	16
13	3	11	17
14	3	11	18
15	2	12	13
16	3	12	19
17	3	12	20
18	4	13	14
19	5	14	15
20	4	14	16
21	1	21	22
22	2	21	26
23	3	21	27
24	3	21	28
25	2	22	23
26	3	22	29
27	3	22	30
28	4	23	24
29	5	24	25
30	4	24	26
31	1	31	32
32	2	31	36
33	3	31	37
34	3	31	38
35	2	32	33
36	3	32	39
37	3	32	40
38	4	33	34
39	5	34	35
40	4	34	36
41	1	41	42
42	2	41	46
43	3	41	47
44	3	41	48
45	2	42	43
46	3	42	49
47	3	42	50
48	4	43	44
49	5	44	45
50	4	44	46
51	1	51	52
52	2	51	56
53	3	51	57
54	3	51	58
55	2	52	53
56	3	52	59
57	3	52	60
58	4	53	54
59	5	54	55
60	4	54	56
61	1	61	62
62	2	61	66
63	3	61	67
64	3	61	68
65	2	62	63
66	3	62	69
67	3	62	70
68	4	63	64
69	5	64	65
70	4	64	66
71	1	71	72
72	2	71	76
73	3	71	77
74	3	71	78
75	2	72	73
76	3	72	79
77	3	72	80
78	4	73	74
79	5	74	75
80	4	74	76
81	1	81	82
82	2	81	86
83	3	81	87
84	3	81	88
85	2	82	83
86	3	82	89
87	3	82	90
88	4	83	84
89	5	84	85
90	4	84	86
91	1	91	92
92	2	91	96
93	3	91	97
94	3	91	98
95	2	92	93
96	3	92	99
97	3	92	100
98	4	93	94
99	5	94	95
100	4	94	96
101	1	101	102
102	2	101	106
103	3	101	107
104	3	101	108
105	2	102	103
106	3	102	109
107	3	102	110
108	4	103	104
109	5	104	105
110	4	104	106
111	1	111	112
112	2	111	116
113	3	111	117
114	3	111	118
115	2	112	113
116	3	112	119
117	3	112	120
118	4	113	114
119	5	114	115
120	4	114	116
121	1	121	122
122	2	121	126
123	3	121	127
124	3	121	128
125	2	122	123
126	3	122	129
127	3	122	130
128	4	123	124
129	5	124	125
130	4	124	126
131	1	131	132
132	2	131	136
133	3	131	137
134	3	131	138
135	2	132	133
136	3	132	139
137	3	132	140
138	4	133	134
139	5	134	135
140	4	134	136
141	1	141	142
142	2	141	146
143	3	141	147
144	3	141	148
145	2	142	143
146	3	142	149
147	3	142	150
148	4	143	144
149	5	144	145
150	4	144	146
151	1	151	152
152	2	151	156
153	3	151	157
154	3	151	158
155	2	152	153
156	3	152	159
157	3	152	160
158	4	153	154
159	5	154	155
160	4	154	156
161	1	161	162
162	2	161	166
163	3	161	167
164	3	161	168
165	2	162	163
166	3	162	169
167	3	162	170
168	4	163	164
169	5	164	165
170	4	164	166
171	1	171	172
172	2	171	176
173	3	171	177
174	3	171	178
175	2	172	173
176	3	172	179
177	3	172	180
178	4	173	174
179	5	174	175
180	4	174	176
181	1	181	182
182	2	181	186
183	3	181	187
184	3	181	188
185	2	182	183
186	3	182	189
187	3	182	190
188	4	183	184
189	5	184	185
190	4	184	186
191	1	191	192
192	2	191	196
193	3	191	197
194	3	191	198
195	2	192	193
196	3	192	199
197	3	192	200
198	4	193	194
199	5	194	195
200	4	194	196
201	1	201	202
202	2	201	206
203	3	201	207
204	3	201	208
205	2	202	203
206	3	202	209
207	3	202	210
208	4	203	204
209	5	204	205
210	4	204	206
211	1	211	212
212	2	211	216
213	3	211	217
214	3	211	218
215	2	212	213
216	3	212	219
217	3	212	220
218	4	213	214
219	5	214	215
220	4	214	216
221	1	221	222
222	2	221	226
223	3	221	227
224	3	221	228
225	2	222	223
226	3	222	229
227	3	222	230
228	4	223	224
229	5	224	225
230	4	224	226
231	1	231	232
232	2	231	236
233	3	231	237
234	3	231	238
235	2	232	233
236	3	232	239
237	3	232	240
238	4	233	234
239	5	234	235
240	4	234	236
241	1	241	242
242	2	241	246
243	3	241	247
244	3	241	248
245	2	242	243
246	3	242	249
247	3	242	250
248	4	243	244
249	5	244	245
250	4	244	246
251	1	251	252
252	2	251	256
253	3	251	257
254	3	251	258
255	2	252	253
256	3	252	259
257	3	252	260
258	4	253	254
259	5	254	255
260	4	254	256
261	1	261	262
262	2	261	266
263	3	261	267
264	3	261	268
265	2	262	263
266	3	262	269
267	3	262	270
268	4	263	264
269	5	264	265
270	4	264	266
271	1	271	272
272	2	271	276
273	3	271	277
274	3	271	278
275	2	272	273
276	3	272	279
277	3	272	280
278	4	273	274
279	5	274	275
280	4	274	276
281	1	281	282
282	2	281	286
283	3	281	287
284	3	281	288
285	2	282	283
286	3	282	289
287	3	282	290
288	4	283	284
289	5	284	285
290	4	284	286
291	1	291	292
292	2	291	296
293	3	291	297
294	3	291	298
295	2	292	293
296	3	292	299
297	3	292	300
298	4	293	294
299	5	294	295
300	4	294	296
301	2	301	302
302	3	301	307
303	3	301	308
304	3	301	309
305	4	302	303
306	5	303	304
307	4	303	305
308	2	305	306
309	3	306	310
310	3	306	311
311	3	306	312
312	2	313	314
313	3	313	319
314	3	313	320
315	3	313	321
316	4	314	315
317	5	315	316
318	4	315	317
319	2	317	318
320	3	318	322
321	3	318	323
322	3	318	324
323	2	325	326
324	3	325	331
325	3	325	332
326	3	325	333
327	4	326	327
328	5	327	328
329	4	327	329
330	2	329	330
331	3	330	334
332	3	330	335
333	3	330	336
334	2	337	338
335	3	337	343
336	3	337	344
337	3	337	345
338	4	338	339
339	5	339	340
340	4	339	341
341	2	341	342
342	3	342	346
343	3	342	347
344	3	342	348
345	2	349	350
346	3	349	355
347	3	349	356
348	3	349	357
349	4	350	351
350	5	351	352
351	4	351	353
352	2	353	354
353	3	354	358
354	3	354	359
355	3	354	360
356	2	361	362
357	3	361	367
358	3	361	368
359	3	361	369
360	4	362	363
361	5	363	364
362	4	363	365
363	2	365	366
364	3	366	370
365	3	366	371
366	3	366	372
367	2	373	374
368	3	373	379
369	3	373	380
370	3	373	381
371	4	374	375
372	5	375	376
373	4	375	377
374	2	377	378
375	3	378	382
376	3	378	383
377	3	378	384
378	2	385	386
379	3	385	391
380	3	385	392
381	3	385	393
382	4	386	387
383	5	387	388
384	4	387	389
385	2	389	390
386	3	390	394
387	3	390	395
388	3	390	396
389	2	397	398
390	3	397	403
391	3	397	404
392	3	397	405
393	4	398	399
394	5	399	400
395	4	399	401
396	2	401	402
397	3	402	406
398	3	402	407
399	3	402	408
400	2	409	410
401	3	409	415
402	3	409	416
403	3	409	417
404	4	410	411
405	5	411	412
406	4	411	413
407	2	413	414
408	3	414	418
409	3	414	419
410	3	414	420
411	2	421	422
412	3	421	427
413	3	421	428
414	3	421	429
415	4	422	423
416	5	423	424
417	4	423	425
418	2	425	426
419	3	426	430
420	3	426	431
421	3	426	432
422	2	433	434
423	3	433	439
424	3	433	440
425	3	433	441
426	4	434	435
427	5	435	436
428	4	435	437
429	2	437	438
430	3	438	442
431	3	438	443
432	3	438	444
433	2	445	446
434	3	445	451
435	3	445	452
436	3	445	453
437	4	446	447
438	5	447	448
439	4	447	449
440	2	449	450
441	3	450	454
442	3	450	455
443	3	450	456
444	2	457	458
445	3	457	463
446	3	457	464
447	3	457	465
448	4	458	459
449	5	459	460
450	4	459	461
451	2	461	462
452	3	462	466
453	3	462	467
454	3	462	468
455	2	469	470
456	3	469	475
457	3	469	476
458	3	469	477
459	4	470	471
460	5	471	472
461	4	471	473
462	2	473	474
463	3	474	478
464	3	474	479
465	3	474	480
466	2	481	482
467	3	481	487
468	3	481	488
469	3	481	489
470	4	482	483
471	5	483	484
472	4	483	485
473	2	485	486
474	3	486	490
475	3	486	491
476	3	486	492
477	2	493	494
478	3	493	499
479	3	493	500
480	3	493	501
481	4	494	495
482	5	495	496
483	4	495	497
484	2	497	498
485	3	498	502
486	3	498	503
487	3	498	504
488	2	505	506
489	3	505	511
490	3	505	512
491	3	505	513
492	4	506	507
493	5	507	508
494	4	507	509
495	2	509	510
496	3	510	514
497	3	510	515
498	3	510	516
499	2	517	518
500	3	517	523
501	3	517	524
502	3	517	525
503	4	518	519
504	5	519	520
505	4	519	521
506	2	521	522
507	3	522	526
508	3	522	527
509	3	522	528
510	2	529	530
511	3	529	535
512	3	529	536
513	3	529	537
514	4	530	531
515	5	531	532
516	4	531	533
517	2	533	534
518	3	534	538
519	3	534	539
520	3	534	540
521	2	541	542
522	3	541	547
523	3	541	548
524	3	541	549
525	4	542	543
526	5	543	544
527	4	543	545
528	2	545	546
529	3	546	550
530	3	546	551
531	3	546	552
532	2	553	554
533	3	553	559
534	3	553	560
535	3	553	561
536	4	554	555
537	5	555	556
538	4	555	557
539	2	557	558
540	3	558	562
541	3	558	563
542	3	558	564
543	2	565	566
544	3	565	571
545	3	565	572
546	3	565	573
547	4	566	567
548	5	567	568
549	4	567	569
550	2	569	570
551	3	570	574
552	3	570	575
553	3	570	576
554	2	577	578
555	3	577	583
556	3	577	584
557	3	577	585
558	4	578	579
559	5	579	580
560	4	579	581
561	2	581	582
562	3	582	586
563	3	582	587
564	3	582	588
565	2	589	590
566	3	589	595
567	3	589	596
568	3	589	597
569	4	590	591
570	5	591	592
571	4	591	593
572	2	593	594
573	3	594	598
574	3	594	599
575	3	594	600
576	2	601	602
577	3	601	607
578	3	601	608
579	3	601	609
580	4	602	603
581	5	603	604
582	4	603	605
583	2	605	606
584	3	606	610
585	3	606	611
586	3	606	612
587	2	613	614
588	3	613	619
589	3	613	620
590	3	613	621
591	4	614	615
592	5	615	616
593	4	615	617
594	2	617	618
595	3	618	622
596	3	618	623
597	3	618	624
598	2	625	626
599	3	625	631
600	3	625	632
601	3	625	633
602	4	626	627
603	5	627	628
604	4	627	629
605	2	629	630
606	3	630	634
607	3	630	635
608	3	630	636
609	2	637	638
610	3	637	643
611	3	637	644
612	3	637	645
613	4	638	639
614	5	639	640
615	4	639	641
616	2	641	642
617	3	642	646
618	3	642	647
619	3	642	648
620	2	649	650
621	3	649	655
622	3	649	656
623	3	649	657
624	4	650	651
625	5	651	652
626	4	651	653
627	2	653	654
628	3	654	658
629	3	654	659
630	3	654	660
631	2	661	662
632	3	661	667
633	3	661	668
634	3	661	669
635	4	662	663
636	5	663	664
637	4	663	665
638	2	665	666
639	3	666	670
640	3	666	671
641	3	666	672
642	2	673	674
643	3	673	679
644	3	673	680
645	3	673	681
646	4	674	675
647	5	675	676
648	4	675	677
649	2	677	678
650	3	678	682
651	3	678	683
652	3	678	684
653	2	685	686
654	3	685	691
655	3	685	692
656	3	685	693
657	4	686	687
658	5	687	688
659	4	687	689
660	2	689	690
661	3	690	694
662	3	690	695
663	3	690	696
664	2	697	698
665	3	697	703
666	3	697	704
667	3	697	705
668	4	698	699
669	5	699	700
670	4	699	701
671	2	701	702
672	3	702	706
673	3	702	707
674	3	702	708
675	2	709	710
676	3	709	715
677	3	709	716
678	3	709	717
679	4	710	711
680	5	711	712
681	4	711	713
682	2	713	714
683	3	714	718
684	3	714	719
685	3	714	720
686	2	721	722
687	3	721	727
688	3	721	728
689	3	721	729
690	4	722	723
691	5	723	724
692	4	723	725
693	2	725	726
694	3	726	730
695	3	726	731
696	3	726	732
697	2	733	734
698	3	733	739
699	3	733	740
700	3	733	741
701	4	734	735
702	5	735	736
703	4	735	737
704	2	737	738
705	3	738	742
706	3	738	743
707	3	738	744
708	2	745	746
709	3	745	751
710	3	745	752
711	3	745	753
712	4	746	747
713	5	747	748
714	4	747	749
715	2	749	750
716	3	750	754
717	3	750	755
718	3	750	756
719	2	757	758
720	3	757	763
721	3	757	764
722	3	757	765
723	4	758	759
724	5	759	760
725	4	759	761
726	2	761	762
727	3	762	766
728	3	762	767
729	3	762	768
730	2	769	770
731	3	769	775
732	3	769	776
733	3	769	777
734	4	770	771
735	5	771	772
736	4	771	773
737	2	773	774
738	3	774	778
739	3	774	779
740	3	774	780
741	2	781	782
742	3	781	787
743	3	781	788
744	3	781	789
745	4	782	783
746	5	783	784
747	4	783	785
748	2	785	786
749	3	786	790
750	3	786	791
751	3	786	792
752	2	793	794
753	3	793	799
754	3	793	800
755	3	793	801
756	4	794	795
757	5	795	796
758	4	795	797
759	2	797	798
760	3	798	802
761	3	798	803
762	3	798	804
763	2	805	806
764	3	805	811
765	3	805	812
766	3	805	813
767	4	806	807
768	5	807	808
769	4	807	809
770	2	809	810
771	3	810	814
772	3	810	815
773	3	810	816
774	2	817	818
775	3	817	823
776	3	817	824
777	3	817	825
778	4	818	819
779	5	819	820
780	4	819	821
781	2	821	822
782	3	822	826
783	3	822	827
784	3	822	828
785	2	829	830
786	3	829	835
787	3	829	836
788	3	829	837
789	4	830	831
790	5	831	832
791	4	831	833
792	2	833	834
793	3	834	838
794	3	834	839
795	3	834	840
796	2	841	842
797	3	841	847
798	3	841	848
799	3	841	849
800	4	842	843
801	5	843	844
802	4	843	845
803	2	845	846
804	3	846	850
805	3	846	851
806	3	846	852
807	2	853	854
808	3	853	859
809	3	853	860
810	3	853	861
811	4	854	855
812	5	855	856
813	4	855	857
814	2	857	858
815	3	858	862
816	3	858	863
817	3	858	864
818	2	865	866
819	3	865	871
820	3	865	872
821	3	865	873
822	4	866	867
823	5	867	868
824	4	867	869
825	2	869	870
826	3	870	874
827	3	870	875
828	3	870	876
829	2	877	878
830	3	877	883
831	3	877	884
832	3	877	885
833	4	878	879
834	5	879	880
835	4	879	881
836	2	881	882
837	3	882	886
838	3	882	887
839	3	882	888
840	2	889	890
841	3	889	895
842	3	889	896
843	3	889	897
844	4	890	891
845	5	891	892
846	4	891	893
847	2	893	894
848	3	894	898
849	3	894	899
850	3	894	900
851	2	901	902
852	3	901	907
853	3	901	908
854	3	901	909
855	4	902	903
856	5	903	904
857	4	903	905
858	2	905	906
859	3	906	910
860	3	906	911
861	3	906	912
862	2	913	914
863	3	913	919
864	3	913	920
865	3	913	921
866	4	914	915
867	5	915	916
868	4	915	917
869	2	917	918
870	3	918	922
871	3	918	923
872	3	918	924
873	2	925	926
874	3	925	931
875	3	925	932
876	3	925	933
877	4	926	927
878	5	927	928
879	4	927	929
880	2	929	930
881	3	930	934
882	3	930	935
883	3	930	936
884	2	937	938
885	3	937	943
886	3	937	944
887	3	937	945
888	4	938	939
889	5	939	940
890	4	939	941
891	2	941	942
892	3	942	946
893	3	942	947
894	3	942	948
895	2	949	950
896	3	949	955
897	3	949	956
898	3	949	957
899	4	950	951
900	5	951	952
901	4	951	953
902	2	953	954
903	3	954	958
904	3	954	959
905	3	954	960
906	6	968	969
907	6	969	970
908	6	969	971
909	6	969	972
910	6	969	973
911	6	969	974
912	6	975	976
913	6	976	977
914	6	976	978
915	6	976	979
916	6	976	980
917	6	976	981
918	6	982	983
919	6	983	984
920	6	983	985
921	6	983	986
922	6	983	987
923	6	983	988
924	6	989	990
925	6	990	991
926	6	990	992
927	6	990	993
928	6	990	994
929	6	990	995
930	6	996	997
931	6	997	998
932	6	997	999
933	6	997	1000
934	6	997	1001
935	6	997	1002
936	6	1003	1004
937	6	1004	1005
938	6	1004	1006
939	6	1004	1007
940	6	1004	1008
941	6	1004	1009
942	6	1010	1011
943	6	1011	1012
944	6	1011	1013
945	6	1011	1014
946	6	1011	1015
947	6	1011	1016
948	7	1017	1018
949	3	1017	1033
950	3	1017	1034
951	3	1017	1035
952	7	1018	1019
953	7	1018	1020
954	8	1018	1021
955	3	1019	1036
956	3	1019	1037
957	3	1019	1038
958	3	1020	1039
959	3	1020	1040
960	3	1020	1041
961	9	1021	1022
962	9	1022	1023
963	9	1022	1028
964	8	1023	1024
965	7	1024	1025
966	7	1024	1026
967	7	1024	1027
968	3	1025	1042
969	3	1025	1043
970	3	1025	1044
971	3	1026	1045
972	3	1026	1046
973	3	1026	1047
974	3	1027	1048
975	3	1027	1049
976	3	1027	1050
977	8	1028	1029
978	7	1029	1030
979	7	1029	1031
980	7	1029	1032
981	3	1030	1051
982	3	1030	1052
983	3	1030	1053
984	3	1031	1054
985	3	1031	1055
986	3	1031	1056
987	3	1032	1057
988	3	1032	1058
989	3	1032	1059

Angles

1	1	1	2	3
2	2	1	2	9
3	2	1	2	10
4	1	1	6	4
5	1	2	1	6
6	2	2	1	7
7	2	2	1	8
8	1	2	3	4
9	2	3	2	9
10	2	3	2	10
11	3	3	4	5
12	1	3	4	6
13	3	5	4	6
14	2	6	1	7
15	2	6	1	8
16	4	7	1	8
17	4	9	2	10
18	1	11	12	13
19	2	11	12	19
20	2	11	12	20
21	1	11	16	14
22	1	12	11	16
23	2	12	11	17
24	2	12	11	18
25	1	12	13	14
26	2	13	12	19
27	2	13	12	20
28	3	13	14	15
29	1	13	14	16
30	3	15	14	16
31	2	16	11	17
32	2	16	11	18
33	4	17	11	18
34	4	19	12	20
35	1	21	22	23
36	2	21	22	29
37	2	21	22	30
38	1	21	26	24
39	1	22	21	26
40	2	22	21	27
41	2	22	21	28
42	1	22	23	24
43	2	23	22	29
44	2	23	22	30
45	3	23	24	25
46	1	23	24	26
47	3	25	24	26
48	2	26	21	27
49	2	26	21	28
50	4	27	21	28
51	4	29	22	30
52	1	31	32	33
53	2	31	32	39
54	2	31	32	40
55	1	31	36	34
56	1	32	31	36
57	2	32	31	37
58	2	32	31	38
59	1	32	33	34
60	2	33	32	39
61	2	33	32	40
62	3	33	34	35
63	1	33	34	36
64	3	35	34	36
65	2	36	31	37
66	2	36	31	38
67	4	37	31	38
68	4	39	32	40
69	1	41	42	43
70	2	41	42	49
71	2	41	42	50
72	1	41	46	44
73	1	42	41	46
74	2	42	41	47
75	2	42	41	48
76	1	42	43	44
77	2	43	42	49
78	2	43	42	50
79	3	43	44	45
80	1	43	44	46
81	3	45	44	46
82	2	46	41	47
83	2	46	41	48
84	4	47	41	48
85	4	49	42	50
86	1	51	52	53
87	2	51	52	59
88	2	51	52	60
89	1	51	56	54
90	1	52	51	56
91	2	52	51	57
92	2	52	51	58
93	1	52	53	54
94	2	53	52	59
95	2	53	52	60
96	3	53	54	55
97	1	53	54	56
98	3	55	54	56
99	2	56	51	57
100	2	56	51	58
101	4	57	51	58
102	4	59	52	60
103	1	61	62	63
104	2	61	62	69
105	2	61	62	70
106	1	61	66	64
107	1	62	61	66
108	2	62	61	67
109	2	62	61	68
110	1	62	63	64
111	2	63	62	69
112	2	63	62	70
113	3	63	64	65
114	1	63	64	66
115	3	65	64	66
116	2	66	61	67
117	2	66	61	68
118	4	67	61	68
119	4	69	62	70
120	1	71	72	73
121	2	71	72	79
122	2	71	72	80
123	1	71	76	74
124	1	72	71	76
125	2	72	71	77
126	2	72	71	78
127	1	72	73	74
128	2	73	72	79
129	2	73	72	80
130	3	73	74	75
131	1	73	74	76
132	3	75	74	76
133	2	76	71	77
134	2	76	71	78
135	4	77	71	78
136	4	79	72	80
137	1	81	82	83
138	2	81	82	89
139	2	81	82	90
140	1	81	86	84
141	1	82	81	86
142	2	82	81	87
143	2	82	81	88
144	1	82	83	84
145	2	83	82	89
146	2	83	82	90
147	3	83	84	85
148	1	83	84	86
149	3	85	84	86
150	2	86	81	87
151	2	86	81	88
152	4	87	81	88
153	4	89	82	90
154	1	91	92	93
155	2	91	92	99
156	2	91	92	100
157	1	91	96	94
158	1	92	91	96
159	2	92	91	97
160	2	92	91	98
161	1	92	93	94
162	2	93	92	99
163	2	93	92	100
164	3	93	94	95
165	1	93	94	96
166	3	95	94	96
167	2	96	91	97
168	2	96	91	98
169	4	97	91	98
170	4	99	92	100
171	1	101	102	103
172	2	101	102	109
173	2	101	102	110
174	1	101	106	104
175	1	102	101	106
176	2	102	101	107
177	2	102	101	108
178	1	102	103	104
179	2	103	102	109
180	2	103	102	110
181	3	103	104	105
182	1	103	104	106
183	3	105	104	106
184	2	106	101	107
185	2	106	101	108
186	4	107	101	108
187	4	109	102	110
188	1	111	112	113
189	2	111	112	119
190	2	111	112	120
191	1	111	116	114
192	1	112	111	116
193	2	112	111	117
194	2	112	111	118
195	1	112	113	114
196	2	113	112	119
197	2	113	112	120
198	3	113	114	115
199	1	113	114	116
200	3	115	114	116
201	2	116	111	117
202	2	116	111	118
203	4	117	111	118
204	4	119	112	120
205	1	121	122	123
206	2	121	122	129
207	2	121	122	130
208	1	121	126	124
209	1	122	121	126
210	2	122	121	127
211	2	122	121	128
212	1	122	123	124
213	2	123	122	129
214	2	123	122	130
215	3	123	124	125
216	1	123	124	126
217	3	125	124	126
218	2	126	121	127
219	2	126	121	128
220	4	127	121	128
221	4	129	122	130
222	1	131	132	133
223	2	131	132	139
224	2	131	132	140
225	1	131	136	134
226	1	132	131	136
227	2	132	131	137
228	2	132	131	138
229	1	132	133	134
230	2	133	132	139
231	2	133	132	140
232	3	133	134	135
233	1	133	134	136
234	3	135	134	136
235	2	136	131	137
236	2	136	131	138
237	4	137	131	138
238	4	139	132	140
239	1	141	142	143
240	2	141	142	149
241	2	141	142	150
242	1	141	146	144
243	1	142	141	146
244	2	142	141	147
245	2	142	141	148
246	1	142	143	144
247	2	143	142	149
248	2	143	142	150
249	3	143	144	145
250	1	143	144	146
251	3	145	144	146
252	2	146	141	147
253	2	146	141	148
254	4	147	141	148
255	4	149	142	150
256	1	151	152	153
257	2	151	152	159
258	2	151	152	160
259	1	151	156	154
260	1	152	151	156
261	2	152	151	157
262	2	152	151	158
263	1	152	153	154
264	2	153	152	159
265	2	153	152	160
266	3	153	154	155
267	1	153	154	156
268	3	155	154	156
269	2	156	151	157
270	2	156	151	158
271	4	157	151	158
272	4	159	152	160
273	1	161	162	163
274	2	161	162	169
275	2	161	162	170
276	1	161	166	164
277	1	162	161	166
278	2	162	161	167
279	2	162	161	168
280	1	162	163	164
281	2	163	162	169
282	2	163	162	170
283	3	163	164	165
284	1	163	164	166
285	3	165	164	166
286	2	166	161	167
287	2	166	161	168
288	4	167	161	168
289	4	169	162	170
290	1	171	172	173
291	2	171	172	179
292	2	171	172	180
293	1	171	176	174
294	1	172	171	176
295	2	172	171	177
296	2	172	171	178
297	1	172	173	174
298	2	173	172	179
299	2	173	172	180
300	3	173	174	175
301	1	173	174	176
302	3	175	174	176
303	2	176	171	177
304	2	176	171	178
305	4	177	171	178
306	4	179	172	180
307	1	181	182	183
308	2	181	182	189
309	2	181	182	190
310	1	181	186	184
311	1	182	181	186
312	2	182	181	187
313	2	182	181	188
314	1	182	183	184
315	2	183	182	189
316	2	183	182	190
317	3	183	184	185
318	1	183	184	186
319	3	185	184	186
320	2	186	181	187
321	2	186	181	188
322	4	187	181	188
323	4	189	182	190
324	1	191	192	193
325	2	191	192	199
326	2	191	192	200
327	1	191	196	194
328	1	192	191	196
329	2	192	191	197
330	2	192	191	198
331	1	192	193	194
332	2	193	192	199
333	2	193	192	200
334	3	193	194	195
335	1	193	194	196
336	3	195	194	196
337	2	196	191	197
338	2	196	191	198
339	4	197	191	198
340	4	199	192	200
341	1	201	202	203
342	2	201	202	209
343	2	201	202	210
344	1	201	206	204
345	1	202	201	206
346	2	202	201	207
347	2	202	201	208
348	1	202	203	204
349	2	203	202	209
350	2	203	202	210
351	3	203	204	205
352	1	203	204	206
353	3	205	204	206
354	2	206	201	207
355	2	206	201	208
356	4	207	201	208
357	4	209	202	210
358	1	211	212	213
359	2	211	212	219
360	2	211	212	220
361	1	211	216	214
362	1	212	211	216
363	2	212	211	217
364	2	212	211	218
365	1	212	213	214
366	2	213	212	219
367	2	213	212	220
368	3	213	214	215
369	1	213	214	216
370	3	215	214	216
371	2	216	211	217
372	2	216	211	218
373	4	217	211	218
374	4	219	212	220
375	1	221	222	223
376	2	221	222	229
377	2	221	222	230
378	1	221	226	224
379	1	222	221	226
380	2	222	221	227
381	2	222	221	228
382	1	222	223	224
383	2	223	222	229
384	2	223	222	230
385	3	223	224	225
386	1	223	224	226
387	3	225	224	226
388	2	226	221	227
389	2	226	221	228
390	4	227	221	228
391	4	229	222	230
392	1	231	232	233
393	2	231	232	239
394	2	231	232	240
395	1	231	236	234
396	1	232	231	236
397	2	232	231	237
398	2	232	231	238
399	1	232	233	234
400	2	233	232	239
401	2	233	232	240
402	3	233	234	235
403	1	233	234	236
404	3	235	234	236
405	2	236	231	237
406	2	236	231	238
407	4	237	231	238
408	4	239	232	240
409	1	241	242	243
410	2	241	242	249
411	2	241	242	250
412	1	241	246	244
413	1	242	241	246
414	2	242	241	247
415	2	242	241	248
416	1	242	243	244
417	2	243	242	249
418	2	243	242	250
419	3	243	244	245
420	1	243	244	246
421	3	245	244	246
422	2	246	241	247
423	2	246	241	248
424	4	247	241	248
425	4	249	242	250
426	1	251	252	253
427	2	251	252	259
428	2	251	252	260
429	1	251	256	254
430	1	252	251	256
431	2	252	251	257
432	2	252	251	258
433	1	252	253	254
434	2	253	252	259
435	2	253	252	260
436	3	253	254	255
437	1	253	254	256
438	3	255	254	256
439	2	256	251	257
440	2	256	251	258
441	4	257	251	258
442	4	259	252	260
443	1	261	262	263
444	2	261	262	269
445	2	261	262	270
446	1	261	266	264
447	1	262	261	266
448	2	262	261	267
449	2	262	261	268
450	1	262	263	264
451	2	263	262	269
452	2	263	262	270
453	3	263	264	265
454	1	263	264	266
455	3	265	264	266
456	2	266	261	267
457	2	266	261	268
458	4	267	261	268
459	4	269	262	270
460	1	271	272	273
461	2	271	272	279
462	2	271	272	280
463	1	271	276	274
464	1	272	271	276
465	2	272	271	277
466	2	272	271	278
467	1	272	273	274
468	2	273	272	279
469	2	273	272	280
470	3	273	274	275
471	1	273	274	276
472	3	275	274	276
473	2	276	271	277
474	2	276	271	278
475	4	277	271	278
476	4	279	272	280
477	1	281	282	283
478	2	281	282	289
479	2	281	282	290
480	1	281	286	284
481	1	282	281	286
482	2	282	281	287
483	2	282	281	288
484	1	282	283	284
485	2	283	282	289
486	2	283	282	290
487	3	283	284	285
488	1	283	284	286
489	3	285	284	286
490	2	286	281	287
491	2	286	281	288
492	4	287	281	288
493	4	289	282	290
494	1	291	292	293
495	2	291	292	299
496	2	291	292	300
497	1	291	296	294
498	1	292	291	296
499	2	292	291	297
500	2	292	291	298
501	1	292	293	294
502	2	293	292	299
503	2	293	292	300
504	3	293	294	295
505	1	293	294	296
506	3	295	294	296
507	2	296	291	297
508	2	296	291	298
509	4	297	291	298
510	4	299	292	300
511	5	301	302	303
512	2	302	301	307
513	2	302	301	308
514	2	302	301	309
515	3	302	303	304
516	6	302	303	305
517	5	303	305	306
518	3	304	303	305
519	2	305	306	310
520	2	305	306	311
521	2	305	306	312
522	4	307	301	308
523	4	307	301	309
524	4	308	301	309
525	4	310	306	311
526	4	310	306	312
527	4	311	306	312
528	5	313	314	315
529	2	314	313	319
530	2	314	313	320
531	2	314	313	321
532	3	314	315	316
533	6	314	315	317
534	5	315	317	318
535	3	316	315	317
536	2	317	318	322
537	2	317	318	323
538	2	317	318	324
539	4	319	313	320
540	4	319	313	321
541	4	320	313	321
542	4	322	318	323
543	4	322	318	324
544	4	323	318	324
545	5	325	326	327
546	2	326	325	331
547	2	326	325	332
548	2	326	325	333
549	3	326	327	328
550	6	326	327	329
551	5	327	329	330
552	3	328	327	329
553	2	329	330	334
554	2	329	330	335
555	2	329	330	336
556	4	331	325	332
557	4	331	325	333
558	4	332	325	333
559	4	334	330	335
560	4	334	330	336
561	4	335	330	336
562	5	337	338	339
563	2	338	337	343
564	2	338	337	344
565	2	338	337	345
566	3	338	339	340
567	6	338	339	341
568	5	339	341	342
569	3	340	339	341
570	2	341	342	346
571	2	341	342	347
572	2	341	342	348
573	4	343	337	344
574	4	343	337	345
575	4	344	337	345
576	4	346	342	347
577	4	346	342	348
578	4	347	342	348
579	5	349	350	351
580	2	350	349	355
581	2	350	349	356
582	2	350	349	357
583	3	350	351	352
584	6	350	351	353
585	5	351	353	354
586	3	352	351	353
587	2	353	354	358
588	2	353	354	359
589	2	353	354	360
590	4	355	349	356
591	4	355	349	357
592	4	356	349	357
593	4	358	354	359
594	4	358	354	360
595	4	359	354	360
596	5	361	362	363
597	2	362	361	367
598	2	362	361	368
599	2	362	361	369
600	3	362	363	364
601	6	362	363	365
602	5	363	365	366
603	3	364	363	365
604	2	365	366	370
605	2	365	366	371
606	2	365	366	372
607	4	367	361	368
608	4	367	361	369
609	4	368	361	369
610	4	370	366	371
611	4	370	366	372
612	4	371	366	372
613	5	373	374	375
614	2	374	373	379
615	2	374	373	380
616	2	374	373	381
617	3	374	375	376
618	6	374	375	377
619	5	375	377	378
620	3	376	375	377
621	2	377	378	382
622	2	377	378	383
623	2	377	378	384
624	4	379	373	380
625	4	379	373	381
626	4	380	373	381
627	4	382	378	383
628	4	382	378	384
629	4	383	378	384
630	5	385	386	387
631	2	386	385	391
632	2	386	385	392
633	2	386	385	393
634	3	386	387	388
635	6	386	387	389
636	5	387	389	390
637	3	388	387	389
638	2	389	390	394
639	2	389	390	395
640	2	389	390	396
641	4	391	385	392
642	4	391	385	393
643	4	392	385	393
644	4	394	390	395
645	4	394	390	396
646	4	395	390	396
647	5	397	398	399
648	2	398	397	403
649	2	398	397	404
650	2	398	397	405
651	3	398	399	400
652	6	398	399	401
653	5	399	401	402
654	3	400	399	401
655	2	401	402	406
656	2	401	402	407
657	2	401	402	408
658	4	403	397	404
659	4	403	397	405
660	4	404	397	405
661	4	406	402	407
662	4	406	402	408
663	4	407	402	408
664	5	409	410	411
665	2	410	409	415
666	2	410	409	416
667	2	410	409	417
668	3	410	411	412
669	6	410	411	413
670	5	411	413	414
671	3	412	411	413
672	2	413	414	418
673	2	413	414	419
674	2	413	414	420
675	4	415	409	416
676	4	415	409	417
677	4	416	409	417
678	4	418	414	419
679	4	418	414	420
680	4	419	414	420
681	5	421	422	423
682	2	422	421	427
683	2	422	421	428
684	2	422	421	429
685	3	422	423	424
686	6	422	423	425
687	5	423	425	426
688	3	424	423	425
689	2	425	426	430
690	2	425	426	431
691	2	425	426	432
692	4	427	421	428
693	4	427	421	429
694	4	428	421	429
695	4	430	426	431
696	4	430	426	432
697	4	431	426	432
698	5	433	434	435
699	2	434	433	439
700	2	434	433	440
701	2	434	433	441
702	3	434	435	436
703	6	434	435	437
704	5	435	437	438
705	3	436	435	437
706	2	437	438	442
707	2	437	438	443
708	2	437	438	444
709	4	439	433	440
710	4	439	433	441
711	4	440	433	441
712	4	442	438	443
713	4	442	438	444
714	4	443	438	444
715	5	445	446	447
716	2	446	445	451
717	2	446	445	452
718	2	446	445	453
719	3	446	447	448
720	6	446	447	449
721	5	447	449	450
722	3	448	447	449
723	2	449	450	454
724	2	449	450	455
725	2	449	450	456
726	4	451	445	452
727	4	451	445	453
728	4	452	445	453
729	4	454	450	455
730	4	454	450	456
731	4	455	450	456
732	5	457	458	459
733	2	458	457	463
734	2	458	457	464
735	2	458	457	465
736	3	458	459	460
737	6	458	459	461
738	5	459	461	462
739	3	460	459	461
740	2	461	462	466
741	2	461	462	467
742	2	461	462	468
743	4	463	457	464
744	4	463	457	465
745	4	464	457	465
746	4	466	462	467
747	4	466	462	468
748	4	467	462	468
749	5	469	470	471
750	2	470	469	475
751	2	470	469	476
752	2	470	469	477
753	3	470	471	472
754	6	470	471	473
755	5	471	473	474
756	3	472	471	473
757	2	473	474	478
758	2	473	474	479
759	2	473	474	480
760	4	475	469	476
761	4	475	469	477
762	4	476	469	477
763	4	478	474	479
764	4	478	474	480
765	4	479	474	480
766	5	481	482	483
767	2	482	481	487
768	2	482	481	488
769	2	482	481	489
770	3	482	483	484
771	6	482	483	485
772	5	483	485	486
773	3	484	483	485
774	2	485	486	490
775	2	485	486	491
776	2	485	486	492
777	4	487	481	488
778	4	487	481	489
779	4	488	481	489
780	4	490	486	491
781	4	490	486	492
782	4	491	486	492
783	5	493	494	495
784	2	494	493	499
785	2	494	493	500
786	2	494	493	501
787	3	494	495	496
788	6	494	495	497
789	5	495	497	498
790	3	496	495	497
791	2	497	498	502
792	2	497	498	503
793	2	497	498	504
794	4	499	493	500
795	4	499	493	501
796	4	500	493	501
797	4	502	498	503
798	4	502	498	504
799	4	503	498	504
800	5	505	506	507
801	2	506	505	511
802	2	506	505	512
803	2	506	505	513
804	3	506	507	508
805	6	506	507	509
806	5	507	509	510
807	3	508	507	509
808	2	509	510	514
809	2	509	510	515
810	2	509	510	516
811	4	511	505	512
812	4	511	505	513
813	4	512	505	513
814	4	514	510	515
815	4	514	510	516
816	4	515	510	516
817	5	517	518	519
818	2	518	517	523
819	2	518	517	524
820	2	518	517	525
821	3	518	519	520
822	6	518	519	521
823	5	519	521	522
824	3	520	519	521
825	2	521	522	526
826	2	521	522	527
827	2	521	522	528
828	4	523	517	524
829	4	523	517	525
830	4	524	517	525
831	4	526	522	527
832	4	526	522	528
833	4	527	522	528
834	5	529	530	531
835	2	530	529	535
836	2	530	529	536
837	2	530	529	537
838	3	530	531	532
839	6	530	531	533
840	5	531	533	534
841	3	532	531	533
842	2	533	534	538
843	2	533	534	539
844	2	533	534	540
845	4	535	529	536
846	4	535	529	537
847	4	536	529	537
848	4	538	534	539
849	4	538	534	540
850	4	539	534	540
851	5	541	542	543
852	2	542	541	547
853	2	542	541	548
854	2	542	541	549
855	3	542	543	544
856	6	542	543	545
857	5	543	545	546
858	3	544	543	545
859	2	545	546	550
860	2	545	546	551
861	2	545	546	552
862	4	547	541	548
863	4	547	541	549
864	4	548	541	549
865	4	550	546	551
866	4	550	546	552
867	4	551	546	552
868	5	553	554	555
869	2	554	553	559
870	2	554	553	560
871	2	554	553	561
872	3	554	555	556
873	6	554	555	557
874	5	555	557	558
875	3	556	555	557
876	2	557	558	562
877	2	557	558	563
878	2	557	558	564
879	4	559	553	560
880	4	559	553	561
881	4	560	553	561
882	4	562	558	563
883	4	562	558	564
884	4	563	558	564
885	5	565	566	567
886	2	566	565	571
887	2	566	565	572
888	2	566	565	573
889	3	566	567	568
890	6	566	567	569
891	5	567	569	570
892	3	568	567	569
893	2	569	570	574
894	2	569	570	575
895	2	569	570	576
896	4	571	565	572
897	4	571	565	573
898	4	572	565	573
899	4	574	570	575
900	4	574	570	576
901	4	575	570	576
902	5	577	578	579
903	2	578	577	583
904	2	578	577	584
905	2	578	577	585
906	3	578	579	580
907	6	578	579	581
908	5	579	581	582
909	3	580	579	581
910	2	581	582	586
911	2	581	582	587
912	2	581	582	588
913	4	583	577	584
914	4	583	577	585
915	4	584	577	585
916	4	586	582	587
917	4	586	582	588
918	4	587	582	588
919	5	589	590	591
920	2	590	589	595
921	2	590	589	596
922	2	590	589	597
923	3	590	591	592
924	6	590	591	593
925	5	591	593	594
926	3	592	591	593
927	2	593	594	598
928	2	593	594	599
929	2	593	594	600
930	4	595	589	596
931	4	595	589	597
932	4	596	589	597
933	4	598	594	599
934	4	598	594	600
935	4	599	594	600
936	5	601	602	603
937	2	602	601	607
938	2	602	601	608
939	2	602	601	609
940	3	602	603	604
941	6	602	603	605
942	5	603	605	606
943	3	604	603	605
944	2	605	606	610
945	2	605	606	611
946	2	605	606	612
947	4	607	601	608
948	4	607	601	609
949	4	608	601	609
950	4	610	606	611
951	4	610	606	612
952	4	611	606	612
953	5	613	614	615
954	2	614	613	619
955	2	614	613	620
956	2	614	613	621
957	3	614	615	616
958	6	614	615	617
959	5	615	617	618
960	3	616	615	617
961	2	617	618	622
962	2	617	618	623
963	2	617	618	624
964	4	619	613	620
965	4	619	613	621
966	4	620	613	621
967	4	622	618	623
968	4	622	618	624
969	4	623	618	624
970	5	625	626	627
971	2	626	625	631
972	2	626	625	632
973	2	626	625	633
974	3	626	627	628
975	6	626	627	629
976	5	627	629	630
977	3	628	627	629
978	2	629	630	634
979	2	629	630	635
980	2	629	630	636
981	4	631	625	632
982	4	631	625	633
983	4	632	625	633
984	4	634	630	635
985	4	634	630	636
986	4	635	630	636
987	5	637	638	639
988	2	638	637	643
989	2	638	637	644
990	2	638	637	645
991	3	638	639	640
992	6	638	639	641
993	5	639	641	642
994	3	640	639	641
995	2	641	642	646
996	2	641	642	647
997	2	641	642	648
998	4	643	637	644
999	4	643	637	645
1000	4	644	637	645
1001	4	646	642	647
1002	4	646	642	648
1003	4	647	642	648
1004	5	649	650	651
1005	2	650	649	655
1006	2	650	649	656
1007	2	650	649	657
1008	3	650	651	652
1009	6	650	651	653
1010	5	651	653	654
1011	3	652	651	653
1012	2	653	654	658
1013	2	653	654	659
1014	2	653	654	660
1015	4	655	649	656
1016	4	655	649	657
1017	4	656	649	657
1018	4	658	654	659
1019	4	658	654	660
1020	4	659	654	660
1021	5	661	662	663
1022	2	662	661	667
1023	2	662	661	668
1024	2	662	661	669
1025	3	662	663	664
1026	6	662	663	665
1027	5	663	665	666
1028	3	664	663	665
1029	2	665	666	670
1030	2	665	666	671
1031	2	665	666	672
1032	4	667	661	668
1033	4	667	661	669
1034	4	668	661	669
1035	4	670	666	671
1036	4	670	666	672
1037	4	671	666	672
1038	5	673	674	675
1039	2	674	673	679
1040	2	674	673	680
1041	2	674	673	681
1042	3	674	675	676
1043	6	674	675	677
1044	5	675	677	678
1045	3	676	675	677
1046	2	677	678	682
1047	2	677	678	683
1048	2	677	678	684
1049	4	679	673	680
1050	4	679	673	681
1051	4	680	673	681
1052	4	682	678	683
1053	4	682	678	684
1054	4	683	678	684
1055	5	685	686	687
1056	2	686	685	691
1057	2	686	685	692
1058	2	686	685	693
1059	3	686	687	688
1060	6	686	687	689
1061	5	687	689	690
1062	3	688	687	689
1063	2	689	690	694
1064	2	689	690	695
1065	2	689	690	696
1066	4	691	685	692
1067	4	691	685	693
1068	4	692	685	693
1069	4	694	690	695
1070	4	694	690	696
1071	4	695	690	696
1072	5	697	698	699
1073	2	698	697	703
1074	2	698	697	704
1075	2	698	697	705
1076	3	698	699	700
1077	6	698	699	701
1078	5	699	701	702
1079	3	700	699	701
1080	2	701	702	706
1081	2	701	702	707
1082	2	701	702	708
1083	4	703	697	704
1084	4	703	697	705
1085	4	704	697	705
1086	4	706	702	707
1087	4	706	702	708
1088	4	707	702	708
1089	5	709	710	711
1090	2	710	709	715
1091	2	710	709	716
1092	2	710	709	717
1093	3	710	711	712
1094	6	710	711	713
1095	5	711	713	714
1096	3	712	711	713
1097	2	713	714	718
1098	2	713	714	719
1099	2	713	714	720
1100	4	715	709	716
1101	4	715	709	717
1102	4	716	709	717
1103	4	718	714	719
1104	4	718	714	720
1105	4	719	714	720
1106	5	721	722	723
1107	2	722	721	727
1108	2	722	721	728
1109	2	722	721	729
1110	3	722	723	724
1111	6	722	723	725
1112	5	723	725	726
1113	3	724	723	725
1114	2	725	726	730
1115	2	725	726	731
1116	2	725	726	732
1117	4	727	721	728
1118	4	727	721	729
1119	4	728	721	729
1120	4	730	726	731
1121	4	730	726	732
1122	4	731	726	732
1123	5	733	734	735
1124	2	734	733	739
1125	2	734	733	740
1126	2	734	733	741
1127	3	734	735	736
1128	6	734	735	737
1129	5	735	737	738
1130	3	736	735	737
1131	2	737	738	742
1132	2	737	738	743
1133	2	737	738	744
1134	4	739	733	740
1135	4	739	733	741
1136	4	740	733	741
1137	4	742	738	743
1138	4	742	738	744
1139	4	743	738	744
1140	5	745	746	747
1141	2	746	745	751
1142	2	746	745	752
1143	2	746	745	753
1144	3	746	747	748
1145	6	746	747	749
1146	5	747	749	750
1147	3	748	747	749
1148	2	749	750	754
1149	2	749	750	755
1150	2	749	750	756
1151	4	751	745	752
1152	4	751	745	753
1153	4	752	745	753
1154	4	754	750	755
1155	4	754	750	756
1156	4	755	750	756
1157	5	757	758	759
1158	2	758	757	763
1159	2	758	757	764
1160	2	758	757	765
1161	3	758	759	760
1162	6	758	759	761
1163	5	759	761	762
1164	3	760	759	761
1165	2	761	762	766
1166	2	761	762	767
1167	2	761	762	768
1168	4	763	757	764
1169	4	763	757	765
1170	4	764	757	765
1171	4	766	762	767
1172	4	766	762	768
1173	4	767	762	768
1174	5	769	770	771
1175	2	770	769	775
1176	2	770	769	776
1177	2	770	769	777
1178	3	770	771	772
1179	6	770	771	773
1180	5	771	773	774
1181	3	772	771	773
1182	2	773	774	778
1183	2	773	774	779
1184	2	773	774	780
1185	4	775	769	776
1186	4	775	769	777
1187	4	776	769	777
1188	4	778	774	779
1189	4	778	774	780
1190	4	779	774	780
1191	5	781	782	783
1192	2	782	781	787
1193	2	782	781	788
1194	2	782	781	789
1195	3	782	783	784
1196	6	782	783	785
1197	5	783	785	786
1198	3	784	783	785
1199	2	785	786	790
1200	2	785	786	791
1201	2	785	786	792
1202	4	787	781	788
1203	4	787	781	789
1204	4	788	781	789
1205	4	790	786	791
1206	4	790	786	792
1207	4	791	786	792
1208	5	793	794	795
1209	2	794	793	799
1210	2	794	793	800
1211	2	794	793	801
1212	3	794	795	796
1213	6	794	795	797
1214	5	795	797	798
1215	3	796	795	797
1216	2	797	798	802
1217	2	797	798	803
1218	2	797	798	804
1219	4	799	793	800
1220	4	799	793	801
1221	4	800	793	801
1222	4	802	798	803
1223	4	802	798	804
1224	4	803	798	804
1225	5	805	806	807
1226	2	806	805	811
1227	2	806	805	812
1228	2	806	805	813
1229	3	806	807	808
1230	6	806	807	809
1231	5	807	809	810
1232	3	808	807	809
1233	2	809	810	814
1234	2	809	810	815
1235	2	809	810	816
1236	4	811	805	812
1237	4	811	805	813
1238	4	812	805	813
1239	4	814	810	815
1240	4	814	810	816
1241	4	815	810	816
1242	5	817	818	819
1243	2	818	817	823
1244	2	818	817	824
1245	2	818	817	825
1246	3	818	819	820
1247	6	818	819	821
1248	5	819	821	822
1249	3	820	819	821
1250	2	821	822	826
1251	2	821	822	827
1252	2	821	822	828
1253	4	823	817	824
1254	4	823	817	825
1255	4	824	817	825
1256	4	826	822	827
1257	4	826	822	828
1258	4	827	822	828
1259	5	829	830	831
1260	2	830	829	835
1261	2	830	829	836
1262	2	830	829	837
1263	3	830	831	832
1264	6	830	831	833
1265	5	831	833	834
1266	3	832	831	833
1267	2	833	834	838
1268	2	833	834	839
1269	2	833	834	840
1270	4	835	829	836
1271	4	835	829	837
1272	4	836	829	837
1273	4	838	834	839
1274	4	838	834	840
1275	4	839	834	840
1276	5	841	842	843
1277	2	842	841	847
1278	2	842	841	848
1279	2	842	841	849
1280	3	842	843	844
1281	6	842	843	845
1282	5	843	845	846
1283	3	844	843	845
1284	2	845	846	850
1285	2	845	846	851
1286	2	845	846	852
1287	4	847	841	848
1288	4	847	841	849
1289	4	848	841	849
1290	4	850	846	851
1291	4	850	846	852
1292	4	851	846	852
1293	5	853	854	855
1294	2	854	853	859
1295	2	854	853	860
1296	2	854	853	861
1297	3	854	855	856
1298	6	854	855	857
1299	5	855	857	858
1300	3	856	855	857
1301	2	857	858	862
1302	2	857	858	863
1303	2	857	858	864
1304	4	859	853	860
1305	4	859	853	861
1306	4	860	853	861
1307	4	862	858	863
1308	4	862	858	864
1309	4	863	858	864
1310	5	865	866	867
1311	2	866	865	871
1312	2	866	865	872
1313	2	866	865	873
1314	3	866	867	868
1315	6	866	867	869
1316	5	867	869	870
1317	3	868	867	869
1318	2	869	870	874
1319	2	869	870	875
1320	2	869	870	876
1321	4	871	865	872
1322	4	871	865	873
1323	4	872	865	873
1324	4	874	870	875
1325	4	874	870	876
1326	4	875	870	876
1327	5	877	878	879
1328	2	878	877	883
1329	2	878	877	884
1330	2	878	877	885
1331	3	878	879	880
1332	6	878	879	881
1333	5	879	881	882
1334	3	880	879	881
1335	2	881	882	886
1336	2	881	882	887
1337	2	881	882	888
1338	4	883	877	884
1339	4	883	877	885
1340	4	884	877	885
1341	4	886	882	887
1342	4	886	882	888
1343	4	887	882	888
1344	5	889	890	891
1345	2	890	889	895
1346	2	890	889	896
1347	2	890	889	897
1348	3	890	891	892
1349	6	890	891	893
1350	5	891	893	894
1351	3	892	891	893
1352	2	893	894	898
1353	2	893	894	899
1354	2	893	894	900
1355	4	895	889	896
1356	4	895	889	897
1357	4	896	889	897
1358	4	898	894	899
1359	4	898	894	900
1360	4	899	894	900
1361	5	901	902	903
1362	2	902	901	907
1363	2	902	901	908
1364	2	902	901	909
1365	3	902	903	904
1366	6	902	903	905
1367	5	903	905	906
1368	3	904	903	905
1369	2	905	906	910
1370	2	905	906	911
1371	2	905	906	912
1372	4	907	901	908
1373	4	907	901	909
1374	4	908	901	909
1375	4	910	906	911
1376	4	910	906	912
1377	4	911	906	912
1378	5	913	914	915
1379	2	914	913	919
1380	2	914	913	920
1381	2	914	913	921
1382	3	914	915	916
1383	6	914	915	917
1384	5	915	917	918
1385	3	916	915	917
1386	2	917	918	922
1387	2	917	918	923
1388	2	917	918	924
1389	4	919	913	920
1390	4	919	913	921
1391	4	920	913	921
1392	4	922	918	923
1393	4	922	918	924
1394	4	923	918	924
1395	5	925	926	927
1396	2	926	925	931
1397	2	926	925	932
1398	2	926	925	933
1399	3	926	927	928
1400	6	926	927	929
1401	5	927	929	930
1402	3	928	927	929
1403	2	929	930	934
1404	2	929	930	935
1405	2	929	930	936
1406	4	931	925	932
1407	4	931	925	933
1408	4	932	925	933
1409	4	934	930	935
1410	4	934	930	936
1411	4	935	930	936
1412	5	937	938	939
1413	2	938	937	943
1414	2	938	937	944
1415	2	938	937	945
1416	3	938	939	940
1417	6	938	939	941
1418	5	939	941	942
1419	3	940	939	941
1420	2	941	942	946
1421	2	941	942	947
1422	2	941	942	948
1423	4	943	937	944
1424	4	943	937	945
1425	4	944	937	945
1426	4	946	942	947
1427	4	946	942	948
1428	4	947	942	948
1429	5	949	950	951
1430	2	950	949	955
1431	2	950	949	956
1432	2	950	949	957
1433	3	950	951	952
1434	6	950	951	953
1435	5	951	953	954
1436	3	952	951	953
1437	2	953	954	958
1438	2	953	954	959
1439	2	953	954	960
1440	4	955	949	956
1441	4	955	949	957
1442	4	956	949	957
1443	4	958	954	959
1444	4	958	954	960
1445	4	959	954	960
1446	7	968	969	970
1447	7	968	969	971
1448	7	968	969	972
1449	7	968	969	973
1450	7	968	969	974
1451	7	970	969	971
1452	7	970	969	972
1453	7	970	969	973
1454	7	970	969	974
1455	7	971	969	972
1456	7	971	969	973
1457	7	971	969	974
1458	7	972	969	973
1459	7	972	969	974
1460	7	973	969	974
1461	7	975	976	977
1462	7	975	976	978
1463	7	975	976	979
1464	7	975	976	980
1465	7	975	976	981
1466	7	977	976	978
1467	7	977	976	979
1468	7	977	976	980
1469	7	977	976	981
1470	7	978	976	979
1471	7	978	976	980
1472	7	978	976	981
1473	7	979	976	980
1474	7	979	976	981
1475	7	980	976	981
1476	7	982	983	984
1477	7	982	983	985
1478	7	982	983	986
1479	7	982	983	987
1480	7	982	983	988
1481	7	984	983	985
1482	7	984	983	986
1483	7	984	983	987
1484	7	984	983	988
1485	7	985	983	986
1486	7	985	983	987
1487	7	985	983	988
1488	7	986	983	987
1489	7	986	983	988
1490	7	987	983	988
1491	7	989	990	991
1492	7	989	990	992
1493	7	989	990	993
1494	7	989	990	994
1495	7	989	990	995
1496	7	991	990	992
1497	7	991	990	993
1498	7	991	990	994
1499	7	991	990	995
1500	7	992	990	993
1501	7	992	990	994
1502	7	992	990	995
1503	7	993	990	994
1504	7	993	990	995
1505	7	994	990	995
1506	7	996	997	998
1507	7	996	997	999
1508	7	996	997	1000
1509	7	996	997	1001
1510	7	996	997	1002
1511	7	998	997	999
1512	7	998	997	1000
1513	7	998	997	1001
1514	7	998	997	1002
1515	7	999	997	1000
1516	7	999	997	1001
1517	7	999	997	1002
1518	7	1000	997	1001
1519	7	1000	997	1002
1520	7	1001	997	1002
1521	7	1003	1004	1005
1522	7	1003	1004	1006
1523	7	1003	1004	1007
1524	7	1003	1004	1008
1525	7	1003	1004	1009
1526	7	1005	1004	1006
1527	7	1005	1004	1007
1528	7	1005	1004	1008
1529	7	1005	1004	1009
1530	7	1006	1004	1007
1531	7	1006	1004	1008
1532	7	1006	1004	1009
1533	7	1007	1004	1008
1534	7	1007	1004	1009
1535	7	1008	1004	1009
1536	7	1010	1011	1012
1537	7	1010	1011	1013
1538	7	1010	1011	1014
1539	7	1010	1011	1015
1540	7	1010	1011	1016
1541	7	1012	1011	1013
1542	7	1012	1011	1014
1543	7	1012	1011	1015
1544	7	1012	1011	1016
1545	7	1013	1011	1014
1546	7	1013	1011	1015
1547	7	1013	1011	1016
1548	7	1014	1011	1015
1549	7	1014	1011	1016
1550	7	1015	1011	1016
1551	8	1017	1018	1019
1552	8	1017	1018	1020
1553	9	1017	1018	1021
1554	10	1018	1017	1033
1555	10	1018	1017	1034
1556	10	1018	1017	1035
1557	10	1018	1019	1036
1558	10	1018	1019	1037
1559	10	1018	1019	1038
1560	10	1018	1020	1039
1561	10	1018	1020	1040
1562	10	1018	1020	1041
1563	11	1018	1021	1022
1564	8	1019	1018	1020
1565	9	1019	1018	1021
1566	9	1020	1018	1021
1567	7	1021	1022	1023
1568	7	1021	1022	1028
1569	11	1022	1023	1024
1570	11	1022	1028	1029
1571	7	1023	1022	1028
1572	9	1023	1024	1025
1573	9	1023	1024	1026
1574	9	1023	1024	1027
1575	10	1024	1025	1042
1576	10	1024	1025	1043
1577	10	1024	1025	1044
1578	10	1024	1026	1045
1579	10	1024	1026	1046
1580	10	1024	1026	1047
1581	10	1024	1027	1048
1582	10	1024	1027	1049
1583	10	1024	1027	1050
1584	8	1025	1024	1026
1585	8	1025	1024	1027
1586	8	1026	1024	1027
1587	9	1028	1029	1030
1588	9	1028	1029	1031
1589	9	1028	1029	1032
1590	10	1029	1030	1051
1591	10	1029	1030	1052
1592	10	1029	1030	1053
1593	10	1029	1031	1054
1594	10	1029	1031	1055
1595	10	1029	1031	1056
1596	10	1029	1032	1057
1597	10	1029	1032	1058
1598	10	1029	1032	1059
1599	8	1030	1029	1031
1600	8	1030	1029	1032
1601	8	1031	1029	1032
1602	4	1033	1017	1034
1603	4	1033	1017	1035
1604	4	1034	1017	1035
1605	4	1036	1019	1037
1606	4	1036	1019	1038
1607	4	1037	1019	1038
1608	4	1039	1020	1040
1609	4	1039	1020	1041
1610	4	1040	1020	1041
1611	4	1042	1025	1043
1612	4	1042	1025	1044
1613	4	1043	1025	1044
1614	4	1045	1026	1046
1615	4	1045	1026	1047
1616	4	1046	1026	1047
1617	4	1048	1027	1049
1618	4	1048	1027	1050
1619	4	1049	1027	1050
1620	4	1051	1030	1052
1621	4	1051	1030	1053
1622	4	1052	1030	1053
1623	4	1054	1031	1055
1624	4	1054	1031	1056
1625	4	1055	1031	1056
1626	4	1057	1032	1058
1627	4	1057	1032	1059
1628	4	1058	1032	1059

Dihedrals

1	1	1	2	3	4
2	2	1	2	3	4
3	3	1	6	4	3
4	3	1	6	4	5
5	1	2	1	6	4
6	2	2	1	6	4
7	3	2	3	4	5
8	3	2	3	4	6
9	4	3	2	1	6
10	5	3	2	1	6
11	6	3	2	1	7
12	7	3	2	1	7
13	6	3	2	1	8
14	7	3	2	1	8
15	8	4	3	2	9
16	8	4	3	2	10
17	8	4	6	1	7
18	8	4	6	1	8
19	6	6	1	2	9
20	7	6	1	2	9
21	6	6	1	2	10
22	7	6	1	2	10
23	9	7	1	2	9
24	9	7	1	2	10
25	9	8	1	2	9
26	9	8	1	2	10
27	1	11	12	13	14
28	2	11	12	13	14
29	3	11	16	14	13
30	3	11	16	14	15
31	1	12	11	16	14
32	2	12	11	16	14
33	3	12	13	14	15
34	3	12	13	14	16
35	4	13	12	11	16
36	5	13	12	11	16
37	6	13	12	11	17
38	7	13	12	11	17
39	6	13	12	11	18
40	7	13	12	11	18
41	8	14	13	12	19
42	8	14	13	12	20
43	8	14	16	11	17
44	8	14	16	11	18
45	6	16	11	12	19
46	7	16	11	12	19
47	6	16	11	12	20
48	7	16	11	12	20
49	9	17	11	12	19
50	9	17	11	12	20
51	9	18	11	12	19
52	9	18	11	12	20
53	1	21	22	23	24
54	2	21	22	23	24
55	3	21	26	24	23
56	3	21	26	24	25
57	1	22	21	26	24
58	2	22	21	26	24
59	3	22	23	24	25
60	3	22	23	24	26
61	4	23	22	21	26
62	5	23	22	21	26
63	6	23	22	21	27
64	7	23	22	21	27
65	6	23	22	21	28
66	7	23	22	21	28
67	8	24	23	22	29
68	8	24	23	22	30
69	8	24	26	21	27
70	8	24	26	21	28
71	6	26	21	22	29
72	7	26	21	22	29
73	6	26	21	22	30
74	7	26	21	22	30
75	9	27	21	22	29
76	9	27	21	22	30
77	9	28	21	22	29
78	9	28	21	22	30
79	1	31	32	33	34
80	2	31	32	33	34
81	3	31	36	34	33
82	3	31	36	34	35
83	1	32	31	36	34
84	2	32	31	36	34
85	3	32	33	34	35
86	3	32	33	34	36
87	4	33	32	31	36
88	5	33	32	31	36
89	6	33	32	31	37
90	7	33	32	31	37
91	6	33	32	31	38
92	7	33	32	31	38
93	8	34	33	32	39
94	8	34	33	32	40
95	8	34	36	31	37
96	8	34	36	31	38
97	6	36	31	32	39
98	7	36	31	32	39
99	6	36	31	32	40
100	7	36	31	32	40
101	9	37	31	32	39
102	9	37	31	32	40
103	9	38	31	32	39
104	9	38	31	32	40
105	1	41	42	43	44
106	2	41	42	43	44
107	3	41	46	44	43
108	3	41	46	44	45
109	1	42	41	46	44
110	2	42	41	46	44
111	3	42	43	44	45
112	3	42	43	44	46
113	4	43	42	41	46
114	5	43	42	41	46
115	6	43	42	41	47
116	7	43	42	41	47
117	6	43	42	41	48
118	7	43	42	41	48
119	8	44	43	42	49
120	8	44	43	42	50
121	8	44	46	41	47
122	8	44	46	41	48
123	6	46	41	42	49
124	7	46	41	42	49
125	6	46	41	42	50
126	7	46	41	42	50
127	9	47	41	42	49
128	9	47	41	42	50
129	9	48	41	42	49
130	9	48	41	42	50
131	1	51	52	53	54
132	2	51	52	53	54
133	3	51	56	54	53
134	3	51	56	54	55
135	1	52	51	56	54
136	2	52	51	56	54
137	3	52	53	54	55
138	3	52	53	54	56
139	4	53	52	51	56
140	5	53	52	51	56
141	6	53	52	51	57
142	7	53	52	51	57
143	6	53	52	51	58
144	7	53	52	51	58
145	8	54	53	52	59
146	8	54	53	52	60
147	8	54	56	51	57
148	8	54	56	51	58
149	6	56	51	52	59
150	7	56	51	52	59
151	6	56	51	52	60
152	7	56	51	52	60
153	9	57	51	52	59
154	9	57	51	52	60
155	9	58	51	52	59
156	9	58	51	52	60
157	1	61	62	63	64
158	2	61	62	63	64
159	3	61	66	64	63
160	3	61	66	64	65
161	1	62	61	66	64
162	2	62	61	66	64
163	3	62	63	64	65
164	3	62	63	64	66
165	4	63	62	61	66
166	5	63	62	61	66
167	6	63	62	61	67
168	7	63	62	61	67
169	6	63	62	61	68
170	7	63	62	61	68
171	8	64	63	62	69
172	8	64	63	62	70
173	8	64	66	61	67
174	8	64	66	61	68
175	6	66	61	62	69
176	7	66	61	62	69
177	6	66	61	62	70
178	7	66	61	62	70
179	9	67	61	62	69
180	9	67	61	62	70
181	9	68	61	62	69
182	9	68	61	62	70
183	1	71	72	73	74
184	2	71	72	73	74
185	3	71	76	74	73
186	3	71	76	74	75
187	1	72	71	76	74
188	2	72	71	76	74
189	3	72	73	74	75
190	3	72	73	74	76
191	4	73	72	71	76
192	5	73	72	71	76
193	6	73	72	71	77
194	7	73	72	71	77
195	6	73	72	71	78
196	7	73	72	71	78
197	8	74	73	72	79
198	8	74	73	72	80
199	8	74	76	71	77
200	8	74	76	71	78
201	6	76	71	72	79
202	7	76	71	72	79
203	6	76	71	72	80
204	7	76	71	72	80
205	9	77	71	72	79
206	9	77	71	72	80
207	9	78	71	72	79
208	9	78	71	72	80
209	1	81	82	83	84
210	2	81	82	83	84
211	3	81	86	84	83
212	3	81	86	84	85
213	1	82	81	86	84
214	2	82	81	86	84
215	3	82	83	84	85
216	3	82	83	84	86
217	4	83	82	81	86
218	5	83	82	81	86
219	6	83	82	81	87
220	7	83	82	81	87
221	6	83	82	81	88
222	7	83	82	81	88
223	8	84	83	82	89
224	8	84	83	82	90
225	8	84	86	81	87
226	8	84	86	81	88
227	6	86	81	82	89
228	7	86	81	82	89
229	6	86	81	82	90
230	7	86	81	82	90
231	9	87	81	82	89
232	9	87	81	82	90
233	9	88	81	82	89
234	9	88	81	82	90
235	1	91	92	93	94
236	2	91	92	93	94
237	3	91	96	94	93
238	3	91	96	94	95
239	1	92	91	96	94
240	2	92	91	96	94
241	3	92	93	94	95
242	3	92	93	94	96
243	4	93	92	91	96
244	5	93	92	91	96
245	6	93	92	91	97
246	7	93	92	91	97
247	6	93	92	91	98
248	7	93	92	91	98
249	8	94	93	92	99
250	8	94	93	92	100
251	8	94	96	91	97
252	8	94	96	91	98
253	6	96	91	92	99
254	7	96	91	92	99
255	6	96	91	92	100
256	7	96	91	92	100
257	9	97	91	92	99
258	9	97	91	92	100
259	9	98	91	92	99
260	9	98	91	92	100
261	1	101	102	103	104
262	2	101	102	103	104
263	3	101	106	104	103
264	3	101	106	104	105
265	1	102	101	106	104
266	2	102	101	106	104
267	3	102	103	104	105
268	3	102	103	104	106
269	4	103	102	101	106
270	5	103	102	101	106
271	6	103	102	101	107
272	7	103	102	101	107
273	6	103	102	101	108
274	7	103	102	101	108
275	8	104	103	102	109
276	8	104	103	102	110
277	8	104	106	101	107
278	8	104	106	101	108
279	6	106	101	102	109
280	7	106	101	102	109
281	6	106	101	102	110
282	7	106	101	102	110
283	9	107	101	102	109
284	9	107	101	102	110
285	9	108	101	102	109
286	9	108	101	102	110
287	1	111	112	113	114
288	2	111	112	113	114
289	3	111	116	114	113
290	3	111	116	114	115
291	1	112	111	116	114
292	2	112	111	116	114
293	3	112	113	114	115
294	3	112	113	114	116
295	4	113	112	111	116
296	5	113	112	111	116
297	6	113	112	111	117
298	7	113	112	111	117
299	6	113	112	111	118
300	7	113	112	111	118
301	8	114	113	112	119
302	8	114	113	112	120
303	8	114	116	111	117
304	8	114	116	111	118
305	6	116	111	112	119
306	7	116	111	112	119
307	6	116	111	112	120
308	7	116	111	112	120
309	9	117	111	112	119
310	9	117	111	112	120
311	9	118	111	112	119
312	9	118	111	112	120
313	1	121	122	123	124
314	2	121	122	123	124
315	3	121	126	124	123
316	3	121	126	124	125
317	1	122	121	126	124
318	2	122	121	126	124
319	3	122	123	124	125
320	3	122	123	124	126
321	4	123	122	121	126
322	5	123	122	121	126
323	6	123	122	121	127
324	7	123	122	121	127
325	6	123	122	121	128
326	7	123	122	121	128
327	8	124	123	122	129
328	8	124	123	122	130
329	8	124	126	121	127
330	8	124	126	121	128
331	6	126	121	122	129
332	7	126	121	122	129
333	6	126	121	122	130
334	7	126	121	122	130
335	9	127	121	122	129
336	9	127	121	122	130
337	9	128	121	122	129
338	9	128	121	122	130
339	1	131	132	133	134
340	2	131	132	133	134
341	3	131	136	134	133
342	3	131	136	134	135
343	1	132	131	136	134
344	2	132	131	136	134
345	3	132	133	134	135
346	3	132	133	134	136
347	4	133	132	131	136
348	5	133	132	131	136
349	6	133	132	131	137
350	7	133	132	131	137
351	6	133	132	131	138
352	7	133	132	131	138
353	8	134	133	132	139
354	8	134	133	132	140
355	8	134	136	131	137
356	8	134	136	131	138
357	6	136	131	132	139
358	7	136	131	132	139
359	6	136	131	132	140
360	7	136	131	132	140
361	9	137	131	132	139
362	9	137	131	132	140
363	9	138	131	132	139
364	9	138	131	132	140
365	1	141	142	143	144
366	2	141	142	143	144
367	3	141	146	144	143
368	3	141	146	144	145
369	1	142	141	146	144
370	2	142	141	146	144
371	3	142	143	144	145
372	3	142	143	144	146
373	4	143	142	141	146
374	5	143	142	141	146
375	6	143	142	141	147
376	7	143	142	141	147
377	6	143	142	141	148
378	7	143	142	141	148
379	8	144	143	142	149
380	8	144	143	142	150
381	8	144	146	141	147
382	8	144	146	141	148
383	6	146	141	142	149
384	7	146	141	142	149
385	6	146	141	142	150
386	7	146	141	142	150
387	9	147	141	142	149
388	9	147	141	142	150
389	9	148	141	142	149
390	9	148	141	142	150
391	1	151	152	153	154
392	2	151	152	153	154
393	3	151	156	154	153
394	3	151	156	154	155
395	1	152	151	156	154
396	2	152	151	156	154
397	3	152	153	154	155
398	3	152	153	154	156
399	4	153	152	151	156
400	5	153	152	151	156
401	6	153	152	151	157
402	7	153	152	151	157
403	6	153	152	151	158
404	7	153	152	151	158
405	8	154	153	152	159
406	8	154	153	152	160
407	8	154	156	151	157
408	8	154	156	151	158
409	6	156	151	152	159
410	7	156	151	152	159
411	6	156	151	152	160
412	7	156	151	152	160
413	9	157	151	152	159
414	9	157	151	152	160
415	9	158	151	152	159
416	9	158	151	152	160
417	1	161	162	163	164
418	2	161	162	163	164
419	3	161	166	164	163
420	3	161	166	164	165
421	1	162	161	166	164
422	2	162	161	166	164
423	3	162	163	164	165
424	3	162	163	164	166
425	4	163	162	161	166
426	5	163	162	161	166
427	6	163	162	161	167
428	7	163	162	161	167
429	6	163	162	161	168
430	7	163	162	161	168
431	8	164	163	162	169
432	8	164	163	162	170
433	8	164	166	161	167
434	8	164	166	161	168
435	6	166	161	162	169
436	7	166	161	162	169
437	6	166	161	162	170
438	7	166	161	162	170
439	9	167	161	162	169
440	9	167	161	162	170
441	9	168	161	162	169
442	9	168	161	162	170
443	1	171	172	173	174
444	2	171	172	173	174
445	3	171	176	174	173
446	3	171	176	174	175
447	1	172	171	176	174
448	2	172	171	176	174
449	3	172	173	174	175
450	3	172	173	174	176
451	4	173	172	171	176
452	5	173	172	171	176
453	6	173	172	171	177
454	7	173	172	171	177
455	6	173	172	171	178
456	7	173	172	171	178
457	8	174	173	172	179
458	8	174	173	172	180
459	8	174	176	171	177
460	8	174	176	171	178
461	6	176	171	172	179
462	7	176	171	172	179
463	6	176	171	172	180
464	7	176	171	172	180
465	9	177	171	172	179
466	9	177	171	172	180
467	9	178	171	172	179
468	9	178	171	172	180
469	1	181	182	183	184
470	2	181	182	183	184
471	3	181	186	184	183
472	3	181	186	184	185
473	1	182	181	186	184
474	2	182	181	186	184
475	3	182	183	184	185
476	3	182	183	184	186
477	4	183	182	181	186
478	5	183	182	181	186
479	6	183	182	181	187
480	7	183	182	181	187
481	6	183	182	181	188
482	7	183	182	181	188
483	8	184	183	182	189
484	8	184	183	182	190
485	8	184	186	181	187
486	8	184	186	181	188
487	6	186	181	182	189
488	7	186	181	182	189
489	6	186	181	182	190
490	7	186	181	182	190
491	9	187	181	182	189
492	9	187	181	182	190
493	9	188	181	182	189
494	9	188	181	182	190
495	1	191	192	193	194
496	2	191	192	193	194
497	3	191	196	194	193
498	3	191	196	194	195
499	1	192	191	196	194
500	2	192	191	196	194
501	3	192	193	194	195
502	3	192	193	194	196
503	4	193	192	191	196
504	5	193	192	191	196
505	6	193	192	191	197
506	7	193	192	191	197
507	6	193	192	191	198
508	7	193	192	191	198
509	8	194	193	192	199
510	8	194	193	192	200
511	8	194	196	191	197
512	8	194	196	191	198
513	6	196	191	192	199
514	7	196	191	192	199
515	6	196	191	192	200
516	7	196	191	192	200
517	9	197	191	192	199
518	9	197	191	192	200
519	9	198	191	192	199
520	9	198	191	192	200
521	1	201	202	203	204
522	2	201	202	203	204
523	3	201	206	204	203
524	3	201	206	204	205
525	1	202	201	206	204
526	2	202	201	206	204
527	3	202	203	204	205
528	3	202	203	204	206
529	4	203	202	201	206
530	5	203	202	201	206
531	6	203	202	201	207
532	7	203	202	201	207
533	6	203	202	201	208
534	7	203	202	201	208
535	8	204	203	202	209
536	8	204	203	202	210
537	8	204	206	201	207
538	8	204	206	201	208
539	6	206	201	202	209
540	7	206	201	202	209
541	6	206	201	202	210
542	7	206	201	202	210
543	9	207	201	202	209
544	9	207	201	202	210
545	9	208	201	202	209
546	9	208	201	202	210
547	1	211	212	213	214
548	2	211	212	213	214
549	3	211	216	214	213
550	3	211	216	214	215
551	1	212	211	216	214
552	2	212	211	216	214
553	3	212	213	214	215
554	3	212	213	214	216
555	4	213	212	211	216
556	5	213	212	211	216
557	6	213	212	211	217
558	7	213	212	211	217
559	6	213	212	211	218
560	7	213	212	211	218
561	8	214	213	212	219
562	8	214	213	212	220
563	8	214	216	211	217
564	8	214	216	211	218
565	6	216	211	212	219
566	7	216	211	212	219
567	6	216	211	212	220
568	7	216	211	212	220
569	9	217	211	212	219
570	9	217	211	212	220
571	9	218	211	212	219
572	9	218	211	212	220
573	1	221	222	223	224
574	2	221	222	223	224
575	3	221	226	224	223
576	3	221	226	224	225
577	1	222	221	226	224
578	2	222	221	226	224
579	3	222	223	224	225
580	3	222	223	224	226
581	4	223	222	221	226
582	5	223	222	221	226
583	6	223	222	221	227
584	7	223	222	221	227
585	6	223	222	221	228
586	7	223	222	221	228
587	8	224	223	222	229
588	8	224	223	222	230
589	8	224	226	221	227
590	8	224	226	221	228
591	6	226	221	222	229
592	7	226	221	222	229
593	6	226	221	222	230
594	7	226	221	222	230
595	9	227	221	222	229
596	9	227	221	222	230
597	9	228	221	222	229
598	9	228	221	222	230
599	1	231	232	233	234
600	2	231	232	233	234
601	3	231	236	234	233
602	3	231	236	234	235
603	1	232	231	236	234
604	2	232	231	236	234
605	3	232	233	234	235
606	3	232	233	234	236
607	4	233	232	231	236
608	5	233	232	231	236
609	6	233	232	231	237
610	7	233	232	231	237
611	6	233	232	231	238
612	7	233	232	231	238
613	8	234	233	232	239
614	8	234	233	232	240
615	8	234	236	231	237
616	8	234	236	231	238
617	6	236	231	232	239
618	7	236	231	232	239
619	6	236	231	232	240
620	7	236	231	232	240
621	9	237	231	232	239
622	9	237	231	232	240
623	9	238	231	232	239
624	9	238	231	232	240
625	1	241	242	243	244
626	2	241	242	243	244
627	3	241	246	244	243
628	3	241	246	244	245
629	1	242	241	246	244
630	2	242	241	246	244
631	3	242	243	244	245
632	3	242	243	244	246
633	4	243	242	241	246
634	5	243	242	241	246
635	6	243	242	241	247
636	7	243	242	241	247
637	6	243	242	241	248
638	7	243	242	241	248
639	8	244	243	242	249
640	8	244	243	242	250
641	8	244	246	241	247
642	8	244	246	241	248
643	6	246	241	242	249
644	7	246	241	242	249
645	6	246	241	242	250
646	7	246	241	242	250
647	9	247	241	242	249
648	9	247	241	242	250
649	9	248	241	242	249
650	9	248	241	242	250
651	1	251	252	253	254
652	2	251	252	253	254
653	3	251	256	254	253
654	3	251	256	254	255
655	1	252	251	256	254
656	2	252	251	256	254
657	3	252	253	254	255
658	3	252	253	254	256
659	4	253	252	251	256
660	5	253	252	251	256
661	6	253	252	251	257
662	7	253	252	251	257
663	6	253	252	251	258
664	7	253	252	251	258
665	8	254	253	252	259
666	8	254	253	252	260
667	8	254	256	251	257
668	8	254	256	251	258
669	6	256	251	252	259
670	7	256	251	252	259
671	6	256	251	252	260
672	7	256	251	252	260
673	9	257	251	252	259
674	9	257	251	252	260
675	9	258	251	252	259
676	9	258	251	252	260
677	1	261	262	263	264
678	2	261	262	263	264
679	3	261	266	264	263
680	3	261	266	264	265
681	1	262	261	266	264
682	2	262	261	266	264
683	3	262	263	264	265
684	3	262	263	264	266
685	4	263	262	261	266
686	5	263	262	261	266
687	6	263	262	261	267
688	7	263	262	261	267
689	6	263	262	261	268
690	7	263	262	261	268
691	8	264	263	262	269
692	8	264	263	262	270
693	8	264	266	261	267
694	8	264	266	261	268
695	6	266	261	262	269
696	7	266	261	262	269
697	6	266	261	262	270
698	7	266	261	262	270
699	9	267	261	262	269
700	9	267	261	262	270
701	9	268	261	262	269
702	9	268	261	262	270
703	1	271	272	273	274
704	2	271	272	273	274
705	3	271	276	274	273
706	3	271	276	274	275
707	1	272	271	276	274
708	2	272	271	276	274
709	3	272	273	274	275
710	3	272	273	274	276
711	4	273	272	271	276
712	5	273	272	271	276
713	6	273	272	271	277
714	7	273	272	271	277
715	6	273	272	271	278
716	7	273	272	271	278
717	8	274	273	272	279
718	8	274	273	272	280
719	8	274	276	271	277
720	8	274	276	271	278
721	6	276	271	272	279
722	7	276	271	272	279
723	6	276	271	272	280
724	7	276	271	272	280
725	9	277	271	272	279
726	9	277	271	272	280
727	9	278	271	272	279
728	9	278	271	272	280
729	1	281	282	283	284
730	2	281	282	283	284
731	3	281	286	284	283
732	3	281	286	284	285
733	1	282	281	286	284
734	2	282	281	286	284
735	3	282	283	284	285
736	3	282	283	284	286
737	4	283	282	281	286
738	5	283	282	281	286
739	6	283	282	281	287
740	7	283	282	281	287
741	6	283	282	281	288
742	7	283	282	281	288
743	8	284	283	282	289
744	8	284	283	282	290
745	8	284	286	281	287
746	8	284	286	281	288
747	6	286	281	282	289
748	7	286	281	282	289
749	6	286	281	282	290
750	7	286	281	282	290
751	9	287	281	282	289
752	9	287	281	282	290
753	9	288	281	282	289
754	9	288	281	282	290
755	1	291	292	293	294
756	2	291	292	293	294
757	3	291	296	294	293
758	3	291	296	294	295
759	1	292	291	296	294
760	2	292	291	296	294
761	3	292	293	294	295
762	3	292	293	294	296
763	4	293	292	291	296
764	5	293	292	291	296
765	6	293	292	291	297
766	7	293	292	291	297
767	6	293	292	291	298
768	7	293	292	291	298
769	8	294	293	292	299
770	8	294	293	292	300
771	8	294	296	291	297
772	8	294	296	291	298
773	6	296	291	292	299
774	7	296	291	292	299
775	6	296	291	292	300
776	7	296	291	292	300
777	9	297	291	292	299
778	9	297	291	292	300
779	9	298	291	292	299
780	9	298	291	292	300
781	10	301	302	303	304
782	11	301	302	303	304
783	12	301	302	303	305
784	12	302	303	305	306
785	8	303	302	301	307
786	8	303	302	301	308
787	8	303	302	301	309
788	8	303	305	306	310
789	8	303	305	306	311
790	8	303	305	306	312
791	10	304	303	305	306
792	11	304	303	305	306
793	10	313	314	315	316
794	11	313	314	315	316
795	12	313	314	315	317
796	12	314	315	317	318
797	8	315	314	313	319
798	8	315	314	313	320
799	8	315	314	313	321
800	8	315	317	318	322
801	8	315	317	318	323
802	8	315	317	318	324
803	10	316	315	317	318
804	11	316	315	317	318
805	10	325	326	327	328
806	11	325	326	327	328
807	12	325	326	327	329
808	12	326	327	329	330
809	8	327	326	325	331
810	8	327	326	325	332
811	8	327	326	325	333
812	8	327	329	330	334
813	8	327	329	330	335
814	8	327	329	330	336
815	10	328	327	329	330
816	11	328	327	329	330
817	10	337	338	339	340
818	11	337	338	339	340
819	12	337	338	339	341
820	12	338	339	341	342
821	8	339	338	337	343
822	8	339	338	337	344
823	8	339	338	337	345
824	8	339	341	342	346
825	8	339	341	342	347
826	8	339	341	342	348
827	10	340	339	341	342
828	11	340	339	341	342
829	10	349	350	351	352
830	11	349	350	351	352
831	12	349	350	351	353
832	12	350	351	353	354
833	8	351	350	349	355
834	8	351	350	349	356
835	8	351	350	349	357
836	8	351	353	354	358
837	8	351	353	354	359
838	8	351	353	354	360
839	10	352	351	353	354
840	11	352	351	353	354
841	10	361	362	363	364
842	11	361	362	363	364
843	12	361	362	363	365
844	12	362	363	365	366
845	8	363	362	361	367
846	8	363	362	361	368
847	8	363	362	361	369
848	8	363	365	366	370
849	8	363	365	366	371
850	8	363	365	366	372
851	10	364	363	365	366
852	11	364	363	365	366
853	10	373	374	375	376
854	11	373	374	375	376
855	12	373	374	375	377
856	12	374	375	377	378
857	8	375	374	373	379
858	8	375	374	373	380
859	8	375	374	373	381
860	8	375	377	378	382
861	8	375	377	378	383
862	8	375	377	378	384
863	10	376	375	377	378
864	11	376	375	377	378
865	10	385	386	387	388
866	11	385	386	387	388
867	12	385	386	387	389
868	12	386	387	389	390
869	8	387	386	385	391
870	8	387	386	385	392
871	8	387	386	385	393
872	8	387	389	390	394
873	8	387	389	390	395
874	8	387	389	390	396
875	10	388	387	389	390
876	11	388	387	389	390
877	10	397	398	399	400
878	11	397	398	399	400
879	12	397	398	399	401
880	12	398	399	401	402
881	8	399	398	397	403
882	8	399	398	397	404
883	8	399	398	397	405
884	8	399	401	402	406
885	8	399	401	402	407
886	8	399	401	402	408
887	10	400	399	401	402
888	11	400	399	401	402
889	10	409	410	411	412
890	11	409	410	411	412
891	12	409	410	411	413
892	12	410	411	413	414
893	8	411	410	409	415
894	8	411	410	409	416
895	8	411	410	409	417
896	8	411	413	414	418
897	8	411	413	414	419
898	8	411	413	414	420
899	10	412	411	413	414
900	11	412	411	413	414
901	10	421	422	423	424
902	11	421	422	423	424
903	12	421	422	423	425
904	12	422	423	425	426
905	8	423	422	421	427
906	8	423	422	421	428
907	8	423	422	421	429
908	8	423	425	426	430
909	8	423	425	426	431
910	8	423	425	426	432
911	10	424	423	425	426
912	11	424	423	425	426
913	10	433	434	435	436
914	11	433	434	435	436
915	12	433	434	435	437
916	12	434	435	437	438
917	8	435	434	433	439
918	8	435	434	433	440
919	8	435	434	433	441
920	8	435	437	438	442
921	8	435	437	438	443
922	8	435	437	438	444
923	10	436	435	437	438
924	11	436	435	437	438
925	10	445	446	447	448
926	11	445	446	447	448
927	12	445	446	447	449
928	12	446	447	449	450
929	8	447	446	445	451
930	8	447	446	445	452
931	8	447	446	445	453
932	8	447	449	450	454
933	8	447	449	450	455
934	8	447	449	450	456
935	10	448	447	449	450
936	11	448	447	449	450
937	10	457	458	459	460
938	11	457	458	459	460
939	12	457	458	459	461
940	12	458	459	461	462
941	8	459	458	457	463
942	8	459	458	457	464
943	8	459	458	457	465
944	8	459	461	462	466
945	8	459	461	462	467
946	8	459	461	462	468
947	10	460	459	461	462
948	11	460	459	461	462
949	10	469	470	471	472
950	11	469	470	471	472
951	12	469	470	471	473
952	12	470	471	473	474
953	8	471	470	469	475
954	8	471	470	469	476
955	8	471	470	469	477
956	8	471	473	474	478
957	8	471	473	474	479
958	8	471	473	474	480
959	10	472	471	473	474
960	11	472	471	473	474
961	10	481	482	483	484
962	11	481	482	483	484
963	12	481	482	483	485
964	12	482	483	485	486
965	8	483	482	481	487
966	8	483	482	481	488
967	8	483	482	481	489
968	8	483	485	486	490
969	8	483	485	486	491
970	8	483	485	486	492
971	10	484	483	485	486
972	11	484	483	485	486
973	10	493	494	495	496
974	11	493	494	495	496
975	12	493	494	495	497
976	12	494	495	497	498
977	8	495	494	493	499
978	8	495	494	493	500
979	8	495	494	493	501
980	8	495	497	498	502
981	8	495	497	498	503
982	8	495	497	498	504
983	10	496	495	497	498
984	11	496	495	497	498
985	10	505	506	507	508
986	11	505	506	507	508
987	12	505	506	507	509
988	12	506	507	509	510
989	8	507	506	505	511
990	8	507	506	505	512
991	8	507	506	505	513
992	8	507	509	510	514
993	8	507	509	510	515
994	8	507	509	510	516
995	10	508	507	509	510
996	11	508	507	509	510
997	10	517	518	519	520
998	11	517	518	519	520
999	12	517	518	519	521
1000	12	518	519	521	522
1001	8	519	518	517	523
1002	8	519	518	517	524
1003	8	519	518	517	525
1004	8	519	521	522	526
1005	8	519	521	522	527
1006	8	519	521	522	528
1007	10	520	519	521	522
1008	11	520	519	521	522
1009	10	529	530	531	532
1010	11	529	530	531	532
1011	12	529	530	531	533
1012	12	530	531	533	534
1013	8	531	530	529	535
1014	8	531	530	529	536
1015	8	531	530	529	537
1016	8	531	533	534	538
1017	8	531	533	534	539
1018	8	531	533	534	540
1019	10	532	531	533	534
1020	11	532	531	533	534
1021	10	541	542	543	544
1022	11	541	542	543	544
1023	12	541	542	543	545
1024	12	542	543	545	546
1025	8	543	542	541	547
1026	8	543	542	541	548
1027	8	543	542	541	549
1028	8	543	545	546	550
1029	8	543	545	546	551
1030	8	543	545	546	552
1031	10	544	543	545	546
1032	11	544	543	545	546
1033	10	553	554	555	556
1034	11	553	554	555	556
1035	12	553	554	555	557
1036	12	554	555	557	558
1037	8	555	554	553	559
1038	8	555	554	553	560
1039	8	555	554	553	561
1040	8	555	557	558	562
1041	8	555	557	558	563
1042	8	555	557	558	564
1043	10	556	555	557	558
1044	11	556	555	557	558
1045	10	565	566	567	568
1046	11	565	566	567	568
1047	12	565	566	567	569
1048	12	566	567	569	570
1049	8	567	566	565	571
1050	8	567	566	565	572
1051	8	567	566	565	573
1052	8	567	569	570	574
1053	8	567	569	570	575
1054	8	567	569	570	576
1055	10	568	567	569	570
1056	11	568	567	569	570
1057	10	577	578	579	580
1058	11	577	578	579	580
1059	12	577	578	579	581
1060	12	578	579	581	582
1061	8	579	578	577	583
1062	8	579	578	577	584
1063	8	579	578	577	585
1064	8	579	581	582	586
1065	8	579	581	582	587
1066	8	579	581	582	588
1067	10	580	579	581	582
1068	11	580	579	581	582
1069	10	589	590	591	592
1070	11	589	590	591	592
1071	12	589	590	591	593
1072	12	590	591	593	594
1073	8	591	590	589	595
1074	8	591	590	589	596
1075	8	591	590	589	597
1076	8	591	593	594	598
1077	8	591	593	594	599
1078	8	591	593	594	600
1079	10	592	591	593	594
1080	11	592	591	593	594
1081	10	601	602	603	604
1082	11	601	602	603	604
1083	12	601	602	603	605
1084	12	602	603	605	606
1085	8	603	602	601	607
1086	8	603	602	601	608
1087	8	603	602	601	609
1088	8	603	605	606	610
1089	8	603	605	606	611
1090	8	603	605	606	612
1091	10	604	603	605	606
1092	11	604	603	605	606
1093	10	613	614	615	616
1094	11	613	614	615	616
1095	12	613	614	615	617
1096	12	614	615	617	618
1097	8	615	614	613	619
1098	8	615	614	613	620
1099	8	615	614	613	621
1100	8	615	617	618	622
1101	8	615	617	618	623
1102	8	615	617	618	624
1103	10	616	615	617	618
1104	11	616	615	617	618
1105	10	625	626	627	628
1106	11	625	626	627	628
1107	12	625	626	627	629
1108	12	626	627	629	630
1109	8	627	626	625	631
1110	8	627	626	625	632
1111	8	627	626	625	633
1112	8	627	629	630	634
1113	8	627	629	630	635
1114	8	627	629	630	636
1115	10	628	627	629	630
1116	11	628	627	629	630
1117	10	637	638	639	640
1118	11	637	638	639	640
1119	12	637	638	639	641
1120	12	638	639	641	642
1121	8	639	638	637	643
1122	8	639	638	637	644
1123	8	639	638	637	645
1124	8	639	641	642	646
1125	8	639	641	642	647
1126	8	639	641	642	648
1127	10	640	639	641	642
1128	11	640	639	641	642
1129	10	649	650	651	652
1130	11	649	650	651	652
1131	12	649	650	651	653
1132	12	650	651	653	654
1133	8	651	650	649	655
1134	8	651	650	649	656
1135	8	651	650	649	657
1136	8	651	653	654	658
1137	8	651	653	654	659
1138	8	651	653	654	660
1139	10	652	651	653	654
1140	11	652	651	653	654
1141	10	661	662	663	664
1142	11	661	662	663	664
1143	12	661	662	663	665
1144	12	662	663	665	666
1145	8	663	662	661	667
1146	8	663	662	661	668
1147	8	663	662	661	669
1148	8	663	665	666	670
1149	8	663	665	666	671
1150	8	663	665	666	672
1151	10	664	663	665	666
1152	11	664	663	665	666
1153	10	673	674	675	676
1154	11	673	674	675	676
1155	12	673	674	675	677
1156	12	674	675	677	678
1157	8	675	674	673	679
1158	8	675	674	673	680
1159	8	675	674	673	681
1160	8	675	677	678	682
1161	8	675	677	678	683
1162	8	675	677	678	684
1163	10	676	675	677	678
1164	11	676	675	677	678
1165	10	685	686	687	688
1166	11	685	686	687	688
1167	12	685	686	687	689
1168	12	686	687	689	690
1169	8	687	686	685	691
1170	8	687	686	685	692
1171	8	687	686	685	693
1172	8	687	689	690	694
1173	8	687	689	690	695
1174	8	687	689	690	696
1175	10	688	687	689	690
1176	11	688	687	689	690
1177	10	697	698	699	700
1178	11	697	698	699	700
1179	12	697	698	699	701
1180	12	698	699	701	702
1181	8	699	698	697	703
1182	8	699	698	697	704
1183	8	699	698	697	705
1184	8	699	701	702	706
1185	8	699	701	702	707
1186	8	699	701	702	708
1187	10	700	699	701	702
1188	11	700	699	701	702
1189	10	709	710	711	712
1190	11	709	710	711	712
1191	12	709	710	711	713
1192	12	710	711	713	714
1193	8	711	710	709	715
1194	8	711	710	709	716
1195	8	711	710	709	717
1196	8	711	713	714	718
1197	8	711	713	714	719
1198	8	711	713	714	720
1199	10	712	711	713	714
1200	11	712	711	713	714
1201	10	721	722	723	724
1202	11	721	722	723	724
1203	12	721	722	723	725
1204	12	722	723	725	726
1205	8	723	722	721	727
1206	8	723	722	721	728
1207	8	723	722	721	729
1208	8	723	725	726	730
1209	8	723	725	726	731
1210	8	723	725	726	732
1211	10	724	723	725	726
1212	11	724	723	725	726
1213	10	733	734	735	736
1214	11	733	734	735	736
1215	12	733	734	735	737
1216	12	734	735	737	738
1217	8	735	734	733	739
1218	8	735	734	733	740
1219	8	735	734	733	741
1220	8	735	737	738	742
1221	8	735	737	738	743
1222	8	735	737	738	744
1223	10	736	735	737	738
1224	11	736	735	737	738
1225	10	745	746	747	748
1226	11	745	746	747	748
1227	12	745	746	747	749
1228	12	746	747	749	750
1229	8	747	746	745	751
1230	8	747	746	745	752
1231	8	747	746	745	753
1232	8	747	749	750	754
1233	8	747	749	750	755
1234	8	747	749	750	756
1235	10	748	747	749	750
1236	11	748	747	749	750
1237	10	757	758	759	760
1238	11	757	758	759	760
1239	12	757	758	759	761
1240	12	758	759	761	762
1241	8	759	758	757	763
1242	8	759	758	757	764
1243	8	759	758	757	765
1244	8	759	761	762	766
1245	8	759	761	762	767
1246	8	759	761	762	768
1247	10	760	759	761	762
1248	11	760	759	761	762
1249	10	769	770	771	772
1250	11	769	770	771	772
1251	12	769	770	771	773
1252	12	770	771	773	774
1253	8	771	770	769	775
1254	8	771	770	769	776
1255	8	771	770	769	777
1256	8	771	773	774	778
1257	8	771	773	774	779
1258	8	771	773	774	780
1259	10	772	771	773	774
1260	11	772	771	773	774
1261	10	781	782	783	784
1262	11	781	782	783	784
1263	12	781	782	783	785
1264	12	782	783	785	786
1265	8	783	782	781	787
1266	8	783	782	781	788
1267	8	783	782	781	789
1268	8	783	785	786	790
1269	8	783	785	786	791
1270	8	783	785	786	792
1271	10	784	783	785	786
1272	11	784	783	785	786
1273	10	793	794	795	796
1274	11	793	794	795	796
1275	12	793	794	795	797
1276	12	794	795	797	798
1277	8	795	794	793	799
1278	8	795	794	793	800
1279	8	795	794	793	801
1280	8	795	797	798	802
1281	8	795	797	798	803
1282	8	795	797	798	804
1283	10	796	795	797	798
1284	11	796	795	797	798
1285	10	805	806	807	808
1286	11	805	806	807	808
1287	12	805	806	807	809
1288	12	806	807	809	810
1289	8	807	806	805	811
1290	8	807	806	805	812
1291	8	807	806	805	813
1292	8	807	809	810	814
1293	8	807	809	810	815
1294	8	807	809	810	816
1295	10	808	807	809	810
1296	11	808	807	809	810
1297	10	817	818	819	820
1298	11	817	818	819	820
1299	12	817	818	819	821
1300	12	818	819	821	822
1301	8	819	818	817	823
1302	8	819	818	817	824
1303	8	819	818	817	825
1304	8	819	821	822	826
1305	8	819	821	822	827
1306	8	819	821	822	828
1307	10	820	819	821	822
1308	11	820	819	821	822
1309	10	829	830	831	832
1310	11	829	830	831	832
1311	12	829	830	831	833
1312	12	830	831	833	834
1313	8	831	830	829	835
1314	8	831	830	829	836
1315	8	831	830	829	837
1316	8	831	833	834	838
1317	8	831	833	834	839
1318	8	831	833	834	840
1319	10	832	831	833	834
1320	11	832	831	833	834
1321	10	841	842	843	844
1322	11	841	842	843	844
1323	12	841	842	843	845
1324	12	842	843	845	846
1325	8	843	842	841	847
1326	8	843	842	841	848
1327	8	843	842	841	849
1328	8	843	845	846	850
1329	8	843	845	846	851
1330	8	843	845	846	852
1331	10	844	843	845	846
1332	11	844	843	845	846
1333	10	853	854	855	856
1334	11	853	854	855	856
1335	12	853	854	855	857
1336	12	854	855	857	858
1337	8	855	854	853	859
1338	8	855	854	853	860
1339	8	855	854	853	861
1340	8	855	857	858	862
1341	8	855	857	858	863
1342	8	855	857	858	864
1343	10	856	855	857	858
1344	11	856	855	857	858
1345	10	865	866	867	868
1346	11	865	866	867	868
1347	12	865	866	867	869
1348	12	866	867	869	870
1349	8	867	866	865	871
1350	8	867	866	865	872
1351	8	867	866	865	873
1352	8	867	869	870	874
1353	8	867	869	870	875
1354	8	867	869	870	876
1355	10	868	867	869	870
1356	11	868	867	869	870
1357	10	877	878	879	880
1358	11	877	878	879	880
1359	12	877	878	879	881
1360	12	878	879	881	882
1361	8	879	878	877	883
1362	8	879	878	877	884
1363	8	879	878	877	885
1364	8	879	881	882	886
1365	8	879	881	882	887
1366	8	879	881	882	888
1367	10	880	879	881	882
1368	11	880	879	881	882
1369	10	889	890	891	892
1370	11	889	890	891	892
1371	12	889	890	891	893
1372	12	890	891	893	894
1373	8	891	890	889	895
1374	8	891	890	889	896
1375	8	891	890	889	897
1376	8	891	893	894	898
1377	8	891	893	894	899
1378	8	891	893	894	900
1379	10	892	891	893	894
1380	11	892	891	893	894
1381	10	901	902	903	904
1382	11	901	902	903	904
1383	12	901	902	903	905
1384	12	902	903	905	906
1385	8	903	902	901	907
1386	8	903	902	901	908
1387	8	903	902	901	909
1388	8	903	905	906	910
1389	8	903	905	906	911
1390	8	903	905	906	912
1391	10	904	903	905	906
1392	11	904	903	905	906
1393	10	913	914	915	916
1394	11	913	914	915	916
1395	12	913	914	915	917
1396	12	914	915	917	918
1397	8	915	914	913	919
1398	8	915	914	913	920
1399	8	915	914	913	921
1400	8	915	917	918	922
1401	8	915	917	918	923
1402	8	915	917	918	924
1403	10	916	915	917	918
1404	11	916	915	917	918
1405	10	925	926	927	928
1406	11	925	926	927	928
1407	12	925	926	927	929
1408	12	926	927	929	930
1409	8	927	926	925	931
1410	8	927	926	925	932
1411	8	927	926	925	933
1412	8	927	929	930	934
1413	8	927	929	930	935
1414	8	927	929	930	936
1415	10	928	927	929	930
1416	11	928	927	929	930
1417	10	937	938	939	940
1418	11	937	938	939	940
1419	12	937	938	939	941
1420	12	938	939	941	942
1421	8	939	938	937	943
1422	8	939	938	937	944
1423	8	939	938	937	945
1424	8	939	941	942	946
1425	8	939	941	942	947
1426	8	939	941	942	948
1427	10	940	939	941	942
1428	11	940	939	941	942
1429	10	949	950	951	952
1430	11	949	950	951	952
1431	12	949	950	951	953
1432	12	950	951	953	954
1433	8	951	950	949	955
1434	8	951	950	949	956
1435	8	951	950	949	957
1436	8	951	953	954	958
1437	8	951	953	954	959
1438	8	951	953	954	960
1439	10	952	951	953	954
1440	11	952	951	953	954
1441	13	1017	1018	1019	1036
1442	13	1017	1018	1019	1037
1443	13	1017	1018	1019	1038
1444	13	1017	1018	1020	1039
1445	13	1017	1018	1020	1040
1446	13	1017	1018	1020	1041
1447	14	1017	1018	1021	1022
1448	15	1017	1018	1021	1022
1449	16	1018	1021	1022	1023
1450	17	1018	1021	1022	1023
1451	18	1018	1021	1022	1023
1452	16	1018	1021	1022	1028
1453	17	1018	1021	1022	1028
1454	18	1018	1021	1022	1028
1455	13	1019	1018	1017	1033
1456	13	1019	1018	1017	1034
1457	13	1019	1018	1017	1035
1458	13	1019	1018	1020	1039
1459	13	1019	1018	1020	1040
1460	13	1019	1018	1020	1041
1461	14	1019	1018	1021	1022
1462	15	1019	1018	1021	1022
1463	13	1020	1018	1017	1033
1464	13	1020	1018	1017	1034
1465	13	1020	1018	1017	1035
1466	13	1020	1018	1019	1036
1467	13	1020	1018	1019	1037
1468	13	1020	1018	1019	1038
1469	14	1020	1018	1021	1022
1470	15	1020	1018	1021	1022
1471	19	1021	1018	1017	1033
1472	19	1021	1018	1017	1034
1473	19	1021	1018	1017	1035
1474	19	1021	1018	1019	1036
1475	19	1021	1018	1019	1037
1476	19	1021	1018	1019	1038
1477	19	1021	1018	1020	1039
1478	19	1021	1018	1020	1040
1479	19	1021	1018	1020	1041
1480	16	1021	1022	1023	1024
1481	17	1021	1022	1023	1024
1482	18	1021	1022	1023	1024
1483	16	1021	1022	1028	1029
1484	17	1021	1022	1028	1029
1485	18	1021	1022	1028	1029
1486	14	1022	1023	1024	1025
1487	15	1022	1023	1024	1025
1488	14	1022	1023	1024	1026
1489	15	1022	1023	1024	1026
1490	14	1022	1023	1024	1027
1491	15	1022	1023	1024	1027
1492	14	1022	1028	1029	1030
1493	15	1022	1028	1029	1030
1494	14	1022	1028	1029	1031
1495	15	1022	1028	1029	1031
1496	14	1022	1028	1029	1032
1497	15	1022	1028	1029	1032
1498	16	1023	1022	1028	1029
1499	17	1023	1022	1028	1029
1500	18	1023	1022	1028	1029
1501	19	1023	1024	1025	1042
1502	19	1023	1024	1025	1043
1503	19	1023	1024	1025	1044
1504	19	1023	1024	1026	1045
1505	19	1023	1024	1026	1046
1506	19	1023	1024	1026	1047
1507	19	1023	1024	1027	1048
1508	19	1023	1024	1027	1049
1509	19	1023	1024	1027	1050
1510	16	1024	1023	1022	1028
1511	17	1024	1023	1022	1028
1512	18	1024	1023	1022	1028
1513	13	1025	1024	1026	1045
1514	13	1025	1024	1026	1046
1515	13	1025	1024	1026	1047
1516	13	1025	1024	1027	1048
1517	13	1025	1024	1027	1049
1518	13	1025	1024	1027	1050
1519	13	1026	1024	1025	1042
1520	13	1026	1024	1025	1043
1521	13	1026	1024	1025	1044
1522	13	1026	1024	1027	1048
1523	13	1026	1024	1027	1049
1524	13	1026	1024	1027	1050
1525	13	1027	1024	1025	1042
1526	13	1027	1024	1025	1043
1527	13	1027	1024	1025	1044
1528	13	1027	1024	1026	1045
1529	13	1027	1024	1026	1046
1530	13	1027	1024	1026	1047
1531	19	1028	1029	1030	1051
1532	19	1028	1029	1030	1052
1533	19	1028	1029	1030	1053
1534	19	1028	1029	1031	1054
1535	19	1028	1029	1031	1055
1536	19	1028	1029	1031	1056
1537	19	1028	1029	1032	1057
1538	19	1028	1029	1032	1058
1539	19	1028	1029	1032	1059
1540	13	1030	1029	1031	1054
1541	13	1030	1029	1031	1055
1542	13	1030	1029	1031	1056
1543	13	1030	1029	1032	1057
1544	13	1030	1029	1032	1058
1545	13	1030	1029	1032	1059
1546	13	1031	1029	1030	1051
1547	13	1031	1029	1030	1052
1548	13	1031	1029	1030	1053
1549	13	1031	1029	1032	1057
1550	13	1031	1029	1032	1058
1551	13	1031	1029	1032	1059
1552	13	1032	1029	1030	1051
1553	13	1032	1029	1030	1052
1554	13	1032	1029	1030	1053
1555	13	1032	1029	1031	1054
1556	13	1032	1029	1031	1055
1557	13	1032	1029	1031	1056

Impropers

1	1	4	3	5	6
2	1	4	5	6	3
3	1	4	6	3	5
4	1	14	13	15	16
5	1	14	15	16	13
6	1	14	16	13	15
7	1	24	23	25	26
8	1	24	25	26	23
9	1	24	26	23	25
10	1	34	33	35	36
11	1	34	35	36	33
12	1	34	36	33	35
13	1	44	43	45	46
14	1	44	45	46	43
15	1	44	46	43	45
16	1	54	53	55	56
17	1	54	55	56	53
18	1	54	56	53	55
19	1	64	63	65	66
20	1	64	65	66	63
21	1	64	66	63	65
22	1	74	73	75	76
23	1	74	75	76	73
24	1	74	76	73	75
25	1	84	83	85	86
26	1	84	85	86	83
27	1	84	86	83	85
28	1	94	93	95	96
29	1	94	95	96	93
30	1	94	96	93	95
31	1	104	103	105	106
32	1	104	105	106	103
33	1	104	106	103	105
34	1	114	113	115	116
35	1	114	115	116	113
36	1	114	116	113	115
37	1	124	123	125	126
38	1	124	125	126	123
39	1	124	126	123	125
40	1	134	133	135	136
41	1	134	135	136	133
42	1	134	136	133	135
43	1	144	143	145	146
44	1	144	145	146	143
45	1	144	146	143	145
46	1	154	153	155	156
47	1	154	155	156	153
48	1	154	156	153	155
49	1	164	163	165	166
50	1	164	165	166	163
51	1	164	166	163	165
52	1	174	173	175	176
53	1	174	175	176	173
54	1	174	176	173	175
55	1	184	183	185	186
56	1	184	185	186	183
57	1	184	186	183	185
58	1	194	193	195	196
59	1	194	195	196	193
60	1	194	196	193	195
61	1	204	203	205	206
62	1	204	205	206	203
63	1	204	206	203	205
64	1	214	213	215	216
65	1	214	215	216	213
66	1	214	216	213	215
67	1	224	223	225	226
68	1	224	225	226	223
69	1	224	226	223	225
70	1	234	233	235	236
71	1	234	235	236	233
72	1	234	236	233	235
73	1	244	243	245	246
74	1	244	245	246	243
75	1	244	246	243	245
76	1	254	253	255	256
77	1	254	255	256	253
78	1	254	256	253	255
79	1	264	263	265	266
80	1	264	265	266	263
81	1	264	266	263	265
82	1	274	273	275	276
83	1	274	275	276	273
84	1	274	276	273	275
85	1	284	283	285	286
86	1	284	285	286	283
87	1	284	286	283	285
88	1	294	293	295	296
89	1	294	295	296	293
90	1	294	296	293	295
91	1	303	302	304	305
92	1	303	304	305	302
93	1	303	305	302	304
94	1	315	314	316	317
95	1	315	316	317	314
96	1	315	317	314	316
97	1	327	326	328	329
98	1	327	328	329	326
99	1	327	329	326	328
100	1	339	338	340	341
101	1	339	340	341	338
102	1	339	341	338	340
103	1	351	350	352	353
104	1	351	352	353	350
105	1	351	353	350	352
106	1	363	362	364	365
107	1	363	364	365	362
108	1	363	365	362	364
109	1	375	374	376	377
110	1	375	376	377	374
111	1	375	377	374	376
112	1	387	386	388	389
113	1	387	388	389	386
114	1	387	389	386	388
115	1	399	398	400	401
116	1	399	400	401	398
117	1	399	401	398	400
118	1	411	410	412	413
119	1	411	412	413	410
120	1	411	413	410	412
121	1	423	422	424	425
122	1	423	424	425	422
123	1	423	425	422	424
124	1	435	434	436	437
125	1	435	436	437	434
126	1	435	437	434	436
127	1	447	446	448	449
128	1	447	448	449	446
129	1	447	449	446	448
130	1	459	458	460	461
131	1	459	460	461	458
132	1	459	461	458	460
133	1	471	470	472	473
134	1	471	472	473	470
135	1	471	473	470	472
136	1	483	482	484	485
137	1	483	484	485	482
138	1	483	485	482	484
139	1	495	494	496	497
140	1	495	496	497	494
141	1	495	497	494	496
142	1	507	506	508	509
143	1	507	508	509	506
144	1	507	509	506	508
145	1	519	518	520	521
146	1	519	520	521	518
147	1	519	521	518	520
148	1	531	530	532	533
149	1	531	532	533	530
150	1	531	533	530	532
151	1	543	542	544	545
152	1	543	544	545	542
153	1	543	545	542	544
154	1	555	554	556	557
155	1	555	556	557	554
156	1	555	557	554	556
157	1	567	566	568	569
158	1	567	568	569	566
159	1	567	569	566	568
160	1	579	578	580	581
161	1	579	580	581	578
162	1	579	581	578	580
163	1	591	590	592	593
164	1	591	592	593	590
165	1	591	593	590	592
166	1	603	602	604	605
167	1	603	604	605	602
168	1	603	605	602	604
169	1	615	614	616	617
170	1	615	616	617	614
171	1	615	617	614	616
172	1	627	626	628	629
173	1	627	628	629	626
174	1	627	629	626	628
175	1	639	638	640	641
176	1	639	640	641	638
177	1	639	641	638	640
178	1	651	650	652	653
179	1	651	652	653	650
180	1	651	653	650	652
181	1	663	662	664	665
182	1	663	664	665	662
183	1	663	665	662	664
184	1	675	674	676	677
185	1	675	676	677	674
186	1	675	677	674	676
187	1	687	686	688	689
188	1	687	688	689	686
189	1	687	689	686	688
190	1	699	698	700	701
191	1	699	700	701	698
192	1	699	701	698	700
193	1	711	710	712	713
194	1	711	712	713	710
195	1	711	713	710	712
196	1	723	722	724	725
197	1	723	724	725	722
198	1	723	725	722	724
199	1	735	734	736	737
200	1	735	736	737	734
201	1	735	737	734	736
202	1	747	746	748	749
203	1	747	748	749	746
204	1	747	749	746	748
205	1	759	758	760	761
206	1	759	760	761	758
207	1	759	761	758	760
208	1	771	770	772	773
209	1	771	772	773	770
210	1	771	773	770	772
211	1	783	782	784	785
212	1	783	784	785	782
213	1	783	785	782	784
214	1	795	794	796	797
215	1	795	796	797	794
216	1	795	797	794	796
217	1	807	806	808	809
218	1	807	808	809	806
219	1	807	809	806	808
220	1	819	818	820	821
221	1	819	820	821	818
222	1	819	821	818	820
223	1	831	830	832	833
224	1	831	832	833	830
225	1	831	833	830	832
226	1	843	842	844	845
227	1	843	844	845	842
228	1	843	845	842	844
229	1	855	854	856	857
230	1	855	856	857	854
231	1	855	857	854	856
232	1	867	866	868	869
233	1	867	868	869	866
234	1	867	869	866	868
235	1	879	878	880	881
236	1	879	880	881	878
237	1	879	881	878	880
238	1	891	890	892	893
239	1	891	892	893	890
240	1	891	893	890	892
241	1	903	902	904	905
242	1	903	904	905	902
243	1	903	905	902	904
244	1	915	914	916	917
245	1	915	916	917	914
246	1	915	917	914	916
247	1	927	926	928	929
248	1	927	928	929	926
249	1	927	929	926	928
250	1	939	938	940	941
251	1	939	940	941	938
252	1	939	941	938	940
253	1	951	950	952	953
254	1	951	952	953	950
255	1	951	953	950	952
