LAMMPS (22 Jul 2025 - Update 4)
# Restart continuation NPT chunk for composition tag=ec_dmc_3_7_lipf6_1m_tmspi_1wt_298K
# Generated by scripts/curate_ff_md_data.py

read_restart    ${input_restart}
read_restart    ec_dmc_3_7_lipf6_1m_tmspi_1wt_298K.npt.1.restart
Reading restart file ...
  restart file = 22 Jul 2025, LAMMPS = 22 Jul 2025
  restoring atom style full from restart
  orthogonal box = (-0.32069833 -0.33069833 -0.30269833) to (23.570246 23.560246 23.588246)
  2 by 1 by 2 MPI processor grid
  restoring pair style lj/cut/coul/long from restart
  restoring bond style harmonic from restart
  restoring angle style harmonic from restart
  restoring dihedral style opls from restart
  restoring improper style cvff from restart
  1059 atoms
  989 bonds
  1628 angles
  1557 dihedrals
  255 impropers
Finding 1-2 1-3 1-4 neighbors ...
  special bond factors lj:    0        0        0.5     
  special bond factors coul:  0        0        0.5     
     6 = max # of 1-2 neighbors
    10 = max # of 1-3 neighbors
    16 = max # of 1-4 neighbors
    18 = max # of special neighbors
  special bonds CPU = 0.001 seconds
  read_restart CPU = 0.021 seconds
kspace_style    pppm 1.0e-4
neighbor        2.0 bin
neigh_modify    every 1 delay 0 check yes
timestep        1.0

thermo_style    custom step time temp press vol density pe ke etotal
thermo          100
variable        tracked_temperature_K equal temp
variable        tracked_density_g_cm3 equal density
variable        tracked_volume_A3 equal vol
variable        tracked_pressure_atm equal press
fix             NPT_EQ all npt temp 298.15 298.15 100.0 iso 1.0 1.0 1000.0
fix             NPT_TRACE all ave/time 100 1 100 v_tracked_temperature_K v_tracked_density_g_cm3 v_tracked_volume_A3 v_tracked_pressure_atm file ${thermo_trace}
fix             NPT_TRACE all ave/time 100 1 100 v_tracked_temperature_K v_tracked_density_g_cm3 v_tracked_volume_A3 v_tracked_pressure_atm file npt_thermo.2.dat
run             5000
PPPM initialization ...
  using 12-bit tables for long-range coulomb
  G vector (1/distance) = 0.2013957
  grid = 8 8 8
  stencil order = 5
  estimated absolute RMS force accuracy = 0.026277209
  estimated relative force accuracy = 7.9133034e-05
  using double precision FFTW3
  3d grid and FFT values/proc = 1053 128
Generated 45 of 45 mixed pair_coeff terms from arithmetic mixing rule
Neighbor list info ...
  update: every = 1 steps, delay = 0 steps, check = yes
  max neighbors/atom: 2000, page size: 100000
  master list distance cutoff = 14
  ghost atom cutoff = 14
  binsize = 7, bins = 4 4 4
  1 neighbor lists, perpetual/occasional/extra = 1 0 0
  (1) pair lj/cut/coul/long, perpetual
      attributes: half, newton on
      pair build: half/bin/newton
      stencil: half/bin/3d
      bin: standard
Per MPI rank memory allocation (min/avg/max) = 23.34 | 23.34 | 23.35 Mbytes
   Step          Time           Temp          Press          Volume        Density         PotEng         KinEng         TotEng    
      6147   6147           299.07117      659.39356      13636.407      1.0908448      2099.3701      943.17985      3042.55      
      6200   6200           313.7675      -1588.1768      13629.221      1.0914199      2049.6683      989.52764      3039.1959    
      6300   6300           301.1856       1006.6831      13576.422      1.0956644      2051.5473      949.84813      3001.3955    
      6400   6400           295.89452      768.12425      13517.675      1.1004261      2014.976       933.16167      2948.1377    
      6500   6500           297.5451      -2407.6442      13430.153      1.1075975      2016.4151      938.3671       2954.7822    
      6600   6600           309.70715     -1201.5676      13358.788      1.1135144      1990.8014      976.72253      2967.5239    
      6700   6700           292.90044     -1289.6236      13303.017      1.1181827      2066.1006      923.71925      2989.8199    
      6800   6800           299.13439     -1227.6692      13323.144      1.1164934      2071.3718      943.37923      3014.7511    
      6900   6900           307.76756      808.16883      13324.436      1.1163852      2085.6987      970.60565      3056.3043    
      7000   7000           302.10754      304.8483       13377.493      1.1119575      2112.553       952.75564      3065.3086    
      7100   7100           295.42629     -29.075448      13426.874      1.107868       2067.3474      931.68501      2999.0324    
      7200   7200           290.07373      1147.5707      13409.501      1.1093032      2052.3491      914.80466      2967.1537    
      7300   7300           294.58208     -263.02822      13358.387      1.1135479      2040.5009      929.02263      2969.5235    
      7400   7400           299.26238     -1894.6101      13357.407      1.1136296      2051.3565      943.78287      2995.1394    
      7500   7500           310.00812      3102.362       13402.709      1.1098654      2059.3317      977.67168      3037.0034    
      7600   7600           304.98115      935.73438      13524.465      1.0998737      2068.0814      961.81815      3029.8996    
      7700   7700           294.02161     -282.89265      13660.662      1.0889079      2031.1878      927.25507      2958.4428    
      7800   7800           290.35971     -2029.4713      13688.258      1.0867126      2040.18        915.70655      2955.8866    
      7900   7900           286.32714      2646.1654      13558.98       1.097074       2093.3034      902.98906      2996.2925    
      8000   8000           296.86738      424.31356      13323.292      1.116481       2089.2533      936.22979      3025.4831    
      8100   8100           305.60388      718.9919       13043.597      1.1404218      2050.2832      963.78204      3014.0653    
      8200   8200           299.89089      69.075013      12872.653      1.1555663      2024.7324      945.765        2970.4974    
      8300   8300           300.238        2030.2229      12861.399      1.1565774      2004.7696      946.85968      2951.6293    
      8400   8400           295.29951      1420.1052      12984.449      1.1456168      2019.4821      931.28519      2950.7673    
      8500   8500           305.67786     -293.15708      13173.687      1.1291602      2002.7179      964.01537      2966.7333    
      8600   8600           305.75105     -281.98337      13300.86       1.118364       2027.2497      964.24618      2991.4958    
      8700   8700           303.76384     -1510.4249      13362.343      1.1132182      2065.9026      957.97911      3023.8817    
      8800   8800           304.83371     -82.407139      13404.572      1.1097111      2069.4928      961.35318      3030.846     
      8900   8900           285.10523     -501.02659      13382.358      1.1115533      2084.5806      899.1355       2983.7161    
      9000   9000           290.15906      1607.5044      13295.658      1.1188016      2039.0618      915.07377      2954.1356    
      9100   9100           296.69748      554.26664      13194.002      1.1274216      2033.9895      935.69397      2969.6835    
      9200   9200           302.46233      324.46109      13105.829      1.1350067      2044.9924      953.87455      2998.867     
      9300   9300           296.30506      551.63701      13023.811      1.1421544      2061.5678      934.45637      2996.0241    
      9400   9400           291.73302      162.73228      12992.079      1.144944       2013.2244      920.03757      2933.262     
      9500   9500           290.00503      806.87376      13049.994      1.1398628      2000.2739      914.58801      2914.862     
      9600   9600           297.34723     -61.580092      13137.86       1.1322394      2023.2327      937.74309      2960.9758    
      9700   9700           300.78926     -2878.64        13187.865      1.1279463      2044.5272      948.59821      2993.1254    
      9800   9800           296.71598     -1506.501       13136.116      1.1323897      2063.8259      935.7523       2999.5782    
      9900   9900           301.66483      1664.1602      13071.712      1.137969       2022.1968      951.35948      2973.5563    
     10000   10000          289.41161      3652.834       13069.116      1.138195       1998.6125      912.71653      2911.3291    
     10100   10100          294.17372      2336.5979      13147.867      1.1313776      1992.2184      927.7348       2919.9532    
     10200   10200          299.31284      1532.0612      13178.855      1.1287175      2010.3068      943.94202      2954.2488    
     10300   10300          304.28405      563.29785      13154.244      1.1308292      2011.8749      959.61969      2971.4946    
     10400   10400          297.39726     -430.35303      13164.376      1.1299589      2030.7795      937.90086      2968.6804    
     10500   10500          296.59808      430.62497      13211.568      1.1259226      2025.1278      935.38049      2960.5083    
     10600   10600          306.48668     -303.95509      13311.001      1.117512       2010.1664      966.56614      2976.7326    
     10700   10700          314.33822     -1719.4975      13330.481      1.1158789      2038.3992      991.32751      3029.7267    
     10800   10800          313.78849      301.54532      13327.35       1.1161411      2046.6195      989.59383      3036.2133    
     10900   10900          300.83564      1692.0404      13309.743      1.1176176      2032.1823      948.74446      2980.9268    
     11000   11000          304.32961      1683.3841      13305.57       1.1179681      1997.4298      959.76339      2957.1932    
     11100   11100          292.42363     -2967.2412      13292.111      1.1191002      2038.7401      922.21555      2960.9557    
     11147   11147          308.30058     -1336.4503      13280.814      1.1200521      1994.64        972.28661      2966.9266    
Loop time of 25.4745 on 4 procs for 5000 steps with 1059 atoms

Performance: 16.958 ns/day, 1.415 hours/ns, 196.275 timesteps/s, 207.855 katom-step/s
81.6% CPU use with 4 MPI tasks x no OpenMP threads

MPI task timing breakdown:
Section |  min time  |  avg time  |  max time  |%varavg| %total
---------------------------------------------------------------
Pair    | 14.396     | 15.103     | 15.936     |  18.2 | 59.29
Bond    | 0.63855    | 0.72104    | 0.82609    |   8.7 |  2.83
Kspace  | 6.2879     | 7.0811     | 7.872      |  27.4 | 27.80
Neigh   | 0.70453    | 0.70472    | 0.70483    |   0.0 |  2.77
Comm    | 1.1214     | 1.1396     | 1.1576     |   1.7 |  4.47
Output  | 0.0043137  | 0.0055797  | 0.0062658  |   1.1 |  0.02
Modify  | 0.51052    | 0.51953    | 0.52376    |   0.7 |  2.04
Other   |            | 0.2001     |            |       |  0.79

Nlocal:         264.75 ave         276 max         255 min
Histogram: 1 0 1 0 0 0 1 0 0 1
Nghost:        6321.25 ave        6441 max        6197 min
Histogram: 1 0 0 0 1 1 0 0 0 1
Neighs:         121236 ave      131886 max      108432 min
Histogram: 1 0 0 0 1 0 0 1 0 1

Total # of neighbors = 484942
Ave neighs/atom = 457.92446
Ave special neighs/atom = 6.9556185
Neighbor list builds = 115
Dangerous builds = 0
unfix           NPT_TRACE
unfix           NPT_EQ
write_restart   ${output_restart}
write_restart   ec_dmc_3_7_lipf6_1m_tmspi_1wt_298K.npt.2.restart
System init for write_restart ...
PPPM initialization ...
  using 12-bit tables for long-range coulomb
  G vector (1/distance) = 0.20205866
  grid = 8 8 8
  stencil order = 5
  estimated absolute RMS force accuracy = 0.025620599
  estimated relative force accuracy = 7.7155674e-05
  using double precision FFTW3
  3d grid and FFT values/proc = 1053 128
Generated 45 of 45 mixed pair_coeff terms from arithmetic mixing rule
Total wall time: 0:00:25
