LAMMPS (22 Jul 2025 - Update 4)
# Restart continuation NPT chunk for composition tag=ec_dmc_3_7_lipf6_1m_tmspi_1wt_298K
# Generated by scripts/curate_ff_md_data.py

read_restart    ${input_restart}
read_restart    ec_dmc_3_7_lipf6_1m_tmspi_1wt_298K.npt.3.restart
Reading restart file ...
  restart file = 22 Jul 2025, LAMMPS = 22 Jul 2025
  restoring atom style full from restart
  orthogonal box = (-0.093749393 -0.10374939 -0.075749393) to (23.343297 23.333297 23.361297)
  1 by 1 by 1 MPI processor grid
  restoring pair style lj/cut/coul/long from restart
  restoring bond style harmonic from restart
  restoring angle style harmonic from restart
  restoring dihedral style opls from restart
  restoring improper style cvff from restart
  1059 atoms
  989 bonds
  1628 angles
  1557 dihedrals
  255 impropers
Finding 1-2 1-3 1-4 neighbors ...
  special bond factors lj:    0        0        0.5     
  special bond factors coul:  0        0        0.5     
     6 = max # of 1-2 neighbors
    10 = max # of 1-3 neighbors
    16 = max # of 1-4 neighbors
    18 = max # of special neighbors
  special bonds CPU = 0.001 seconds
  read_restart CPU = 0.005 seconds
kspace_style    pppm 1.0e-4
neighbor        2.0 bin
neigh_modify    every 1 delay 0 check yes
timestep        1.0

thermo_style    custom step time temp press vol density pe ke etotal
thermo          100
variable        tracked_temperature_K equal temp
variable        tracked_density_g_cm3 equal density
variable        tracked_volume_A3 equal vol
variable        tracked_pressure_atm equal press
fix             NPT_EQ all npt temp 298.15 298.15 100.0 iso 1.0 1.0 1000.0
fix             NPT_TRACE all ave/time 100 1 100 v_tracked_temperature_K v_tracked_density_g_cm3 v_tracked_volume_A3 v_tracked_pressure_atm file ${thermo_trace}
fix             NPT_TRACE all ave/time 100 1 100 v_tracked_temperature_K v_tracked_density_g_cm3 v_tracked_volume_A3 v_tracked_pressure_atm file npt_thermo.4.dat
run             5000
PPPM initialization ...
  using 12-bit tables for long-range coulomb
  G vector (1/distance) = 0.20283792
  grid = 8 8 8
  stencil order = 5
  estimated absolute RMS force accuracy = 0.024866535
  estimated relative force accuracy = 7.4884833e-05
  using double precision FFTW3
  3d grid and FFT values/proc = 2197 512
Generated 45 of 45 mixed pair_coeff terms from arithmetic mixing rule
Neighbor list info ...
  update: every = 1 steps, delay = 0 steps, check = yes
  max neighbors/atom: 2000, page size: 100000
  master list distance cutoff = 14
  ghost atom cutoff = 14
  binsize = 7, bins = 4 4 4
  1 neighbor lists, perpetual/occasional/extra = 1 0 0
  (1) pair lj/cut/coul/long, perpetual
      attributes: half, newton on
      pair build: half/bin/newton
      stencil: half/bin/3d
      bin: standard
Per MPI rank memory allocation (min/avg/max) = 25.25 | 25.25 | 25.25 Mbytes
   Step          Time           Temp          Press          Volume        Density         PotEng         KinEng         TotEng    
     16146   16146          305.92202     -1461.2847      12873.856      1.1554582      1966.9811      964.78536      2931.7664    
     16200   16200          294.00788     -425.9472       12878.546      1.1550375      2001.5903      927.21179      2928.8021    
     16300   16300          299.7631       912.42779      12907.99       1.1524028      1968.5075      945.362        2913.8695    
     16400   16400          295.20309     -572.69658      12915.288      1.1517516      1964.708       930.98111      2895.6891    
     16500   16500          293.64043      420.19948      12837.651      1.1587169      1963.5091      926.05295      2889.562     
     16600   16600          308.72794      2133.7095      12698.632      1.171402       1945.3645      973.63438      2918.9989    
     16700   16700          309.13837      1910.2381      12562.354      1.1841095      1980.6885      974.92876      2955.6172    
     16800   16800          297.33333      3163.0647      12536.667      1.1865358      1990.0174      937.69923      2927.7166    
     16900   16900          292.4797       125.86366      12601.744      1.1804083      1952.5703      922.39236      2874.9626    
     17000   17000          292.39418      374.15141      12668.726      1.1741672      1947.4632      922.12265      2869.5859    
     17100   17100          289.30793      469.43004      12739.145      1.1676767      1992.8335      912.38955      2905.223     
     17200   17200          299.13669      1453.1901      12757.775      1.1659716      1990.3899      943.3865       2933.7764    
     17300   17300          309.05463     -618.51893      12741.753      1.1674377      1949.84        974.66466      2924.5047    
     17400   17400          298.39118     -1679.2215      12721.255      1.1693188      1950.2589      941.03537      2891.2942    
     17500   17500          281.10525     -1018.8549      12746.814      1.1669742      1942.5367      886.52079      2829.0575    
     17600   17600          289.68296      153.3126       12791.458      1.1629013      1917.7759      913.57229      2831.3481    
     17700   17700          291.70628      2601.9718      12835.755      1.1588881      1979.4783      919.95324      2899.4316    
     17800   17800          300.28531      360.06697      12917.821      1.1515258      1961.341       947.00888      2908.3499    
     17900   17900          293.73731     -2264.7418      12987.025      1.1453896      1976.5539      926.35849      2902.9124    
     18000   18000          289.93995     -6207.8773      13012.653      1.1431337      2004.1465      914.38275      2918.5293    
     18100   18100          294.44237     -4918.6843      12940.765      1.1494841      2028.1156      928.58203      2956.6976    
     18200   18200          301.24871     -473.26514      12813.343      1.1609151      2013.3359      950.04716      2963.3831    
     18300   18300          296.6313       2055.7331      12702.563      1.1710395      1968.1689      935.48524      2903.6541    
     18400   18400          293.27419      2803.5143      12663.552      1.174647       1958.9129      924.89795      2883.8109    
     18500   18500          291.17739     -1079.4826      12686.341      1.1725369      1958.9859      918.28526      2877.2712    
     18600   18600          294.76074     -2003.9377      12700.523      1.1712276      1956.4049      929.58606      2885.9909    
     18700   18700          296.60163     -1130.6969      12710.782      1.1702823      1979.0531      935.39169      2914.4448    
     18800   18800          315.03288      1361.4506      12760.011      1.1657673      1963.6818      993.51825      2957.2001    
     18900   18900          311.62593     -182.36728      12803.822      1.1617783      1959.2196      982.77378      2941.9934    
     19000   19000          287.86881     -1656.3625      12840.289      1.1584789      1977.5866      907.85101      2885.4376    
     19100   19100          289.52081     -299.38565      12868.252      1.1559614      1966.1984      913.06091      2879.2593    
     19200   19200          301.00215      2820.4461      12888.958      1.1541044      1949.2517      949.2696       2898.5213    
     19300   19300          307.29166      1428.6477      12911.435      1.1520952      1958.5978      969.10479      2927.7026    
     19400   19400          303.47077      679.32926      12925.619      1.150831       1975.8306      957.05485      2932.8855    
     19500   19500          286.76571      1981.632       12927.114      1.1506979      1990.1393      904.37216      2894.5115    
     19600   19600          296.10652     -1635.5844      12927.038      1.1507047      1927.844       933.83025      2861.6743    
     19700   19700          276.9248      -2975.9813      12848.024      1.1577814      1990.3304      873.33692      2863.6674    
     19800   19800          301.71661     -2552.1766      12744.811      1.1671576      1971.5219      951.52278      2923.0447    
     19900   19900          305.84937      2648.2451      12654.794      1.17546        1969.6042      964.55626      2934.1604    
     20000   20000          304.17963     -1116.6277      12635.718      1.1772345      1960.1155      959.29041      2919.4059    
     20100   20100          297.68939      1743.6649      12661.821      1.1748076      1951.7396      938.82213      2890.5617    
     20200   20200          291.69952     -85.11871       12716.137      1.1697895      1912.2         919.93191      2832.1319    
     20300   20300          289.12698     -157.38787      12749.554      1.1667234      1915.6225      911.81889      2827.4414    
     20400   20400          296.39218      504.31728      12729.21       1.1685881      1924.5282      934.73115      2859.2593    
     20500   20500          297.57918      430.37155      12672.324      1.1738338      1946.775       938.47457      2885.2495    
     20600   20600          294.96164     -2986.426       12641.505      1.1766956      1987.9979      930.21965      2918.2176    
     20700   20700          304.17035     -3447.0328      12683.974      1.1727557      1971.494       959.26113      2930.7552    
     20800   20800          301.65517      464.85575      12788.74       1.1631484      1966.5043      951.32903      2917.8333    
     20900   20900          286.86368      2704.5613      12810.106      1.1612084      1963.4294      904.68113      2868.1105    
     21000   21000          293.89304     -1119.4629      12758.941      1.165865       1934.622       926.8496       2861.4715    
     21100   21100          300.48542     -1897.8311      12647.426      1.1761447      1949.5836      947.63998      2897.2236    
     21146   21146          305.44642      670.94089      12592.613      1.1812642      1965.2122      963.28546      2928.4977    
Loop time of 61.0107 on 1 procs for 5000 steps with 1059 atoms

Performance: 7.081 ns/day, 3.389 hours/ns, 81.953 timesteps/s, 86.788 katom-step/s
94.7% CPU use with 1 MPI tasks x no OpenMP threads

MPI task timing breakdown:
Section |  min time  |  avg time  |  max time  |%varavg| %total
---------------------------------------------------------------
Pair    | 53.348     | 53.348     | 53.348     |   0.0 | 87.44
Bond    | 2.2895     | 2.2895     | 2.2895     |   0.0 |  3.75
Kspace  | 2.2393     | 2.2393     | 2.2393     |   0.0 |  3.67
Neigh   | 2.1094     | 2.1094     | 2.1094     |   0.0 |  3.46
Comm    | 0.29502    | 0.29502    | 0.29502    |   0.0 |  0.48
Output  | 0.003059   | 0.003059   | 0.003059   |   0.0 |  0.01
Modify  | 0.64249    | 0.64249    | 0.64249    |   0.0 |  1.05
Other   |            | 0.0836     |            |       |  0.14

Nlocal:           1059 ave        1059 max        1059 min
Histogram: 1 0 0 0 0 0 0 0 0 0
Nghost:          10306 ave       10306 max       10306 min
Histogram: 1 0 0 0 0 0 0 0 0 0
Neighs:         511106 ave      511106 max      511106 min
Histogram: 1 0 0 0 0 0 0 0 0 0

Total # of neighbors = 511106
Ave neighs/atom = 482.63078
Ave special neighs/atom = 6.9556185
Neighbor list builds = 99
Dangerous builds = 0
unfix           NPT_TRACE
unfix           NPT_EQ
write_restart   ${output_restart}
write_restart   ec_dmc_3_7_lipf6_1m_tmspi_1wt_298K.npt.4.restart
System init for write_restart ...
PPPM initialization ...
  using 12-bit tables for long-range coulomb
  G vector (1/distance) = 0.20338991
  grid = 8 8 8
  stencil order = 5
  estimated absolute RMS force accuracy = 0.024343793
  estimated relative force accuracy = 7.3310608e-05
  using double precision FFTW3
  3d grid and FFT values/proc = 2197 512
Generated 45 of 45 mixed pair_coeff terms from arithmetic mixing rule
Total wall time: 0:01:01
