LAMMPS (22 Jul 2025 - Update 4)
# Initial NPT chunk for composition tag=ec_dmc_3_7_lipf6_1m_tmspi_1wt_298K
# Generated by scripts/curate_ff_md_data.py

units           real
boundary        p p p
atom_style      full
bond_style      harmonic
angle_style     harmonic
dihedral_style  opls
improper_style  cvff

pair_style      lj/cut/coul/long 12.0 12.0
pair_modify     mix arithmetic
special_bonds   lj/coul 0.0 0.0 0.5

read_data       ec_dmc_3_7_lipf6_1m_tmspi_1wt_298K.lmp
Reading data file ...
  triclinic box = (-0.023 -0.033 -0.0050000004) to (23.272548 23.262548 23.290548) with tilt (0 0 0)
  2 by 1 by 2 MPI processor grid
  reading atoms ...
  1059 atoms
  scanning bonds ...
  5 = max bonds/atom
  scanning angles ...
  15 = max angles/atom
  scanning dihedrals ...
  33 = max dihedrals/atom
  scanning impropers ...
  1 = max impropers/atom
  triclinic box = (-0.023 -0.033 -0.0050000004) to (23.272548 23.262548 23.290548) with tilt (0 0 0)
  2 by 1 by 2 MPI processor grid
  reading bonds ...
  989 bonds
  reading angles ...
  1628 angles
  reading dihedrals ...
  1557 dihedrals
  reading impropers ...
  255 impropers
Finding 1-2 1-3 1-4 neighbors ...
  special bond factors lj:    0        0        0.5     
  special bond factors coul:  0        0        0.5     
     6 = max # of 1-2 neighbors
    10 = max # of 1-3 neighbors
    16 = max # of 1-4 neighbors
    18 = max # of special neighbors
  special bonds CPU = 0.001 seconds
  read_data CPU = 0.038 seconds

# openff-interchange writes the box as triclinic with zero tilt; PPPM stalls
# indefinitely in triclinic mode on this brew LAMMPS build, but works fine
# after change_box all ortho converts the zero-tilt box to orthogonal.
change_box      all ortho
Changing box ...
  orthogonal box = (-0.023 -0.033 -0.0050000004) to (23.272548 23.262548 23.290548)
kspace_style    pppm 1.0e-4

min_style       cg
minimize        1.0e-4 1.0e-6 10000 100000
PPPM initialization ...
  using 12-bit tables for long-range coulomb
  G vector (1/distance) = 0.20329199
  grid = 8 8 8
  stencil order = 5
  estimated absolute RMS force accuracy = 0.024435845
  estimated relative force accuracy = 7.3587821e-05
  using double precision FFTW3
  3d grid and FFT values/proc = 1053 128
Generated 45 of 45 mixed pair_coeff terms from arithmetic mixing rule
Neighbor list info ...
  update: every = 1 steps, delay = 0 steps, check = yes
  max neighbors/atom: 2000, page size: 100000
  master list distance cutoff = 14
  ghost atom cutoff = 14
  binsize = 7, bins = 4 4 4
  1 neighbor lists, perpetual/occasional/extra = 1 0 0
  (1) pair lj/cut/coul/long, perpetual
      attributes: half, newton on
      pair build: half/bin/newton
      stencil: half/bin/3d
      bin: standard
Per MPI rank memory allocation (min/avg/max) = 24.48 | 24.49 | 24.49 Mbytes
   Step          Temp          E_pair         E_mol          TotEng         Press     
         0   0              2055.9505      24669.135      26725.086      92909.168    
      1147   0             -3903.8694      5158.1409      1254.2715     -985.21473    
Loop time of 12.2657 on 4 procs for 1147 steps with 1059 atoms

90.3% CPU use with 4 MPI tasks x no OpenMP threads

Minimization stats:
  Stopping criterion = energy tolerance
  Energy initial, next-to-last, final = 
      26725.0858777368   1254.35977317807    1254.2715289918
  Force two-norm initial, final = 6809.7707 49.414674
  Force max component initial, final = 868.16275 19.480333
  Final line search alpha, max atom move = 0.0025258051 0.049203525
  Iterations, force evaluations = 1147 2289

MPI task timing breakdown:
Section |  min time  |  avg time  |  max time  |%varavg| %total
---------------------------------------------------------------
Pair    | 8.1806     | 8.7231     | 9.1254     |  11.8 | 71.12
Bond    | 0.24053    | 0.26938    | 0.29647    |   4.8 |  2.20
Kspace  | 2.3828     | 2.7637     | 3.3339     |  21.3 | 22.53
Neigh   | 0.078195   | 0.078224   | 0.078261   |   0.0 |  0.64
Comm    | 0.32908    | 0.34194    | 0.35469    |   2.2 |  2.79
Output  | 0          | 0          | 0          |   0.0 |  0.00
Modify  | 0          | 0          | 0          |   0.0 |  0.00
Other   |            | 0.08937    |            |       |  0.73

Nlocal:         264.75 ave         271 max         256 min
Histogram: 1 0 0 0 1 0 0 0 0 2
Nghost:         6440.5 ave        6529 max        6351 min
Histogram: 1 0 0 0 1 1 0 0 0 1
Neighs:         127314 ave      131609 max      123439 min
Histogram: 1 0 1 0 0 0 1 0 0 1

Total # of neighbors = 509254
Ave neighs/atom = 480.88196
Ave special neighs/atom = 6.9556185
Neighbor list builds = 17
Dangerous builds = 0
velocity        all create 298.15 181081 dist gaussian
neighbor        2.0 bin
neigh_modify    every 1 delay 0 check yes
timestep        1.0

thermo_style    custom step time temp press vol density pe ke etotal
thermo          100
variable        tracked_temperature_K equal temp
variable        tracked_density_g_cm3 equal density
variable        tracked_volume_A3 equal vol
variable        tracked_pressure_atm equal press
fix             NPT_EQ all npt temp 298.15 298.15 100.0 iso 1.0 1.0 1000.0
fix             NPT_TRACE all ave/time 100 1 100 v_tracked_temperature_K v_tracked_density_g_cm3 v_tracked_volume_A3 v_tracked_pressure_atm file ${thermo_trace}
fix             NPT_TRACE all ave/time 100 1 100 v_tracked_temperature_K v_tracked_density_g_cm3 v_tracked_volume_A3 v_tracked_pressure_atm file npt_thermo.1.dat
run             5000
PPPM initialization ...
  using 12-bit tables for long-range coulomb
  G vector (1/distance) = 0.20329199
  grid = 8 8 8
  stencil order = 5
  estimated absolute RMS force accuracy = 0.024435845
  estimated relative force accuracy = 7.3587821e-05
  using double precision FFTW3
  3d grid and FFT values/proc = 1053 128
Generated 45 of 45 mixed pair_coeff terms from arithmetic mixing rule
Per MPI rank memory allocation (min/avg/max) = 23.36 | 23.36 | 23.37 Mbytes
   Step          Time           Temp          Press          Volume        Density         PotEng         KinEng         TotEng    
      1147   1147           298.15         2414.7064      12642.087      1.1766414      1254.2715      940.27477      2194.5463    
      1200   1200           178.56895      2184.379       12651.222      1.1757918      1686.3092      563.15236      2249.4616    
      1300   1300           186.39761      5068.7191      12758.732      1.1658841      1785.718       587.8416       2373.5596    
      1400   1400           211.79459      2655.1879      12961.923      1.1476078      1872.2512      667.93598      2540.1872    
      1500   1500           227.1941       1930.6351      13179.99       1.1286203      2005.4613      716.50137      2721.9627    
      1600   1600           261.93517      2108.243       13346.401      1.1145479      2076.2018      826.06417      2902.266     
      1700   1700           292.20726      1061.2289      13456.04       1.1054666      2139.1572      921.53318      3060.6903    
      1800   1800           312.36142     -417.54958      13582.249      1.0951944      2169.7327      985.0933       3154.826     
      1900   1900           306.71035     -46.081736      13732.241      1.083232       2206.7977      967.27151      3174.0692    
      2000   2000           316.66188     -1597.5055      13831.492      1.0754591      2111.619       998.65562      3110.2746    
      2100   2100           286.71879     -1410.7936      13810.429      1.0770993      2140.4561      904.22419      3044.6803    
      2200   2200           290.43168     -1192.656       13718.219      1.0843392      2127.8026      915.93353      3043.7361    
      2300   2300           290.60695      829.35461      13629.015      1.0914364      2167.3391      916.48628      3083.8253    
      2400   2400           303.38251      528.58966      13603.294      1.0935001      2158.7482      956.77654      3115.5248    
      2500   2500           297.51376     -349.74754      13666.13       1.0884722      2174.9278      938.26825      3113.1961    
      2600   2600           298.4219      -1515.9423      13685.623      1.0869219      2137.5409      941.13225      3078.6732    
      2700   2700           291.78138     -473.25656      13651.116      1.0896694      2114.504       920.19006      3034.6941    
      2800   2800           292.84267     -330.2286       13624.166      1.0918249      2108.9683      923.53705      3032.5054    
      2900   2900           286.65237      1491.3999      13574.407      1.0958271      2129.2655      904.01474      3033.2802    
      3000   3000           292.62921      3236.9489      13513.687      1.1007509      2118.6443      922.86388      3041.5082    
      3100   3100           299.299        1349.2081      13462.631      1.1049254      2101.3892      943.89835      3045.2876    
      3200   3200           303.6113       279.83732      13437.823      1.1069653      2089.0173      957.49807      3046.5154    
      3300   3300           293.01389     -379.97547      13435.425      1.1071628      2108.0989      924.07702      3032.1759    
      3400   3400           294.46441      442.74973      13441.597      1.1066545      2068.2753      928.65154      2996.9269    
      3500   3500           283.56463     -1948.7357      13493.845      1.1023695      2083.9662      894.27694      2978.2432    
      3600   3600           293.15313     -2365.4798      13544.13       1.0982767      2092.9342      924.51614      3017.4504    
      3700   3700           303.74729      370.0853       13568.301      1.0963202      2116.115       957.92694      3074.0419    
      3800   3800           312.48028     -1553.9318      13599.722      1.0937873      2103.6177      985.46812      3089.0859    
      3900   3900           297.13393     -1491.8346      13549.563      1.0978363      2098.879       937.0704       3035.9494    
      4000   4000           288.85576     -887.64618      13473.787      1.1040106      2076.7347      910.96356      2987.6982    
      4100   4100           281.1587       77.252465      13427.504      1.1078159      2083.1639      886.68937      2969.8533    
      4200   4200           291.58231     -3415.2225      13404.742      1.1096971      2068.4482      919.56227      2988.0105    
      4300   4300           300.68267      25.829262      13386.272      1.1112283      2079.2828      948.26205      3027.5449    
      4400   4400           311.45903     -281.52935      13433.415      1.1073285      2069.966       982.2474       3052.2134    
      4500   4500           303.06642     -1370.7721      13458.041      1.1053022      2069.5029      955.77966      3025.2825    
      4600   4600           302.39665      141.01511      13474.238      1.1039736      2026.7114      953.66742      2980.3789    
      4700   4700           292.55229      2881.7307      13527.84       1.0995993      2064.4318      922.6213       2987.0531    
      4800   4800           300.71017      442.99395      13600.435      1.09373        2058.5435      948.34876      3006.8923    
      4900   4900           305.36193     -445.8901       13630.215      1.0913403      2060.4738      963.01903      3023.4928    
      5000   5000           296.90947     -1043.1367      13584.512      1.095012       2119.5144      936.36251      3055.8769    
      5100   5100           302.29042      1129.1866      13500.055      1.1018624      2081.9529      953.33241      3035.2853    
      5200   5200           301.10362      892.78917      13448.518      1.1060849      2045.7396      949.58958      2995.3292    
      5300   5300           297.13416      1496.4709      13367.968      1.1127498      2034.3136      937.07112      2971.3847    
      5400   5400           298.40757      2024.9289      13302.215      1.1182501      2027.6913      941.08708      2968.7784    
      5500   5500           303.90177      689.15046      13290.665      1.1192219      2022.8583      958.41412      2981.2725    
      5600   5600           314.1963       2139.632       13324.806      1.1163542      2013.327       990.87995      3004.2069    
      5700   5700           301.13267     -1153.3936      13441.452      1.1066664      2056.0528      949.68121      3005.734     
      5800   5800           291.75919     -978.76222      13578.39       1.0955057      2054.1664      920.1201       2974.2865    
      5900   5900           290.37536     -1944.2668      13691.248      1.0864753      2031.8908      915.7559       2947.6467    
      6000   6000           293.10242     -249.22032      13710.889      1.084919       2077.2706      924.35625      3001.6269    
      6100   6100           298.3626      -1698.9942      13656.732      1.0892213      2100.3302      940.94525      3041.2754    
      6147   6147           299.07117      659.62363      13636.407      1.0908448      2099.3649      943.17985      3042.5447    
Loop time of 19.0371 on 4 procs for 5000 steps with 1059 atoms

Performance: 22.692 ns/day, 1.058 hours/ns, 262.645 timesteps/s, 278.141 katom-step/s
86.0% CPU use with 4 MPI tasks x no OpenMP threads

MPI task timing breakdown:
Section |  min time  |  avg time  |  max time  |%varavg| %total
---------------------------------------------------------------
Pair    | 10.774     | 11.407     | 12.382     |  18.2 | 59.92
Bond    | 0.5128     | 0.57662    | 0.65183    |   7.4 |  3.03
Kspace  | 4.2337     | 5.1611     | 5.8648     |  27.1 | 27.11
Neigh   | 0.5152     | 0.51553    | 0.51601    |   0.0 |  2.71
Comm    | 0.86206    | 0.87379    | 0.88566    |   1.0 |  4.59
Output  | 0.0042736  | 0.0052331  | 0.005713   |   0.8 |  0.03
Modify  | 0.31982    | 0.33709    | 0.35174    |   2.0 |  1.77
Other   |            | 0.1606     |            |       |  0.84

Nlocal:         264.75 ave         283 max         251 min
Histogram: 2 0 0 0 0 0 1 0 0 1
Nghost:        6130.25 ave        6222 max        6024 min
Histogram: 1 0 0 1 0 0 0 1 0 1
Neighs:         118067 ave      120992 max      114315 min
Histogram: 1 0 0 0 0 1 1 0 0 1

Total # of neighbors = 472267
Ave neighs/atom = 445.95562
Ave special neighs/atom = 6.9556185
Neighbor list builds = 107
Dangerous builds = 0
unfix           NPT_TRACE
unfix           NPT_EQ
write_restart   ${output_restart}
write_restart   ec_dmc_3_7_lipf6_1m_tmspi_1wt_298K.npt.1.restart
System init for write_restart ...
PPPM initialization ...
  using 12-bit tables for long-range coulomb
  G vector (1/distance) = 0.2013957
  grid = 8 8 8
  stencil order = 5
  estimated absolute RMS force accuracy = 0.026277209
  estimated relative force accuracy = 7.9133034e-05
  using double precision FFTW3
  3d grid and FFT values/proc = 1053 128
Generated 45 of 45 mixed pair_coeff terms from arithmetic mixing rule
Total wall time: 0:00:31
