LAMMPS (22 Jul 2025 - Update 4)
# Restart continuation NPT chunk for composition tag=ec_dmc_3_7_lipf6_1m_tmspi_1wt_298K
# Generated by scripts/curate_ff_md_data.py

read_restart    ${input_restart}
read_restart    ec_dmc_3_7_lipf6_1m_tmspi_1wt_298K.npt.2.restart
Reading restart file ...
  restart file = 22 Jul 2025, LAMMPS = 22 Jul 2025
  restoring atom style full from restart
  orthogonal box = (-0.2159493 -0.2259493 -0.1979493) to (23.465497 23.455497 23.483497)
  2 by 1 by 2 MPI processor grid
  restoring pair style lj/cut/coul/long from restart
  restoring bond style harmonic from restart
  restoring angle style harmonic from restart
  restoring dihedral style opls from restart
  restoring improper style cvff from restart
  1059 atoms
  989 bonds
  1628 angles
  1557 dihedrals
  255 impropers
Finding 1-2 1-3 1-4 neighbors ...
  special bond factors lj:    0        0        0.5     
  special bond factors coul:  0        0        0.5     
     6 = max # of 1-2 neighbors
    10 = max # of 1-3 neighbors
    16 = max # of 1-4 neighbors
    18 = max # of special neighbors
  special bonds CPU = 0.001 seconds
  read_restart CPU = 0.018 seconds
kspace_style    pppm 1.0e-4
neighbor        2.0 bin
neigh_modify    every 1 delay 0 check yes
timestep        1.0

thermo_style    custom step time temp press vol density pe ke etotal
thermo          100
variable        tracked_temperature_K equal temp
variable        tracked_density_g_cm3 equal density
variable        tracked_volume_A3 equal vol
variable        tracked_pressure_atm equal press
fix             NPT_EQ all npt temp 298.15 298.15 100.0 iso 1.0 1.0 1000.0
fix             NPT_TRACE all ave/time 100 1 100 v_tracked_temperature_K v_tracked_density_g_cm3 v_tracked_volume_A3 v_tracked_pressure_atm file ${thermo_trace}
fix             NPT_TRACE all ave/time 100 1 100 v_tracked_temperature_K v_tracked_density_g_cm3 v_tracked_volume_A3 v_tracked_pressure_atm file npt_thermo.3.dat
run             5000
PPPM initialization ...
  using 12-bit tables for long-range coulomb
  G vector (1/distance) = 0.20205866
  grid = 8 8 8
  stencil order = 5
  estimated absolute RMS force accuracy = 0.025620599
  estimated relative force accuracy = 7.7155674e-05
  using double precision FFTW3
  3d grid and FFT values/proc = 1053 128
Generated 45 of 45 mixed pair_coeff terms from arithmetic mixing rule
Neighbor list info ...
  update: every = 1 steps, delay = 0 steps, check = yes
  max neighbors/atom: 2000, page size: 100000
  master list distance cutoff = 14
  ghost atom cutoff = 14
  binsize = 7, bins = 4 4 4
  1 neighbor lists, perpetual/occasional/extra = 1 0 0
  (1) pair lj/cut/coul/long, perpetual
      attributes: half, newton on
      pair build: half/bin/newton
      stencil: half/bin/3d
      bin: standard
Per MPI rank memory allocation (min/avg/max) = 23.35 | 23.36 | 23.36 Mbytes
   Step          Time           Temp          Press          Volume        Density         PotEng         KinEng         TotEng    
     11147   11147          308.30058     -1336.565       13280.814      1.1200521      1994.6292      972.28661      2966.9158    
     11200   11200          298.56684     -2141.6952      13267.668      1.1211618      2021.6971      941.58937      2963.2865    
     11300   11300          301.82572     -2185.2164      13221.802      1.1250512      1990.3059      951.86688      2942.1728    
     11400   11400          286.38716      394.00399      13156.313      1.1306514      1985.1187      903.17835      2888.297     
     11500   11500          285.52992     -790.01612      13074.004      1.1377696      1998.5923      900.47488      2899.0672    
     11600   11600          290.46036      359.34959      13019.582      1.1425254      2042.9009      916.02398      2958.9249    
     11700   11700          312.06226      1857.507       13049.289      1.1399244      1985.9019      984.14982      2970.0517    
     11800   11800          294.45996      275.86369      13105.862      1.1350038      2030.3743      928.63749      2959.0118    
     11900   11900          288.84915     -705.37883      13119.061      1.1338618      2020.3971      910.9427       2931.3398    
     12000   12000          283.05546      895.76297      13030.461      1.1415715      2012.9518      892.67116      2905.623     
     12100   12100          302.22819      751.38791      12962.136      1.1475889      2000.5911      953.13614      2953.7272    
     12200   12200          299.1894      -792.91263      12925.649      1.1508283      2040.7952      943.55273      2984.348     
     12300   12300          302.68191     -71.385307      12923.247      1.1510422      2014.6381      954.56705      2969.2051    
     12400   12400          290.03469     -1100.7285      13001.482      1.144116       2019.1899      914.68156      2933.8714    
     12500   12500          287.53534     -264.83999      13072.28       1.1379196      2012.1216      906.79935      2918.921     
     12600   12600          300.12217      869.00231      13132.176      1.1327295      1980.3655      946.49439      2926.8599    
     12700   12700          298.21565      739.65854      13164.727      1.1299287      1999.5784      940.48181      2940.0602    
     12800   12800          294.2455      -243.69358      13179.441      1.1286673      2029.6805      927.96117      2957.6416    
     12900   12900          305.13562      1441.2257      13147.931      1.1313722      2009.3144      962.30531      2971.6197    
     13000   13000          296.88002      94.84077       13089.703      1.136405       2022.3634      936.26963      2958.6331    
     13100   13100          285.12815      2240.9126      12984.911      1.1455761      2008.8475      899.20779      2908.0553    
     13200   13200          298.04427      506.84449      12866.158      1.1561495      1969.4239      939.94132      2909.3652    
     13300   13300          309.57422      2026.4954      12755.315      1.1661965      1982.0582      976.3033       2958.3615    
     13400   13400          308.50988      3129.4278      12742.188      1.1673978      1993.1443      972.94668      2966.091     
     13500   13500          309.02111      2689.3357      12837.691      1.1587133      1966.4758      974.55897      2941.0348    
     13600   13600          300.19286     -493.97349      13004.062      1.143889       1982.8341      946.71734      2929.5515    
     13700   13700          291.97961     -1449.4578      13148.165      1.131352       2007.1823      920.81524      2927.9976    
     13800   13800          299.23504      1193.6983      13181.645      1.1284785      2000.7112      943.69666      2944.4079    
     13900   13900          305.30633      1815.4382      13139.757      1.132076       1997.0367      962.84367      2959.8803    
     14000   14000          304.55357      3268.7569      13102.063      1.1353329      2023.2709      960.46969      2983.7406    
     14100   14100          305.56835      529.75823      13114.978      1.1342149      2002.0338      963.66999      2965.7038    
     14200   14200          302.92092     -386.06839      13162.919      1.130084       1957.1382      955.32081      2912.459     
     14300   14300          305.73473      1946.3018      13153.499      1.1308932      1939.6377      964.19472      2903.8324    
     14400   14400          293.44357      2421.746       13070.532      1.1380717      1999.079       925.4321       2924.5111    
     14500   14500          303.30683     -2279.6408      12956.265      1.1481089      2007.4961      956.53784      2964.0339    
     14600   14600          303.59007     -460.2821       12833.389      1.1591017      1997.9387      957.43112      2955.3699    
     14700   14700          300.82535      733.54058      12774.411      1.1644532      1977.0499      948.71202      2925.7619    
     14800   14800          298.917        406.68892      12769.518      1.1648994      1954.3022      942.69364      2896.9959    
     14900   14900          284.77032      683.78384      12830.557      1.1593575      1977.3861      898.0793       2875.4654    
     15000   15000          297.44382      390.68605      12939.526      1.1495942      1984.7506      938.0477       2922.7983    
     15100   15100          298.63039      369.13211      13013.142      1.1430908      2026.3201      941.78979      2968.1099    
     15200   15200          307.27038     -111.17376      13030.255      1.1415896      1988.3165      969.03769      2957.3542    
     15300   15300          292.61023      1002.5629      12961.711      1.1476265      2003.392       922.80402      2926.196     
     15400   15400          291.37954     -628.40746      12864.928      1.1562601      1978.1918      918.92278      2897.1146    
     15500   15500          301.84388     -85.822788      12761.863      1.1655981      1957.7609      951.92416      2909.6851    
     15600   15600          308.30684     -321.91942      12651.999      1.1757196      1991.1787      972.30636      2963.4851    
     15700   15700          307.22579      199.5899       12581.401      1.1823169      1980.7645      968.89705      2949.6615    
     15800   15800          296.73158     -442.52403      12574.146      1.1829991      1960.6771      935.80151      2896.4786    
     15900   15900          284.19763      463.53453      12654.805      1.1754589      1991.5177      896.27323      2887.7909    
     16000   16000          298.32124     -2586.4593      12808.211      1.1613802      1963.3243      940.81479      2904.1391    
     16100   16100          311.88235     -455.61036      12880.927      1.154824       1950.1984      983.58246      2933.7809    
     16147   16147          315.08521     -300.15735      12896.429      1.1534358      1961.1044      993.68328      2954.7876    
Loop time of 27.0239 on 4 procs for 5000 steps with 1059 atoms

Performance: 15.986 ns/day, 1.501 hours/ns, 185.022 timesteps/s, 195.938 katom-step/s
84.1% CPU use with 4 MPI tasks x no OpenMP threads

MPI task timing breakdown:
Section |  min time  |  avg time  |  max time  |%varavg| %total
---------------------------------------------------------------
Pair    | 16.738     | 17.543     | 18.361     |  17.4 | 64.92
Bond    | 0.76798    | 0.85245    | 0.9497     |   7.0 |  3.15
Kspace  | 5.0192     | 5.8295     | 6.6398     |  32.0 | 21.57
Neigh   | 0.77866    | 0.78741    | 0.79588    |   0.9 |  2.91
Comm    | 1.1365     | 1.1573     | 1.1885     |   1.8 |  4.28
Output  | 0.0055261  | 0.0056267  | 0.005722   |   0.1 |  0.02
Modify  | 0.61457    | 0.63732    | 0.67248    |   3.0 |  2.36
Other   |            | 0.2115     |            |       |  0.78

Nlocal:         264.75 ave         273 max         259 min
Histogram: 2 0 0 0 0 1 0 0 0 1
Nghost:        6395.25 ave        6464 max        6318 min
Histogram: 1 0 0 0 1 0 1 0 0 1
Neighs:         124942 ave      137814 max      113131 min
Histogram: 1 1 0 0 0 0 0 1 0 1

Total # of neighbors = 499769
Ave neighs/atom = 471.9254
Ave special neighs/atom = 6.9556185
Neighbor list builds = 109
Dangerous builds = 0
unfix           NPT_TRACE
unfix           NPT_EQ
write_restart   ${output_restart}
write_restart   ec_dmc_3_7_lipf6_1m_tmspi_1wt_298K.npt.3.restart
System init for write_restart ...
PPPM initialization ...
  using 12-bit tables for long-range coulomb
  G vector (1/distance) = 0.2027941
  grid = 8 8 8
  stencil order = 5
  estimated absolute RMS force accuracy = 0.024908434
  estimated relative force accuracy = 7.5011009e-05
  using double precision FFTW3
  3d grid and FFT values/proc = 1053 128
Generated 45 of 45 mixed pair_coeff terms from arithmetic mixing rule
Total wall time: 0:00:27
