LAMMPS data file via write_data, version 22 Jul 2025, timestep = 516147, units = real

1059 atoms
10 atom types
989 bonds
9 bond types
1628 angles
11 angle types
1557 dihedrals
19 dihedral types
255 impropers
1 improper types

-0.15873454615732818 23.40828247611745 xlo xhi
-0.16873454611717165 23.398282476117288 ylo yhi
-0.14073454651939166 23.426282476119432 zlo zhi

Masses

1 12.01078
2 15.99943
3 12.01078
4 15.99943
5 1.007947
6 6.9412
7 18.998403
8 30.973762
9 28.08553
10 1.007947

Pair Coeffs # lj/cut/coul/long

1 0.108841 3.37953
2 0.168465 3.02511
3 0.0868793 3.48065
4 0.210206 3.03981
5 0.0164092 2.58323
6 0.0279896 1.82634
7 0.061 3.11815
8 0.2 3.74177
9 0.1078 3.39771
10 0.0157795 2.64454

Bond Coeffs # harmonic

1 215.301 1.53363
2 227.037 1.43632
3 357.819 1.09421
4 291.342 1.35606
5 762.039 1.225
6 440 1.64
7 114.445 1.535
8 141.135 1.427
9 261.23 1.6281

Angle Coeffs # harmonic

1 91.5186 108.173
2 66.7563 109.938
3 63.31 123.606
4 36.7766 108.354
5 119.896 112.874
6 84.5477 120.105
7 89.8573 108.907
8 29.935 112.63
9 38.72 107.62
10 21.635 109.68
11 27.695 119.9

Dihedral Coeffs # opls

1 1 0.111303 3 0
2 1 0.438911 1 180
3 1 1.76361 2 180
4 1 -0.0153377 3 0
5 1 0.41915 2 0
6 1 0.131135 3 0
7 1 0.436547 1 0
8 1 0.263111 3 0
9 1 0.227995 3 0
10 1 0.302195 2 180
11 1 1.35005 1 180
12 1 3.48187 2 180
13 1 0.13 3 0
14 1 0.383 3 0
15 1 3.95 1 180
16 1 0.434179 3 0
17 1 9.35835 1 0
18 1 -1.88726 2 0
19 1 0.25 1 0

Improper Coeffs # cvff

1 4.30523 -1 2

Atoms # full

121 13 1 0.0955 6.672596208391801 2.8523568584416426 1.5742326476031743 1 0 0
122 13 1 0.0955 5.175404956930834 2.8367236015022765 1.7369008969638264 1 0 0
127 13 5 0.0798 7.192184315488881 1.8726503716501617 1.6882528177193994 1 0 0
130 13 5 0.0798 4.787768901312355 3.2368355331242538 2.6585818230555707 1 0 0
983 95 8 -0.5033997099999999 6.501421716011504 0.17887544097915556 4.9893554944135525 0 0 0
986 95 7 -0.08276671400000001 6.313720772102746 0.23457652138800245 3.3462485433124267 0 0 0
11 2 1 0.0955 6.497479999903755 3.9334371477617593 7.331767796901433 0 1 0
668 61 5 0.0582835 1.2151735169234794 3.8078287017429373 9.389106600781384 0 0 0
984 95 7 -0.08276671400000001 5.8115840903055975 1.6559871929201773 5.176399147114049 0 0 0
19 2 5 0.0798 4.399106062530452 4.694801899830132 7.593697643379743 0 1 0
12 2 1 0.0955 4.961197334466076 3.7420872000697183 7.604465032354134 0 1 0
17 2 5 0.0798 6.622192770784078 4.9650607884338545 7.690454059437246 0 1 0
982 95 7 -0.08276671400000001 7.4797180756815616 1.114303133328048 5.9285101907838476 0 0 0
669 61 5 0.0582835 -0.04345592580834089 3.434030688255698 8.570058136841544 0 0 0
661 61 1 0.1266165 1.02679841295614 3.3132805981197326 8.44794230722408 0 0 0
20 2 5 0.0798 4.529148415377822 3.0767760904413204 6.899307409011546 0 1 0
18 2 5 0.0798 6.925244127494934 4.0920341697832034 6.280242308929763 0 1 0
129 13 5 0.0798 4.801125570348216 1.7824716907873748 1.6945297709195493 1 0 0
667 61 5 0.0582835 1.3418003942398844 2.243860975302088 8.443472977952993 0 0 0
662 61 2 -0.3889835 1.6102108523094507 4.00099378466815 7.348450510362169 0 0 0
16 2 2 -0.4048 7.141585255514515 3.3394388694372643 8.411916729412656 0 1 0
13 2 2 -0.4048 4.90140048646209 3.0957937992410134 8.82012632537806 0 1 0
128 13 5 0.0798 7.157268330899937 3.5319559007875387 2.292636776513071 1 0 0
426 41 1 0.1266165 2.2438095263755327 22.961330693804825 4.077455759297589 0 -1 0
857 77 2 -0.3889835 10.429627924611484 3.5039714150486625 10.967370231600555 0 0 0
14 2 3 0.8478 6.187736693882805 2.8748328122182008 9.282328439000969 0 1 0
663 61 3 0.7551165 1.4651493906097734 3.4318433409327547 6.15936532610503 0 0 0
664 61 4 -0.5800835 0.8953104947839243 2.3999963153767148 5.853622232758902 0 0 0
15 2 4 -0.5484 6.4334130906638896 2.2999036688605217 10.351268470848398 0 1 0
665 61 2 -0.3889835 2.069990473701865 4.20689629757801 5.182133341151672 0 0 0
494 47 2 -0.3889835 1.355653131991528 8.024125228105174 2.6121764850327676 0 0 0
666 61 1 0.1266165 2.0026623821398863 3.711629511996886 3.8742221334993605 0 0 0
500 47 5 0.0582835 0.9146206376798166 7.7776290043908 4.645783939483849 0 0 0
1041 100 10 0.051144 3.786699612657851 6.79041902103679 10.822323210356302 1 0 0
671 61 5 0.0582835 2.5694948396338573 2.788810380827806 3.7269666559507937 0 0 0
625 58 1 0.1266165 10.289732669413468 1.9408740790345032 4.41802345529856 -1 0 0
501 47 5 0.0582835 2.3358729337295294 6.929957750117789 4.0209791140752635 0 0 0
632 58 5 0.0582835 9.58177725969591 2.6602941915549674 4.745690045175215 -1 0 0
1040 100 10 0.051144 2.4534787883375544 5.930230178998498 10.344908495444683 1 0 0
855 77 3 0.7551165 11.353459151629126 4.477307484134053 11.015816034950747 0 0 0
633 58 5 0.0582835 10.147868361379194 1.7354095776582383 3.281479547435118 -1 0 0
631 58 5 0.0582835 10.113576630535658 0.9819275614983968 4.840822556619279 -1 0 0
383 37 5 0.0582835 9.588559177590765 4.1043375014132035 7.737004652308238 0 0 0
378 37 1 0.1266165 10.139687635357104 4.9002617785503135 7.164464483951724 0 0 0
1009 98 7 -0.08276671400000001 5.6169825139002 4.84386413661432 4.525021881508902 0 0 0
586 54 5 0.0582835 8.562275208784818 7.179205120237879 11.069803134942136 0 0 0
377 37 2 -0.3889835 10.396350072991666 6.0150998201424155 8.16302303944267 0 0 0
384 37 5 0.0582835 9.493823368686737 5.254247114228832 6.344257065511459 0 0 0
209 21 5 0.0798 10.689718381617745 0.23357235921298206 9.11123638300918 0 1 0
202 21 1 0.0955 9.809272607493298 0.14768783083315293 9.74646124642907 0 1 0
210 21 5 0.0798 9.727583434203552 1.1793478125084653 10.132364925889924 0 1 0
1006 98 7 -0.08276671400000001 4.7876830402087815 6.112150385722519 2.6048173691933068 0 0 0
1007 98 7 -0.08276671400000001 6.665442091102599 6.314022416786081 2.174863608061722 0 0 0
432 41 5 0.0582835 2.1913225199854884 0.5035226540211933 4.190949713409297 0 0 0
626 58 2 -0.3889835 11.6121310228168 2.361086530260016 4.818826339298972 -1 0 0
624 57 5 0.0582835 10.030972892623785 2.4365465327477382 0.65418595585878 0 1 0
1008 98 7 -0.08276671400000001 7.404233465929243 5.245625845642193 3.9738800395280225 0 0 0
1004 98 8 -0.5033997099999999 6.078297347958292 6.148674711763579 3.6859536078977038 0 0 0
10 1 5 0.0798 10.93715022772221 19.77334889716583 4.744958604511651 0 -1 1
123 13 2 -0.4048 4.557094332540833 3.4632028967757975 0.5049671546713823 1 0 0
858 77 1 0.1266165 9.137285507931336 3.8593708741998216 11.544402507397429 0 0 0
670 61 5 0.0582835 2.4550632676634683 4.488664192655205 3.227632208708265 0 0 0
818 74 2 -0.3889835 10.775101047604679 6.697490653006818 1.8149078958058256 0 0 1
140 14 5 0.0798 1.4159520812366828 2.2442265836971895 1.0141817965995208 1 0 1
1020 100 1 -0.3481 2.836411793296141 6.440528670658917 11.190488909236239 1 0 0
940 84 4 -0.5800835 2.804256797533896 0.2341903560612322 9.99151391809904 0 1 0
444 42 5 0.0582835 2.506026307868426 6.830791355387455 7.942676399285817 0 0 0
375 37 3 0.7551165 11.266701885128228 7.09478608141169 7.74600557007463 0 0 0
1005 98 7 -0.08276671400000001 5.325814784160462 7.2183744753044214 4.616830544719366 0 0 0
819 74 3 0.7551165 10.998314088992005 5.999567386565516 0.6850582661623192 0 0 1
1003 98 7 -0.08276671400000001 6.944137332541821 7.418461135028475 4.165690482470284 0 0 0
438 42 1 0.1266165 3.1052821612000012 7.705502212880517 7.942057006222012 0 0 0
443 42 5 0.0582835 4.1050883508833955 7.567040020731309 8.376398994129579 0 0 0
856 77 4 -0.5800835 11.157588018432122 5.588205095925814 11.493310371663323 0 0 0
132 14 1 0.0955 0.4821386144669156 2.026258044272237 0.44042331305469656 1 0 1
825 74 5 0.0582835 9.993022037783161 5.381932525937564 3.15941441945423 0 0 1
943 84 5 0.0582835 4.685869124349673 0.196621298085786 8.139776275901918 0 1 0
139 14 5 0.0798 0.5515076179248514 0.8864083210718281 0.18879891016719222 1 0 1
382 37 5 0.0582835 11.018331685524172 4.440426415258456 6.736238492700122 0 0 0
863 77 5 0.0582835 8.445846019837544 3.0266712714166153 11.526553712984867 0 0 0
672 61 5 0.0582835 0.9559845098646231 3.6670509565563245 3.5263313844003448 0 0 0
862 77 5 0.0582835 8.620899756350024 4.651257937130117 11.038259361129569 0 0 0
824 74 5 0.0582835 10.819113481618706 6.788765868988162 3.9699508940384423 0 0 1
1039 100 10 0.051144 2.3376696529843772 7.337540843603947 11.374284298352185 1 0 0
497 47 2 -0.3889835 1.6745534037034342 8.448174725725037 0.32137245484050136 0 0 0
361 36 1 0.1266165 5.55144719166548 11.653233859861317 0.348380988410646 0 0 0
71 8 1 0.0955 -0.08233768596173544 11.436247988085457 2.2145093367999653 1 0 0
372 36 5 0.0582835 7.655688630158533 7.159446327021949 0.010554456068412262 0 0 0
283 29 2 -0.4048 10.561883412128907 9.923891040794329 2.547172019497672 0 0 0
374 37 2 -0.3889835 11.441845066557773 8.064026793838112 8.74931583218271 0 0 0
285 29 4 -0.5484 9.299279228437694 10.094213367742045 0.7405092396033268 0 0 0
369 36 5 0.0582835 4.71038996648497 11.246962828381811 0.7836773230064891 0 0 0
495 47 3 0.7551165 2.250987223577215 8.284667489668765 1.6121455780120053 0 0 0
716 65 5 0.0582835 3.6548216833972407 12.769836720169685 9.928935385651819 0 0 0
493 47 1 0.1266165 1.8050844796941974 7.830794669739657 3.9643476570777674 0 0 0
499 47 5 0.0582835 2.421736143658047 8.7278913368813 4.315597243225805 0 0 0
496 47 4 -0.5800835 3.478409732896697 8.36088995956143 1.8138655440215592 0 0 0
959 85 5 0.0582835 11.050682700984119 12.966973311749477 3.527610577648881 0 0 0
730 66 5 0.0582835 4.343406057601994 10.759598551969493 11.273563365722229 0 0 0
588 54 5 0.0582835 10.0518881803605 8.195547949420591 10.78121021605063 0 0 0
436 42 4 -0.5800835 0.8127575400835356 8.70943583389935 7.166980859408819 0 0 0
711 65 3 0.7551165 0.9859837345101832 14.399837851989172 8.72591454336558 0 0 0
712 65 4 -0.5800835 1.0164222950038737 13.976316288241852 7.578134798105925 0 0 0
233 24 2 -0.4048 9.397111282222717 10.997319470677128 5.89082309180802 0 -1 -1
731 66 5 0.0582835 4.585549170089457 9.217429637645273 10.331690450582112 0 0 0
126 13 2 -0.4048 6.911936752302079 3.5284289612058513 0.2136852036512126 1 0 0
442 42 5 0.0582835 3.3431866191840536 8.047979488100436 6.952786133489411 0 0 0
191 20 1 0.0955 9.970354452849175 13.343263562159342 11.305474175003795 0 0 0
951 85 3 0.7551165 11.19899650685151 14.53750505968713 6.395395522775527 0 0 0
234 24 3 0.8478 9.060522284974494 11.205885288666115 7.2245805290912335 0 -1 -1
238 24 5 0.0798 6.921449210602369 9.28063933132982 6.351193966946805 0 -1 -1
364 36 4 -0.5800835 6.108355425424998 8.971475144127218 0.8328547635904874 0 0 0
962 87 6 1 5.391840879687427 8.213357237671154 2.571724794453179 0 0 0
164 17 3 0.8478 5.159803718464174 10.860863074863431 4.244211700072471 0 0 0
165 17 4 -0.5484 5.675497523346223 9.95086474741564 3.5731430085406717 0 0 0
163 17 2 -0.4048 3.951924448121874 10.88552480213189 4.800234325399616 0 0 0
166 17 2 -0.4048 5.877932710519048 11.958887852558417 4.444457044663497 0 0 0
587 54 5 0.0582835 8.457777682898334 8.540578062157955 9.884319931885438 0 0 0
367 36 5 0.0582835 6.250203078448427 11.734175673582895 1.201665122913906 0 0 0
953 85 2 -0.3889835 10.653339317844402 13.90814861884983 5.318195196194921 0 0 0
232 24 1 0.0955 8.713869207402356 9.799313219678412 5.438867758013334 0 -1 -1
240 24 5 0.0798 8.249897699590564 9.945735541743968 4.4637180944633865 0 -1 -1
231 24 1 0.0955 7.953477926719816 9.29690375760547 6.611274784969593 0 -1 -1
237 24 5 0.0798 8.28411819168344 8.286726396683274 6.863971983633857 0 -1 -1
239 24 5 0.0798 9.563779185916635 9.082496554274062 5.29810435408128 0 -1 -1
162 17 1 0.0955 3.876138079000306 12.1847034767904 5.473184926282099 0 0 0
161 17 1 0.0955 5.135957371738357 12.847934699259705 5.211813078950674 0 0 0
435 42 3 0.7551165 1.3066449225900258 9.228936081190092 8.154623435816715 0 0 0
236 24 2 -0.4048 8.19421274327333 10.182480978707732 7.660379295989982 0 -1 -1
170 17 5 0.0798 2.9384968389701993 12.762690097169553 5.255859794754461 0 0 0
78 8 5 0.0798 0.959496267268502 11.479039736632023 2.0016738107706553 1 0 0
169 17 5 0.0798 3.9357075388075318 11.992925711694285 6.521155480582824 0 0 0
974 93 7 -0.08276671400000001 2.343015375602715 13.696604626634917 2.349751788831334 0 0 1
167 17 5 0.0798 5.604420002449792 13.33951649045949 6.0022315690221895 0 0 0
168 17 5 0.0798 4.824057341390612 13.609451013263582 4.500517367731184 0 0 0
802 72 5 0.0582835 7.552954237312451 14.856524900176565 4.100927867577948 0 0 1
724 66 4 -0.5800835 6.475596625411573 12.527549021740395 10.402454934140033 0 0 0
437 42 2 -0.3889835 2.482645066236922 8.797327996178332 8.65573628661566 0 0 0
729 66 5 0.0582835 6.742800869871634 14.87698539314485 9.02316797529117 0 0 0
723 66 3 0.7551165 6.097049273012783 12.060818089631328 9.372067985052064 0 0 0
732 66 5 0.0582835 5.954659100231179 10.070093463211267 11.253089178204057 0 0 0
796 72 4 -0.5800835 8.891162396662574 15.270204626910802 1.9675507072803777 0 0 1
727 66 5 0.0582835 8.145288128968113 13.847668432184994 8.922481718602505 0 0 0
971 93 7 -0.08276671400000001 4.437587077892251 14.726963131690916 1.6722107097464334 0 0 1
721 66 1 0.1266165 7.202567418942703 14.021186797139812 8.468364939285165 0 0 0
235 24 4 -0.5484 9.428039659946588 12.110361054593774 7.917423502502419 0 -1 -1
722 66 2 -0.3889835 6.390949592688841 12.736717767045496 8.24415360870962 0 0 0
725 66 2 -0.3889835 5.388815957468281 10.913541294714491 9.339061363034446 0 0 0
717 65 5 0.0582835 2.568461486170336 12.21749551687583 8.657499458935105 0 0 0
972 93 7 -0.08276671400000001 1.7687053077916455 15.24347093841633 2.973812230264241 0 0 1
582 54 1 0.1266165 8.913322580890704 8.180648529709746 10.841560298050632 0 0 0
728 66 5 0.0582835 7.340169367915092 14.455438051642112 7.521015788862491 0 0 0
710 65 2 -0.3889835 1.9640522358692842 14.05628726639212 9.683213314896419 0 0 0
434 42 2 -0.3889835 0.6725475083352918 10.2901518359269 8.809858138602982 0 0 0
709 65 1 0.1266165 3.0182103313598407 13.126890591490369 9.154667461036274 0 0 0
198 20 5 0.0798 9.852477267595827 14.446092482360903 11.160940935897589 0 0 0
726 66 1 0.1266165 5.05974577295739 10.205368086211177 10.624163742006969 0 0 0
969 93 8 -0.5033997099999999 2.841629366084865 15.157038146104455 1.737597610837162 0 0 1
197 20 5 0.0798 9.372798389407635 12.768915021660582 10.594480655258208 0 0 0
715 65 5 0.0582835 3.532772443768342 13.602247797228378 8.3248245760852 0 0 0
284 29 3 0.8478 10.423596164176763 9.95940143066712 1.1750253983340133 0 0 0
368 36 5 0.0582835 5.341294844939577 12.671368004697078 -0.005449079333459464 0 0 0
801 72 5 0.0582835 11.400365833309154 14.794093193025939 1.5498413073027424 0 0 1
973 93 7 -0.08276671400000001 2.6716968935711414 14.577092946157151 0.2017333435966599 0 0 1
192 20 1 0.0955 11.404837930871258 12.938768864942285 11.129921256232244 0 0 0
3 1 2 -0.4048 11.493421369733966 19.35151112000464 2.825383160692201 0 -1 1
957 85 5 0.0582835 11.347482183838997 15.328154452710253 9.10426478325035 0 0 0
199 20 5 0.0798 11.453409267686723 12.104526911681532 10.383686064212213 0 0 0
713 65 2 -0.3889835 0.02398025779175982 15.22573475180744 9.15602732555848 0 0 0
741 67 5 0.0582835 1.8644693448726724 17.084744937664205 10.210149424424511 1 0 0
820 74 4 -0.5800835 11.205012652466529 4.825543163097087 0.7628248607903517 0 0 1
987 95 7 -0.08276671400000001 7.800083858008015 23.245196134243805 4.148444122364174 0 -1 0
430 41 5 0.0582835 1.9568444569548489 22.436007762243396 4.907159694677884 0 -1 0
988 95 7 -0.08276671400000001 6.791479348726868 22.52248971720921 6.019788793426445 0 -1 0
431 41 5 0.0582835 3.232085026133207 22.603672618255512 3.890560540360958 0 -1 0
985 95 7 -0.08276671400000001 5.084706711963093 23.00751402958597 5.244304196192812 0 -1 0
734 67 2 -0.3889835 1.6232761017011286 18.96204228382441 11.017030186204448 1 0 0
955 85 5 0.0582835 11.454271920122329 16.685836992122255 8.046762441408054 0 0 0
549 51 5 0.0582835 1.1545085281518013 22.408784498374498 8.178795222248278 1 -1 0
548 51 5 0.0582835 0.6230912350021919 22.093326582571585 9.672695788776952 1 -1 0
740 67 5 0.0582835 3.3523471004996948 18.0814769785497 10.371480506675178 1 0 0
735 67 3 0.7551165 0.30578051542722184 19.044848488475825 10.854320156806764 1 0 0
798 72 1 0.1266165 7.420402929696221 15.93086343534026 4.026203826313651 0 0 1
803 72 5 0.0582835 7.020376731870495 16.30508071752669 4.971360287690878 0 0 1
797 72 2 -0.3889835 8.780241696565216 16.404330429094244 3.886190473553261 0 0 1
804 72 5 0.0582835 6.857262798023989 16.110825228583696 3.1157371158187632 0 0 1
950 85 2 -0.3889835 10.250933417572208 15.164730644446841 7.222624801719956 0 0 0
795 72 3 0.7551165 9.450257431095363 15.973157734992762 2.7665741269133526 0 0 1
968 93 7 -0.08276671400000001 1.947729437590718 16.241544589212925 0.8826354076232025 0 0 1
970 93 7 -0.08276671400000001 3.6998124852614205 16.372922102906685 2.4431085130036263 0 0 1
541 51 1 0.1266165 0.36488118446348655 22.687637199326964 8.828443951613128 1 -1 0
117 12 5 0.0798 1.1903501311982216 17.531077481453476 6.656108910337982 1 -1 0
945 84 5 0.0582835 3.963454750859239 22.18845998266846 8.120586364612326 0 0 0
930 83 1 0.1266165 6.0147639969755815 19.642612126488885 10.687907497573134 0 0 0
425 41 2 -0.3889835 1.4613166917569371 22.53285948028665 2.934730213332855 0 -1 0
793 72 1 0.1266165 11.428119952104126 15.91017844672896 1.4178873337079394 0 0 1
423 41 3 0.7551165 0.185439126650999 22.90785156876604 2.958511271215972 0 -1 0
208 21 5 0.0798 7.90249934507358 0.2298795864777787 9.005999834607808 0 1 0
113 12 2 -0.4048 1.8057997627941058 19.314799036083954 4.4876843469660646 1 -1 0
488 46 5 0.0582835 7.820409642380863 21.681103693525884 0.4115357282574653 1 0 1
991 96 7 -0.08276671400000001 10.466395743315429 20.023172302371798 7.027349549338037 0 0 0
116 12 2 -0.4048 0.07680369564209699 18.03147877165405 5.144629758049607 1 -1 0
111 12 1 0.0955 1.2761193390727248 17.365721119002686 5.54019317146632 1 -1 0
644 59 5 0.0582835 0.5363739784134994 20.54925194661522 1.1956448282168275 0 0 1
956 85 5 0.0582835 9.963137310692177 16.31263096903598 8.922271554667615 0 0 0
949 85 1 0.1266165 10.790508481423828 15.885695528275559 8.389579590855389 0 0 0
739 67 5 0.0582835 2.222337625939198 18.396244939113274 9.102972052116439 1 0 0
203 21 2 -0.4048 10.040937202868447 22.58191415190961 10.667799541482811 0 0 0
794 72 2 -0.3889835 10.77613007127555 16.382514323277046 2.5993754987243025 0 0 1
149 15 5 0.0798 8.834040963084115 17.811813343188344 7.241422689060286 0 0 0
787 71 5 0.0582835 7.551998257085273 16.835862671793112 0.2237065636485106 0 0 1
148 15 5 0.0798 7.239809851299966 20.363153582749845 7.453481017915819 0 0 0
204 21 3 0.8478 9.229807233155519 21.55465505525053 10.301768105232453 0 0 0
799 72 5 0.0582835 10.929980928052546 16.276349903788073 0.5141378098584157 0 0 1
645 59 5 0.0582835 0.7642378189993049 19.1326495980274 0.36304121634993103 0 0 1
993 96 7 -0.08276671400000001 11.118518535710495 21.919620907010557 6.8575711122837095 0 0 0
2 1 1 0.0955 11.271643618313854 20.36438926258262 3.882044813950644 0 -1 1
938 84 2 -0.3889835 4.796126340140472 22.728564870643403 9.990874316333654 0 0 0
975 94 7 -0.08276671400000001 10.520946186115022 17.929397692411122 11.14126666267307 0 0 0
939 84 3 0.7551165 3.7078084199465815 23.298975503058788 10.591176941847028 0 0 0
276 28 2 -0.4048 5.65550759544553 20.17119928546672 1.3660009767754402 0 0 1
1 1 1 0.0955 10.289983772629911 21.295049513307145 3.324257233205799 0 -1 1
643 59 5 0.0582835 1.9299205886845567 19.549000849293687 1.61846393893717 0 0 1
273 28 2 -0.4048 5.5167806861298345 18.847418188776373 3.1416356903279534 0 0 1
146 15 2 -0.4048 5.997641156952115 18.990947371824014 6.894471640757699 0 0 0
272 28 1 0.0955 5.613458159917493 20.22043189480041 3.6642691802435876 0 0 1
271 28 1 0.0955 5.721191727515136 21.043406455809695 2.4590063886284934 0 0 1
141 15 1 0.0955 7.33144657553399 19.386063215624247 6.951521854680024 0 0 0
206 21 2 -0.4048 8.455135446246677 21.894216598679705 9.200139244371323 0 0 0
279 28 5 0.0798 6.409429661028848 20.391067587439906 4.407950409932026 0 0 1
274 28 3 0.8478 5.550950396215267 18.89199744940481 1.780707561563586 0 0 1
205 21 4 -0.5484 9.171573038459393 20.44393193527162 10.85578233349676 0 0 0
936 83 5 0.0582835 6.948028978327457 19.22485575849616 10.238731195570185 0 0 0
278 28 5 0.0798 5.135007394213003 21.932601604775645 2.4244889918108172 0 0 1
147 15 5 0.0798 7.794069590627981 19.605065494013207 5.958421729346267 0 0 0
144 15 3 0.8478 5.89017632384899 17.83664951432961 7.677223524642133 0 0 0
277 28 5 0.0798 6.703302023890209 21.431765372378944 2.4209352207726504 0 0 1
6 1 2 -0.4048 9.970058815603625 20.744411162056608 2.0214712413393237 0 -1 1
934 83 5 0.0582835 5.212954875910637 19.57998588885859 9.921566319019982 0 0 0
114 12 3 0.8478 0.46362359792143976 19.233327936295122 4.535487416364195 1 -1 0
119 12 5 0.0798 3.0769146214079504 18.305204342729496 5.975591006609498 1 -1 0
275 28 4 -0.5484 5.4834978675554 17.943452420091894 1.0270613572174943 0 0 1
207 21 5 0.0798 8.934193456629101 23.398148613512316 7.790494570289365 0 0 0
4 1 3 0.8478 10.702953221810137 19.613066165972914 1.7526745706994833 0 -1 1
7 1 5 0.0798 10.674249936325003 22.325569530333485 3.204097022268413 0 -1 1
937 84 1 0.1266165 4.797286305985341 22.757401450638532 8.536294845785433 0 0 0
733 67 1 0.1266165 2.3153450375010376 18.083855745359664 10.116398786253622 1 0 0
944 84 5 0.0582835 5.698240091418637 22.261549069010716 8.19368126113951 0 0 0
201 21 1 0.0955 8.746224241838325 23.21077171508379 8.826640843109736 0 0 0
150 15 5 0.0798 8.737084075991357 18.95591913710119 8.563661877932367 0 0 0
8 1 5 0.0798 9.3755727952839 21.278814644236558 4.0444457389314605 0 -1 1
112 12 1 0.0955 2.4275027684604975 18.185523334742555 5.084169996127414 1 -1 0
145 15 4 -0.5484 4.8281829373620235 17.22294647004348 7.831217002242473 0 0 0
118 12 5 0.0798 1.433912673131378 16.277225883044057 5.407175323134925 1 -1 0
142 15 1 0.0955 8.087867713110725 18.366907486872577 7.852727221036971 0 0 0
120 12 5 0.0798 2.968424319609826 17.627321884460738 4.288261083134878 1 -1 0
637 59 1 0.1266165 1.3024416994232773 19.9465721805077 0.799965891402734 0 0 1
965 90 6 1 3.9795311084786964 16.68793232627051 0.3411231769833464 0 0 1
5 1 4 -0.5484 10.617021004635992 18.949212829012666 0.6805429810595705 0 -1 1
280 28 5 0.0798 4.622574156372606 20.454185821899816 4.170301519452524 0 0 1
143 15 2 -0.4048 7.114410303969098 17.458264470804437 8.232990526415254 0 0 0
935 83 5 0.0582835 6.206184213240956 20.707590145243813 10.87223827315659 0 0 0
817 74 1 0.1266165 10.823226574584716 6.100117911092739 3.078508707471865 0 0 1
615 57 3 0.7551165 11.57917934129726 0.18665216884642732 0.3270258162717736 0 1 0
547 51 5 0.0582835 0.2993543970054093 0.23189111519406677 9.022811671251516 1 0 0
954 85 1 0.1266165 11.598961589866484 13.227432156670455 4.457763553362028 0 0 0
1054 100 10 0.051144 0.19915112502422622 4.290822534511495 16.385314005341165 1 0 0
864 77 5 0.0582835 9.26962525556359 4.165257284863777 12.600643766357885 0 0 0
1018 100 9 1.0437 2.8582570090104924 5.503903704071669 12.486265502519322 1 0 0
357 35 5 0.0582835 7.597573952562368 1.8039395252064614 20.414369836095698 0 0 -1
355 35 5 0.0582835 7.241375001153574 1.3852466602399112 18.775215670170297 0 0 -1
350 35 2 -0.3889835 9.096342911484554 2.376469296833046 19.152937968929056 0 0 -1
349 35 1 0.1266165 8.094206098854443 1.4682116425008938 19.50716139650592 0 0 -1
351 35 3 0.7551165 8.68083669111546 3.632687276566802 18.916015020568526 0 0 -1
353 35 2 -0.3889835 9.656072263408296 4.528955476837871 18.584174083391257 0 0 -1
352 35 4 -0.5800835 7.505510184957894 4.036617769724152 18.980681932339962 0 0 -1
822 74 1 0.1266165 11.22927098036335 5.868254926097679 21.96648370523792 0 0 0
360 35 5 0.0582835 8.760957619715798 5.94991096581987 17.348236840407054 0 0 -1
354 35 1 0.1266165 9.311064954508824 5.904888372292869 18.316964611630254 0 0 -1
358 35 5 0.0582835 8.65371135977661 6.324289973167512 19.08746203532367 0 0 -1
1021 100 2 -0.7108 1.904296845969117 5.815475186760566 13.654843182623353 1 0 0
1031 100 1 -0.3481 0.7340241351860753 5.057564445006453 17.03816263519944 1 0 0
1056 100 10 0.051144 0.5343000288696284 4.722730135847936 17.994138574306977 1 0 0
1055 100 10 0.051144 1.8255422202457163 4.8969285040446335 16.94569467172872 1 0 0
1037 100 10 0.051144 4.430749124675736 6.041999253103066 14.157440779925803 1 0 0
919 82 5 0.0582835 0.4626187432981266 0.47377328222596854 17.4277101179622 1 0 -1
622 57 5 0.0582835 10.739645635857748 2.17245925171221 22.48816986297855 0 1 -1
359 35 5 0.0582835 10.27309315286399 6.415834004764779 18.300801733941555 0 0 -1
1019 100 1 -0.3481 4.0717696391927225 6.450777189487832 13.188541194441955 1 0 0
391 38 5 0.0582835 4.903570752011482 5.770783484868878 19.93824110979967 0 0 0
138 14 5 0.0798 0.7722063338927239 3.6341690428513322 22.540515400394 1 0 0
996 97 7 -0.08276671400000001 10.285246483722224 5.473702439322452 14.963489266373134 0 0 0
1029 100 9 1.0437 0.468199288974991 6.476598993740941 16.554210189707927 1 0 0
393 38 5 0.0582835 5.103104103145653 5.845812183738226 18.165957625995542 0 0 0
385 38 1 0.1266165 4.47438331907315 6.130654824277867 19.071105630972358 0 0 0
131 14 1 0.0955 0.266454396385723 2.607529290187927 22.624431153274998 1 0 0
392 38 5 0.0582835 3.556142560831888 5.607234127607929 18.92829162658467 0 0 0
1022 100 8 0.753312 0.8456408282947911 6.978473578558032 13.858385013445671 1 0 0
826 74 5 0.0582835 10.533935527117732 5.008372507776469 22.05568267736247 0 0 0
125 13 4 -0.5484 5.444113075525555 4.397944186766225 22.141244507576317 1 0 -1
947 84 5 0.0582835 2.543054603789537 1.280221017877963 12.58226567497818 0 1 0
356 35 5 0.0582835 8.452039706064738 0.4393222888125648 19.75365174515069 0 0 -1
26 3 2 -0.4048 8.895607059905494 0.9110779103607752 16.145385008215662 0 1 0
915 82 3 0.7551165 2.798404469159276 2.121431129951384 17.11108405084297 1 0 -1
821 74 2 -0.3889835 10.967857102840473 6.698065734457702 23.105936717375236 0 0 0
917 82 2 -0.3889835 3.970096451746692 2.6123312276367217 17.54424963807506 1 0 -1
1034 100 10 0.051144 3.8833937490673534 3.7117921733482375 13.465308218199963 1 0 0
370 36 5 0.0582835 6.01306945015943 6.856900489081725 23.038781040403492 0 0 -1
827 74 5 0.0582835 11.01484946950155 6.355751132346915 21.042472201179198 0 0 0
137 14 5 0.0798 0.6327533149054358 2.0147254838260724 21.769867569421358 1 0 0
922 82 5 0.0582835 4.651999764343933 3.4239793065885666 15.810485350935284 1 0 -1
923 82 5 0.0582835 6.011344926163486 3.189410214481612 16.922753009498194 1 0 -1
918 82 1 0.1266165 5.037888060073808 2.7748305995189813 16.5788947705665 1 0 -1
1017 100 1 -0.3481 3.800213996935776 4.212320060376507 12.465788389962666 1 0 0
492 46 5 0.0582835 4.733539871272926 1.5676008128319978 20.172574368134693 1 1 0
961 86 6 1 11.235331447027685 6.645164196025137 13.255369599653733 0 0 0
1036 100 10 0.051144 3.7043741531973273 7.43129980726559 13.376492877174336 1 0 0
386 38 2 -0.3889835 4.1596844253022525 7.525992671798085 19.10681709934663 0 0 0
87 9 5 0.0798 1.2046149652746079 13.687165389658901 11.978713714225586 0 -1 0
916 82 4 -0.5800835 2.5509401627759023 1.8017283154797936 15.96329222097661 1 0 -1
81 9 1 0.0955 0.28617215072917546 14.12922566802538 12.303158219928354 0 -1 0
924 82 5 0.0582835 5.3647095729190735 1.821081040574047 16.103621318047598 1 0 -1
1052 100 10 0.051144 0.4595176512758464 7.602750689681326 18.352378159983306 1 0 0
28 3 5 0.0798 9.306484460574984 2.852833044434127 15.903806846665507 0 1 0
1038 100 10 0.051144 5.053079450323619 6.599951092776488 12.734357673088496 1 0 0
914 82 2 -0.3889835 1.875669831631445 2.0282865343756513 18.113762310649797 1 0 -1
21 3 1 0.0955 9.756211487352667 1.92435076189554 15.5361396223453 0 1 0
1033 100 10 0.051144 3.305955874810776 3.4932667672029525 11.874408147369087 1 0 0
502 47 5 0.0582835 3.3454210135062943 8.01256550142975 22.73891929259035 0 0 -1
942 84 1 0.1266165 2.6858191233756443 0.1878446376017894 12.736624559947087 0 1 0
491 46 5 0.0582835 3.114338291983651 1.8382449896062791 21.074053494004186 1 1 0
486 46 1 0.1266165 3.9452730427430382 1.160800747309044 20.925950701261833 1 1 0
485 46 2 -0.3889835 4.517517734493889 0.7037897593618785 22.141388790000008 1 1 0
1035 100 10 0.051144 4.886357636847213 4.253465862045665 12.068776270200779 1 0 0
483 46 3 0.7551165 5.5923780487482215 -0.13417386873900147 21.988278127773793 1 1 0
27 3 5 0.0798 9.671079950437457 1.9167439796998893 14.47321166843942 0 1 0
371 36 5 0.0582835 7.376108851698504 6.624642061896988 21.855082183814933 0 0 -1
913 82 1 0.1266165 0.4653432832785514 1.5109754576899252 17.809022088134913 1 0 -1
366 36 1 0.1266165 7.015321991412282 7.204945347166859 22.725465706990235 0 0 -1
22 3 1 0.0955 11.105285869581923 1.6616440112625908 16.014246415344886 0 1 0
656 60 5 0.0582835 7.556703417768216 -0.007155092899954788 13.661605976942472 0 1 0
23 3 2 -0.4048 10.967575923636977 0.5203803287233405 16.879808994349467 0 1 0
482 46 2 -0.3889835 6.21404453359963 22.95986122194619 23.157916901420737 1 0 0
124 13 3 0.8478 5.6344010351388265 3.8561927697764244 23.214872043638827 1 0 -1
490 46 5 0.0582835 3.514549032655112 0.35763949344647006 20.324351586677718 1 1 0
24 3 3 0.8478 9.683563103370165 0.13256177354562884 16.91225802834033 0 1 0
623 57 5 0.0582835 9.03633523554839 2.0570209722290045 22.86787699028152 0 1 -1
618 57 1 0.1266165 10.017073124042907 1.8791109509543935 23.238058373468334 0 1 -1
694 63 5 0.0582835 0.3291396159183876 23.065656237358095 21.093456972883235 0 -1 0
921 82 5 0.0582835 -0.1148008951950251 2.1665055790969605 17.153509441583495 1 0 -1
941 84 2 -0.3889835 3.766687989911911 23.225048943919038 11.968484529767565 0 0 0
676 62 4 -0.5800835 11.236145712097265 14.625163167647854 22.033712116687436 0 0 -1
580 54 4 -0.5800835 9.66761740917857 7.798201612609023 13.31525495312569 0 0 0
1030 100 1 -0.3481 0.7687187073634947 7.722820652125987 17.334862180903624 1 0 0
49 5 5 0.0798 6.767779872969401 14.939107624425437 14.269996535855842 1 -1 -1
1051 100 10 0.051144 1.819693519975208 7.861828725158199 17.267296046203523 1 0 0
388 38 4 -0.5800835 6.373637542111541 8.03672670784628 19.31192665612856 0 0 0
585 54 5 0.0582835 8.47216018231896 8.075185221889653 15.74225923161212 0 0 0
503 47 5 0.0582835 1.9428824116220986 8.779134093248098 21.93240899723688 0 0 -1
504 47 5 0.0582835 3.011132284928482 9.69723717242127 23.004755603948382 0 0 -1
362 36 2 -0.3889835 6.039676592941427 10.721087562514127 22.86245544931094 0 0 -1
681 62 5 0.0582835 10.094415620716372 12.604716135356727 22.61209853492911 0 0 -1
577 54 1 0.1266165 8.841522517628857 9.081385210668582 15.591059265807388 0 0 0
584 54 5 0.0582835 8.4881704871916 9.784391948416959 16.421319359740608 0 0 0
583 54 5 0.0582835 9.927097036666598 9.127677490972724 15.486425203912992 0 0 0
579 54 3 0.7551165 8.83223061801902 8.714910820117542 13.173589113418148 0 0 0
578 54 2 -0.3889835 8.29859272217202 9.483545248892828 14.241720977723705 0 0 0
45 5 4 -0.5484 3.6437776027962023 14.436537889388884 11.999838676593418 1 -1 -1
44 5 3 0.8478 4.725325452274095 14.202314273464102 12.521962705067207 1 -1 -1
532 50 4 -0.5800835 0.04611949421561702 11.719212374354644 21.681313130104346 0 0 0
531 50 3 0.7551165 0.3980261732734724 12.784924639827112 21.21692231783416 0 0 0
42 5 1 0.0955 6.819776029509979 14.497043257311407 13.295197290020358 1 -1 -1
365 36 2 -0.3889835 6.758982689435251 8.572732042336398 22.284017966015437 0 0 -1
387 38 3 0.7551165 5.202572501542019 8.382511367663962 19.237838830314107 0 0 0
680 62 5 0.0582835 8.38865308010737 12.254085082306593 22.2177376432097 0 0 -1
581 54 2 -0.3889835 8.349638262448408 9.019463397891823 11.943756788809656 0 0 0
389 38 2 -0.3889835 4.697294057153745 9.664897260722006 19.283438943735085 0 0 0
534 50 1 0.1266165 1.8259022842568664 11.50389156927301 19.83575246346488 0 0 0
395 38 5 0.0582835 5.253294808267627 11.678358545868678 19.386411131941337 0 0 0
390 38 1 0.1266165 5.718469973437303 10.76225720968141 19.41433526326635 0 0 0
394 38 5 0.0582835 6.524588804776565 10.855058721657617 18.70530770619499 0 0 0
43 5 2 -0.4048 5.757935804117149 15.133766604431065 12.647911876497151 1 -1 -1
400 39 4 -0.5800835 6.644114760077414 15.09623425829919 16.62474543665734 0 0 0
539 50 5 0.0582835 2.586039247459863 11.67813203584805 18.986183133477965 0 0 0
449 43 2 -0.3889835 3.809442074269877 11.077950770294951 15.75393419972335 0 0 0
448 43 4 -0.5800835 1.907963469696164 9.810531609732376 15.321527701055548 0 0 0
446 43 2 -0.3889835 1.7356657022337136 11.828161288491918 16.37714373986675 0 0 0
455 43 5 0.0582835 4.271431497370063 9.021409298870962 15.420598646554746 0 0 0
454 43 5 0.0582835 5.652100478171147 10.23164663130107 15.403851665462417 0 0 0
450 43 1 0.1266165 4.625746092649718 10.022316420992905 15.136104383598285 0 0 0
456 43 5 0.0582835 4.4082707447656855 9.962425780882738 14.046414489167605 0 0 0
194 20 3 0.8478 10.880747278074864 12.413134705966947 13.266519834644054 0 0 0
196 20 2 -0.4048 9.69762714550943 12.97606581615724 12.715746719812474 0 0 0
195 20 4 -0.5484 11.01710465411905 11.984134039811828 14.411918720041124 0 0 0
447 43 3 0.7551165 2.4447475064470083 10.840520244628605 15.789661861075098 0 0 0
675 62 3 0.7551165 10.439429999664185 14.601128368775326 21.059318581873423 0 0 -1
401 39 2 -0.3889835 5.3886440440482675 13.451887872655227 17.64321178218548 0 0 0
398 39 2 -0.3889835 7.673454196600918 13.389452018036897 17.84306866376229 0 0 0
399 39 3 0.7551165 6.529092214493769 14.064198778964224 17.30476370673845 0 0 0
397 39 1 0.1266165 8.95728845041584 13.963481045915826 17.53434894751831 0 0 0
403 39 5 0.0582835 8.957721454119415 14.97421734719672 17.92135929326801 0 0 0
396 38 5 0.0582835 6.191755094203555 10.639585017777637 20.376029480854385 0 0 0
674 62 2 -0.3889835 9.28606537304454 13.785245053336075 21.10626471668411 0 0 -1
67 7 5 0.0798 9.484137983373161 8.900996036243676 21.747249272743236 0 0 -1
673 62 1 0.1266165 9.14453526372649 13.025334384126731 22.327213724576257 0 0 -1
404 39 5 0.0582835 9.705904730296734 13.414120744994996 18.085789546614105 0 0 0
538 50 5 0.0582835 1.0483721829722807 10.79929091499924 19.502252998104932 0 0 0
533 50 2 -0.3889835 1.3293599334666368 12.814466992918682 20.24803951259681 0 0 0
405 39 5 0.0582835 9.208258975480687 13.904845758528595 16.47329081493405 0 0 0
792 71 5 0.0582835 4.150229477059832 13.808987013630263 22.01584717566603 0 0 0
791 71 5 0.0582835 4.121577540369834 13.394332479282024 20.28779712127192 0 0 0
445 43 1 0.1266165 0.3268768578725533 11.719519888684266 16.506073799343643 0 0 0
453 43 5 0.0582835 -0.1555462715437913 11.436172700586477 15.564804949062582 0 0 0
47 5 5 0.0798 6.606440473494145 12.879977054230999 14.59074597546784 1 -1 -1
69 7 5 0.0798 8.452665201417355 9.457151314218763 19.833666383381658 0 0 -1
61 7 1 0.0955 10.106541631527916 9.460527779197076 20.995475622744756 0 0 -1
62 7 1 0.0955 9.367812302925497 10.103081191461355 19.945436120341398 0 0 -1
786 71 1 0.1266165 4.369421983186623 14.196697121413864 21.017367966577588 0 0 0
785 71 2 -0.3889835 5.83482452000618 14.678185603023977 20.893403120020356 0 0 0
46 5 2 -0.4048 5.029443259588837 12.990739331659151 13.03959260722259 1 -1 -1
64 7 3 0.8478 11.198686366057956 9.11930563206574 19.06844624010361 0 0 -1
540 50 5 0.0582835 2.3359322391842254 10.965787520950176 20.650762264329952 0 0 0
70 7 5 0.0798 9.059464635659234 11.164870480308222 20.10686846285775 0 0 -1
63 7 2 -0.4048 10.077002020535874 9.87007467088213 18.766965450475773 0 0 -1
48 5 5 0.0798 7.098692823661921 12.382092070061342 12.998062971425918 1 -1 -1
41 5 1 0.0955 6.4008113022460496 13.08026827519233 13.561802316838198 1 -1 -1
677 62 2 -0.3889835 10.64187435284276 15.350332254765997 19.92315347340405 0 0 -1
498 47 1 0.1266165 2.565320009915002 8.709106748760119 22.83613520855591 0 0 -1
1053 100 10 0.051144 0.30175166263790704 8.645872299615405 16.964913734974797 1 0 0
402 39 1 0.1266165 4.160330034475941 14.063204597317618 17.131839437673705 0 0 0
406 39 5 0.0582835 4.2309585174087925 14.178226099662556 16.09230383987802 0 0 0
408 39 5 0.0582835 3.9769278295958905 15.10354221288452 17.482497054966935 0 0 0
407 39 5 0.0582835 3.364610480228302 13.384942283083952 17.47451778107205 0 0 0
790 71 5 0.0582835 3.6659517846800638 14.986098628234274 20.988943881305772 0 0 0
297 30 5 0.0798 11.438647724256882 11.671504078147175 17.396551626258866 0 0 -1
451 43 5 0.0582835 -0.11206708334027779 11.033110493501255 17.293590569063273 0 0 0
89 9 5 0.0798 1.4644910194367657 15.583327270910027 13.190188223224245 0 -1 0
68 7 5 0.0798 10.497337577233038 10.307538348402336 21.55138837285391 0 0 -1
679 62 5 0.0582835 8.83990578435437 13.740457771049485 23.15345256643546 0 0 -1
66 7 2 -0.4048 11.289500546098925 8.842814778988897 20.316704163494435 0 0 -1
50 5 5 0.0798 7.793547039459211 14.649695871679127 12.850332649947122 1 -1 -1
981 94 7 -0.08276671400000001 10.702267149459038 15.715604669762094 13.224077828549103 0 0 0
946 84 5 0.0582835 2.8774838102576648 0.019932681585990562 13.78928415035886 0 1 0
593 55 2 -0.3889835 7.43816419119925 18.89445690663154 19.56869567996685 0 0 -1
598 55 5 0.0582835 7.574920777082961 16.86344930409116 19.13391341425695 0 0 -1
470 45 2 -0.3889835 1.2477264248432196 20.61731464224776 19.970021341110666 1 0 0
702 64 1 0.1266165 11.470694767191455 20.020054633505136 17.03474429549756 0 0 0
596 55 5 0.0582835 10.51275374661137 21.47267886302786 21.383478825824916 0 0 -1
976 94 8 -0.5033997099999999 10.649393515846562 17.267449407200708 12.659706841598998 0 0 0
597 55 5 0.0582835 10.765105972582452 19.674110488694044 21.29177183647781 0 0 -1
655 60 5 0.0582835 8.060907251266356 22.2917911124307 14.797621333812726 0 0 0
948 84 5 0.0582835 1.7238115457983036 23.3485841679378 12.464875754946469 0 0 0
646 59 5 0.0582835 4.258518919343039 18.668911598782252 20.622589563659094 0 0 0
789 71 5 0.0582835 7.443307239326271 18.102892868841796 22.585421738842147 0 0 0
788 71 5 0.0582835 8.95764253613932 17.274125142077924 22.659231639366492 0 0 0
474 45 1 0.1266165 0.16244228330321964 17.40481354306805 21.360258024444423 1 0 0
977 94 7 -0.08276671400000001 11.397925539210346 18.518955380573168 13.167714032978356 0 0 0
640 59 4 -0.5800835 3.1973611661599444 18.50786119236102 23.101095068928572 0 0 0
695 63 5 0.0582835 -0.017115327475684252 22.285661771126016 22.7261235781431 0 -1 0
473 45 2 -0.3889835 0.5021413368744523 18.84576989637923 21.28385181579031 1 0 0
524 49 5 0.0582835 5.567779780467628 23.290774726013193 18.11357345655993 0 -1 0
647 59 5 0.0582835 5.304257219131957 20.082832831228487 20.37600431412929 0 0 0
481 46 1 0.1266165 7.32747936355935 22.085225761482924 23.0310738479595 1 0 0
926 83 2 -0.3889835 5.843010654339645 18.03741909768431 13.921419493524112 0 0 0
489 46 5 0.0582835 7.138323594311819 21.21748950491576 22.486271976224913 1 0 0
781 71 1 0.1266165 7.87615240758725 17.093993254684026 22.757216668542966 0 0 0
599 55 5 0.0582835 6.046842127004818 17.792409208612355 18.574432557932465 0 0 -1
657 60 5 0.0582835 7.849610270307167 22.061821320370292 13.10352629702517 0 0 0
639 59 3 0.7551165 3.0207209381756326 19.70808311225977 22.762826662802087 0 0 0
525 49 5 0.0582835 6.310386123507196 21.71913290411944 17.557216715097965 0 -1 0
487 46 5 0.0582835 8.0779489524127 22.67748033925016 22.362010188179966 1 0 0
471 45 3 0.7551165 0.925401731476371 19.2985661957669 20.04664083282855 1 0 0
929 83 2 -0.3889835 5.54237062126413 18.84229918802935 11.788721981892987 0 0 0
520 49 4 -0.5800835 5.269815853205683 20.923518667444217 15.202519885174292 0 -1 0
706 64 5 0.0582835 11.30929604739335 19.337647886811254 16.251087725800794 0 0 0
784 71 4 -0.5800835 5.294184173629715 15.931632530919739 22.646789406832404 0 0 0
476 45 5 0.0582835 2.189456956112545 22.109693021362993 18.735721662074386 1 0 0
528 49 5 0.0582835 3.44601806902776 20.62292784895273 13.268914221920735 0 -1 0
650 60 2 -0.3889835 9.622251749168216 23.149617404559848 13.64301765857561 0 0 0
979 94 7 -0.08276671400000001 10.141426014195352 17.808672770188398 14.141294325267744 0 0 0
592 55 4 -0.5800835 9.621701625327434 18.484079153877317 19.174920455905845 0 0 -1
707 64 5 0.0582835 10.4789869883799 20.192179362458646 17.432670732559696 0 0 0
652 60 4 -0.5800835 10.170227414809942 20.89239150122202 13.742113385217841 0 0 0
932 83 5 0.0582835 6.262052729681546 17.50840624877861 15.972012983937393 0 0 0
649 60 1 0.1266165 8.25121875656355 22.74988609932178 13.819006004967358 0 0 0
967 92 6 1 9.427724798001691 19.27523271900759 12.668130933322217 0 0 0
475 45 5 0.0582835 0.9442313516171472 21.312939211795488 17.915674786071087 1 0 0
526 49 5 0.0582835 3.3847979825198276 19.315820206192974 14.38810001579752 0 -1 0
642 59 1 0.1266165 4.708355401997621 19.508579173664693 21.110460040303618 0 0 0
783 71 3 0.7551165 6.173705659151912 15.624115914647735 21.852067763951407 0 0 0
782 71 2 -0.3889835 7.493346222215245 16.09980219006883 21.781176010239466 0 0 0
517 49 1 0.1266165 5.707915750969656 22.59250583754707 17.26175359801201 0 -1 0
522 49 1 0.1266165 2.9254908244733313 20.214929457431126 14.138000358806398 0 -1 0
927 83 3 0.7551165 6.332584053133916 18.78847149195649 12.93159138874624 0 0 0
590 55 2 -0.3889835 8.995483027069948 20.273147022564185 20.580251399256923 0 0 -1
518 49 2 -0.3889835 4.3837116439724575 22.259969387570848 16.761783375799773 0 -1 0
589 55 1 0.1266165 10.349648841065692 20.54811068589358 20.790440367870552 0 0 -1
484 46 4 -0.5800835 5.98275511698241 23.11583877852477 20.864622987290915 1 0 0
523 49 5 0.0582835 6.328813045557184 23.09345547482394 16.56452994719934 0 -1 0
469 45 1 0.1266165 1.7190773254232274 21.094749505732764 18.65412344094221 1 0 0
651 60 3 0.7551165 10.520860007522984 22.090068434767392 13.609318758304477 0 0 0
591 55 3 0.7551165 8.7388972518673 19.171615138870116 19.73559221962826 0 0 -1
980 94 7 -0.08276671400000001 9.145491430859963 17.059240632958442 12.109152279943254 0 0 0
25 3 4 -0.5484 9.25755399144159 22.767858189464576 17.558659806475937 0 0 0
477 45 5 0.0582835 2.428027785444881 20.45745412521605 18.10955399705166 1 0 0
519 49 3 0.7551165 4.303425962959321 21.4391187673949 15.747714683909592 0 -1 0
648 59 5 0.0582835 5.441684363914238 19.13292494282248 21.846995183028355 0 0 0
521 49 2 -0.3889835 3.0033588974264953 21.162546866294875 15.31077777165465 0 -1 0
595 55 5 0.0582835 10.839439414656292 20.712970752892712 19.885278928321306 0 0 -1
925 83 1 0.1266165 6.719193192119174 18.034033971431256 15.119350892839785 0 0 0
928 83 4 -0.5800835 7.399227078393457 19.402054043054374 13.021597766040166 0 0 0
527 49 5 0.0582835 1.8601753469048856 20.033140774347775 13.907858993157557 0 -1 0
931 83 5 0.0582835 6.791268279135861 19.06307252575008 15.372583680756525 0 0 0
472 45 4 -0.5800835 1.0109650639418555 18.5538679997465 19.09830937587415 1 0 0
933 83 5 0.0582835 7.706150139479193 17.72129135294858 14.840689064614391 0 0 0
641 59 2 -0.3889835 3.751513696522395 20.364030504116883 21.74645034186293 0 0 0
594 55 1 0.1266165 7.102676276160975 17.789390319755896 18.716082081899167 0 0 -1
600 55 5 0.0582835 7.476856899804478 18.02637412464322 17.764753395411304 0 0 -1
478 45 5 0.0582835 0.9628789624234305 16.749738004512068 21.129694867050176 1 0 0
638 59 2 -0.3889835 2.136423146009069 20.51490638603146 23.280667860341225 0 0 0
1028 100 2 -0.7108 -0.03590276339458651 6.754352463132526 15.230701151259654 1 0 0
82 9 1 0.0955 0.4122306507120079 15.521509431186182 12.837816397590009 0 -1 0
530 50 2 -0.3889835 -0.07337754735326375 13.961619682510078 21.630963121109783 0 0 0
617 57 2 -0.3889835 10.351303483818459 0.4598745460212396 23.39536818480192 0 1 -1
363 36 3 0.7551165 6.2935285674861365 9.394911260453107 23.23381973147424 0 0 -1
1023 100 2 -0.7108 -0.14600317993350775 7.153111271583321 12.583720127408 1 0 0
90 9 5 0.0798 0.34749286579036814 16.282234195089224 12.09979841900647 0 -1 0
452 43 5 0.0582835 -0.07876952652619222 12.696059773124022 16.87031898023608 0 0 0
30 3 5 0.0798 11.594408875767712 2.5018920061059906 16.46783700765265 0 1 0
159 16 5 0.0798 18.61504010059862 1.4912976288528035 8.876802774934594 0 0 0
154 16 3 0.8478 20.886501039429543 2.7735212950166295 7.68297535504477 0 0 0
153 16 2 -0.4048 19.696083200561713 2.147364308993165 7.4063834152973556 0 0 0
152 16 1 0.0955 18.765036448894612 2.422155900093124 8.453108181965368 0 0 0
160 16 5 0.0798 17.83147640113729 2.9100521948461364 8.111541364765102 0 0 0
151 16 1 0.0955 19.488113045826864 3.2860103908149827 9.444499921177176 0 0 0
105 11 4 -0.5484 15.912025284579206 3.0453593890533375 9.92831191612984 0 0 0
629 58 2 -0.3889835 13.891546194564057 2.107036455919212 5.044610738178565 -1 0 0
104 11 3 0.8478 15.018739116339486 2.251416966247377 9.758649116855404 0 0 0
155 16 4 -0.5484 21.82974193984725 2.6826920052016705 6.969978503389969 0 0 0
156 16 2 -0.4048 20.840188139936885 3.466569812813871 8.877949055050985 0 0 0
630 58 1 0.1266165 15.025009316609834 1.200773388072124 4.775157078986123 -1 0 0
157 16 5 0.0798 19.414641734430415 2.8822516682400954 10.470372865123077 0 0 0
635 58 5 0.0582835 15.910399923646336 1.5024896333391233 5.27036172894632 -1 0 0
38 4 5 0.0798 18.234810670583688 4.116794024704738 4.771225740293256 -1 0 0
36 4 2 -0.4048 19.6803127712786 2.800639058647856 4.053108608704235 -1 0 0
31 4 1 0.0955 18.81069285861964 3.983146142201279 3.893159510401159 -1 0 0
103 11 2 -0.4048 14.33782248779662 1.9785706451098066 8.647090017470692 0 0 0
34 4 3 0.8478 20.961966327698867 3.2489130616636377 4.0014008350556995 -1 0 0
37 4 5 0.0798 17.96235900424632 3.922395099466862 3.205655805329243 -1 0 0
102 11 1 0.0955 13.361138788452076 0.9684910576582031 8.86505189695106 0 0 0
40 4 5 0.0798 19.606289090963987 5.9023360561459635 4.467687567657177 -1 0 0
35 4 4 -0.5484 21.926818285683225 2.519757427889153 4.123684891056756 -1 0 0
878 79 2 -0.3889835 19.833435024925198 6.012239097785709 7.204665353209234 0 0 0
39 4 5 0.0798 19.64854834562438 5.669971651909297 2.7625749162436017 -1 0 0
33 4 2 -0.4048 21.05239156044938 4.595647101473802 3.798178522497863 -1 0 0
32 4 1 0.0955 19.742819009350388 5.117807235495841 3.691490147026251 -1 0 0
906 81 1 0.1266165 14.733351431335315 6.760390028584369 5.624079241766587 0 0 0
910 81 5 0.0582835 14.759532893759543 6.182623042436939 6.506292375312509 0 0 0
905 81 2 -0.3889835 16.118323531404727 7.163782715819645 5.232373521498622 0 0 0
886 79 5 0.0582835 15.90884511802768 7.2570880393547945 8.853113686462896 0 0 0
881 79 2 -0.3889835 17.748562381551366 6.643748427583484 8.117848233689692 0 0 0
860 77 5 0.0582835 14.507480865674955 5.152228560941476 9.94179838871084 0 0 0
884 79 5 0.0582835 21.64674682047307 5.50560429608041 6.231282921376997 0 0 0
606 56 1 0.1266165 22.271103160673533 6.265166134851422 0.9886574666070994 -1 -1 0
101 11 1 0.0955 13.494565578850251 0.5531255171092709 10.246058327047304 0 0 0
227 23 5 0.0798 14.503460820029265 2.1110683322274943 1.4553091929930058 0 0 1
226 23 2 -0.4048 15.419317353073387 3.979683433926717 1.7440245327132313 0 0 1
634 58 5 0.0582835 15.109942088536288 1.2185797185698826 3.6966869595896377 -1 0 0
610 56 5 0.0582835 21.2967676110094 5.783485564027456 0.8745230525330673 -1 -1 0
612 56 5 0.0582835 22.1770685183679 7.178116629081762 1.5921455638497661 -1 -1 0
636 58 5 0.0582835 14.845762571216207 0.14889125464874142 5.166467795617068 -1 0 0
228 23 5 0.0798 13.560594215044109 3.5180138938074967 1.0862423076146366 0 0 1
882 79 1 0.1266165 16.977649846952115 7.581736116219884 8.858068714830809 0 0 0
879 79 3 0.7551165 19.087314903885314 6.910685335254611 7.898738328371898 0 0 0
221 23 1 0.0955 14.542317148953511 3.16085764550116 0.968293383392365 0 0 1
861 77 5 0.0582835 13.196661535266552 6.210979472420503 9.95164944035396 0 0 0
853 77 1 0.1266165 13.6204121722993 5.395742202971259 10.538766556852146 0 0 0
109 11 5 0.0798 13.184773312703307 0.22647543390584388 8.051383048319765 0 0 0
420 40 5 0.0582835 18.3825196530124 0.7682857175170464 1.602859458376291 -1 1 0
877 79 1 0.1266165 21.249962430503412 6.247442832332313 6.9358209024569435 0 0 0
883 79 5 0.0582835 21.803813296649103 6.180195011054108 7.835287648016953 0 0 0
989 96 7 -0.08276671400000001 11.868382588580605 19.841585274033466 8.841387351371335 0 0 0
414 40 1 0.1266165 17.536682396042846 0.828788879122578 0.8609881384691443 -1 1 0
611 56 5 0.0582835 22.815186217187872 5.499210888827748 1.5135408190191462 -1 -1 0
963 88 6 1 23.050297680335156 1.2695426080773955 5.3231002768186375 0 0 0
627 58 3 0.7551165 12.710607860062392 1.5927842372649048 4.607518013639085 -1 0 0
912 81 5 0.0582835 14.288628231107142 6.057251333352248 4.97539635068585 0 0 0
885 79 5 0.0582835 21.428587371606174 7.148196755340528 6.430538615658548 0 0 0
424 41 4 -0.5800835 23.32510481606176 -0.03814446878757231 3.888598782606719 -1 0 0
225 23 4 -0.5484 17.20010613892047 5.37500188834699 1.2643100024040717 0 0 1
823 74 5 0.0582835 11.740319833876708 5.596798740392473 3.239122326462067 0 0 1
376 37 4 -0.5800835 11.790041937483217 7.126117608395179 6.635564210715183 0 0 0
224 23 3 0.8478 16.311165270326658 4.592469604915184 0.924069062765241 0 0 1
158 16 5 0.0798 18.93649330126249 4.27619064298192 9.470980145321349 0 0 0
859 77 5 0.0582835 13.92283467267953 5.673197108938336 11.618073355676954 0 0 0
621 57 5 0.0582835 13.919979396276531 22.605484521291174 0.2939124669484885 0 0 0
115 12 4 -0.5484 23.29947933679399 20.057257680490075 4.096494349571799 0 -1 0
887 79 5 0.0582835 17.375214874574855 7.719825684163613 9.89914613318805 0 0 0
1043 100 10 0.051144 22.80535193812945 7.904859486945948 10.473145938359668 0 0 0
880 79 4 -0.5800835 19.54129919220136 7.94276208361369 8.320143488716644 0 0 0
441 42 5 0.0582835 23.21791932969806 11.131770567131527 7.272752683119015 -1 0 0
1042 100 10 0.051144 21.651580514960003 6.664988246317122 10.783823859779154 0 0 0
134 14 3 0.8478 21.892216768808936 2.645990555440275 0.28737620830309013 0 0 1
614 57 2 -0.3889835 11.858924486875763 22.44119353074718 0.45190502074695993 0 0 0
616 57 4 -0.5800835 12.339828987403834 1.071222538109317 0.6308524030247807 0 1 0
135 14 4 -0.5484 20.70933752604729 2.839010378661907 0.5644187566159938 0 0 1
628 58 4 -0.5800835 12.606942794975133 0.4971173821139289 4.055428020412155 -1 0 0
1025 100 1 -0.3481 21.905997672313077 7.658723711757926 11.064261011109396 0 0 0
560 52 5 0.0582835 15.193133370925231 7.324712037495317 0.5463435249267588 0 0 1
419 40 5 0.0582835 17.206177345752668 1.863688891959807 0.6372217096055487 -1 1 0
106 11 2 -0.4048 14.585054931691703 1.4348661623122683 10.796509229206878 0 0 0
133 14 2 -0.4048 22.824127797683023 2.0991922586989396 1.123994141891346 0 0 1
736 67 4 -0.5800835 23.252429570528104 18.42256640563418 9.981273361030091 0 0 0
108 11 5 0.0798 12.508444796847899 0.4399544751123912 10.750176797409035 0 0 0
413 40 2 -0.3889835 16.46918851232404 0.0420353220971147 1.4518376062946463 -1 1 0
427 41 5 0.0582835 21.53108412061707 0.4406496153867943 2.1005557497046103 -1 0 0
854 77 2 -0.3889835 12.577017279039781 4.278628765306511 10.504223452189521 0 0 0
110 11 5 0.0798 12.466224768200696 1.5956490663310752 8.87769080025638 0 0 0
243 25 2 -0.4048 14.58152747899553 8.32314516152595 11.512793334638948 0 0 0
255 26 4 -0.5484 18.07290708490979 5.347451279019286 11.529536500707582 -1 0 1
903 81 3 0.7551165 16.23502527626109 7.85482434287687 4.055618090218615 0 0 0
911 81 5 0.0582835 14.080967248920192 7.642940205087181 5.761885080855513 0 0 0
904 81 4 -0.5800835 15.301135710295599 8.169019179295889 3.3182219103679813 0 0 0
909 81 5 0.0582835 17.17807196539805 8.459518607442398 1.756048426231372 0 0 0
738 67 1 0.1266165 21.855939549269337 19.90780653150921 11.515827665268832 0 0 0
215 22 4 -0.5484 16.166809045866163 10.897141724757077 0.38924109244958494 0 0 0
75 8 4 -0.5484 21.36344136212666 9.655770720150539 4.251246076760379 0 0 0
902 81 2 -0.3889835 17.58789103256015 8.238152961640456 3.778763344980669 0 0 0
958 85 5 0.0582835 12.127033383171245 12.38030204380271 4.920922640070235 0 0 0
908 81 5 0.0582835 18.749867048868424 9.066488948167635 2.3736942509385717 0 0 0
888 79 5 0.0582835 17.05708289202495 8.607129376955362 8.348428481041482 0 0 0
289 29 5 0.0798 12.107000968332564 8.805201008457837 3.439597799334519 0 0 0
74 8 3 0.8478 21.94104344274185 10.146244563744423 3.3142340039240423 0 0 0
380 37 5 0.0582835 12.380189070197973 9.863072701571042 9.291630796956424 0 0 0
73 8 2 -0.4048 21.64903407152419 9.880748120068239 1.9469923123960284 0 0 0
815 73 5 0.0582835 19.07277298518136 9.708558673051847 0.2749899481430145 0 0 0
249 25 5 0.0798 15.686437526784736 9.900264085299435 10.985328997617158 0 0 0
952 85 4 -0.5800835 12.374264093688268 14.569253859216046 6.605459173229354 0 0 0
286 29 2 -0.4048 11.640543649757465 9.811709001448664 0.5225381564953545 0 0 0
535 50 5 0.0582835 22.990515643048965 13.326746273066705 0.03083695088824307 -1 0 1
325 33 1 0.1266165 18.54138103480597 11.873523255892154 11.283248447967358 0 0 -1
287 29 5 0.0798 13.114972977087985 8.676844983708879 1.2297744274449394 0 0 0
381 37 5 0.0582835 13.332641190409715 8.826210775631884 8.326048412303631 0 0 0
373 37 1 0.1266165 12.30758755646678 9.182050450395266 8.441891369392778 0 0 0
780 70 5 0.0582835 17.699345475805018 13.514458442693398 1.3107004680677223 0 1 0
379 37 5 0.0582835 11.905415132801023 9.689240999603422 7.521005139766612 0 0 0
901 81 1 0.1266165 17.66755111553716 8.967149316448623 2.5955832825711633 0 0 0
778 70 5 0.0582835 17.87289990450385 12.168316011300295 2.517729855696602 0 1 0
322 32 5 0.0582835 15.36057757154025 13.669448465624729 11.015780211252128 0 0 0
180 18 5 0.0798 18.212030972743094 11.653999462344633 5.83213783548552 0 0 1
288 29 5 0.0798 13.523375203688165 10.317326782855801 1.446827845929042 0 0 0
179 18 5 0.0798 19.83121672139174 11.615152974028458 5.096066444187933 0 0 1
907 81 5 0.0582835 17.09718366136133 9.930059739897727 2.7289101446946065 0 0 0
281 29 1 0.0955 12.672765131141174 9.648517066605493 1.492254066061322 0 0 0
769 70 1 0.1266165 21.85836238887548 14.842581042622555 3.8404426109237573 0 1 0
771 70 3 0.7551165 19.69612262250115 14.05469287683657 3.137953115567923 0 1 0
175 18 4 -0.5484 19.961963433952377 13.501375034870412 8.89858781632793 0 0 1
176 18 2 -0.4048 19.764573643328234 11.23389973450979 8.281019444843137 0 0 1
178 18 5 0.0798 18.53960552064953 9.913705394997619 7.068517778068126 0 0 1
171 18 1 0.0955 19.452579014464636 10.617538661631578 7.038147641365467 0 0 1
177 18 5 0.0798 20.25568099640519 9.985594299943894 6.6632237865849895 0 0 1
172 18 1 0.0955 19.239613130074815 11.698972098170513 6.076411239841213 0 0 1
174 18 3 0.8478 19.738017077735748 12.591962554022231 8.053169095436646 0 0 1
173 18 2 -0.4048 19.453235299263422 12.897108490258272 6.814120368351746 0 0 1
1016 99 7 -0.08276671400000001 13.182509251091039 12.400203771435262 7.5591217586005675 -1 0 0
1015 99 7 -0.08276671400000001 14.960635951403775 12.869137836415037 6.094368527135385 -1 0 0
1011 99 8 -0.5033997099999999 14.734960297001873 11.931485661091154 7.405109438959404 -1 0 0
1014 99 7 -0.08276671400000001 14.367574039920639 12.38461246503589 8.93824189993036 -1 0 0
1012 99 7 -0.08276671400000001 15.532722184292343 10.669036470693374 8.126916119231339 -1 0 0
1010 99 7 -0.08276671400000001 16.065918896704503 12.837251389082695 7.482668064888337 -1 0 0
1013 99 7 -0.08276671400000001 14.514811886578155 10.60342946122027 6.419485838411126 -1 0 0
964 89 6 1 14.243336371011297 14.344521558249118 7.587544402240946 0 0 0
77 8 5 0.0798 23.125518191310398 12.433778362396907 2.080834558698355 0 0 0
316 32 4 -0.5800835 14.436120286660461 15.389431965821377 9.272734979527748 0 0 0
770 70 2 -0.3889835 20.38787443071463 14.943806658062872 3.860102711527478 0 1 0
282 29 1 0.0955 11.91201566019312 9.729614652534995 2.88099422071168 0 0 0
773 70 2 -0.3889835 18.279555814005427 14.184192868383503 3.179945653912048 0 1 0
290 29 5 0.0798 12.334085448788002 10.512525681277042 3.5354076758157906 0 0 0
752 68 5 0.0582835 17.572527074668756 15.027078554996427 10.983422516754128 0 0 0
774 70 1 0.1266165 17.565091951956763 13.229226714840307 2.362441493238026 0 1 0
779 70 5 0.0582835 16.500989278687015 13.391565150442824 2.569380087531828 0 1 0
317 32 2 -0.3889835 14.918644138778014 15.711380947030493 11.459304607579835 0 0 0
331 33 5 0.0582835 19.568140464827483 12.231458944825924 11.410557889038067 0 0 -1
777 70 5 0.0582835 22.120142413862588 14.009652271756131 4.509528717236735 0 1 0
314 32 2 -0.3889835 14.7269736994191 17.528466639068554 10.043044016349828 0 0 0
440 42 5 0.0582835 22.565931329546277 11.54761434243088 8.90974153450445 -1 0 0
79 8 5 0.0798 22.208084559320028 11.094984436272354 0.30195406952692755 0 0 0
332 33 5 0.0582835 18.40072169076659 11.08177097880154 10.545059875750473 0 0 -1
835 75 5 0.0582835 17.415858679053372 14.581728658107403 6.335625048338885 0 0 0
772 70 4 -0.5800835 20.234978873236628 13.204746141646577 2.4389573256805552 0 1 0
439 42 5 0.0582835 22.368356444430862 9.80929597529023 8.204284710901113 -1 0 0
72 8 1 0.0955 22.564049538802305 10.639283861464913 1.2247012743747454 0 0 0
333 33 5 0.0582835 17.980733850801872 12.685203675910639 10.885870088154013 0 0 -1
960 85 5 0.0582835 12.401871767782287 13.95942061298347 4.0881212738412165 0 0 0
76 8 2 -0.4048 23.017934176027563 11.023238300720042 3.4920049866844978 0 0 0
1048 100 10 0.051144 23.39923992729249 9.828398804195377 11.504191785311384 0 0 0
80 8 5 0.0798 23.262080198236195 9.841494436396166 0.8458512731142421 0 0 0
1044 100 10 0.051144 21.112037720199144 8.301810582819298 10.749191118402548 0 0 0
88 9 5 0.0798 23.219155310542163 14.188640311507807 11.493020366618552 -1 -1 0
775 70 5 0.0582835 22.291262379147376 14.619495578122242 2.8537541724113753 0 1 0
574 53 5 0.0582835 17.297248995932403 16.11706614501451 1.4394527176531011 0 0 1
718 65 5 0.0582835 21.959476312173187 14.661149692974124 7.944377236943576 -1 0 0
416 40 5 0.0582835 15.488909235623604 19.81023109731606 3.2148306725394393 -1 0 0
433 42 1 0.1266165 23.043966496250242 10.71774916793274 8.289306446252711 -1 0 0
200 20 5 0.0798 11.985174273395312 13.799574414657188 10.843849296730477 0 0 0
216 22 2 -0.4048 15.356541574590041 13.074836111658206 -0.09593308171982516 0 0 0
552 51 5 0.0582835 20.083690945706955 23.397151728102095 5.725595756290715 0 -1 0
422 41 2 -0.3889835 22.94663048070866 22.54289669095723 1.9502436017535791 -1 -1 0
337 34 1 0.1266165 18.835908971784033 22.571635146451673 11.481021044733088 -1 0 0
619 57 5 0.0582835 13.308963585275736 22.459460041758252 2.001908056389212 0 0 0
346 34 5 0.0582835 14.981663948847647 22.17357822797891 8.230685384132341 -1 0 0
338 34 2 -0.3889835 18.544142359708825 22.658078746229204 10.027431521147278 -1 0 0
347 34 5 0.0582835 15.757343356578975 21.746378274373807 6.724416222265263 -1 0 0
341 34 2 -0.3889835 17.155517248245683 22.232489250943324 8.26562997852767 -1 0 0
834 75 1 0.1266165 13.73146344154894 16.997825874482864 4.379806472644126 0 0 0
838 75 5 0.0582835 13.237962597776162 17.32527367838161 5.3203028979303975 0 0 0
992 96 7 -0.08276671400000001 12.676384045277427 19.343877483431687 6.671753568380629 0 0 0
714 65 1 0.1266165 22.64305788151267 15.526739785014001 8.164406113793808 -1 0 0
745 68 1 0.1266165 18.181642174135067 15.911518736762659 11.033949439510351 0 0 0
753 68 5 0.0582835 19.279839077948626 15.643820150914639 11.034926562968604 0 0 0
719 65 5 0.0582835 22.01783328705748 16.30848670209902 8.592754076362958 -1 0 0
837 75 5 0.0582835 17.369181564951088 15.93688329272393 7.552088037262251 0 0 0
568 53 4 -0.5800835 14.179927817925883 18.079446755572157 0.7722961274809862 0 0 1
544 51 4 -0.5800835 22.581994841568903 23.36433692183792 6.481864771394244 0 -1 0
800 72 5 0.0582835 12.505227453266174 16.130571007631634 1.4550571946751114 0 0 1
831 75 3 0.7551165 15.727025333283205 16.293309720636138 5.489589616294964 0 0 0
412 40 4 -0.5800835 18.029933428668908 21.96358421319519 1.6745536134294237 -1 0 0
550 51 5 0.0582835 20.80027354712669 22.08006486445402 4.842429610553002 0 -1 0
720 65 5 0.0582835 22.979487412608908 15.91200828248289 7.13821614367926 -1 0 0
569 53 2 -0.3889835 15.934499330317273 16.90054522334439 0.030398665117054927 0 0 1
776 70 5 0.0582835 22.293686611867173 15.810896966266913 4.251516691639213 0 1 0
746 68 2 -0.3889835 18.031489822161298 16.67225563392806 9.802126268862448 0 0 0
832 75 4 -0.5800835 14.987466663016129 15.645098123343224 6.2337118130641285 0 0 0
749 68 2 -0.3889835 18.5261075202131 18.367629320170533 8.45911018269881 0 0 0
840 75 5 0.0582835 13.393008187629842 15.987896441092627 4.107031052007525 0 0 0
839 75 5 0.0582835 13.394536150858448 17.741801997681673 3.702388638640267 0 0 0
321 32 5 0.0582835 15.151208978904808 17.632743649210788 7.98202850964685 0 0 0
421 41 1 0.1266165 21.61822876980427 22.924631385894894 2.0112061559434946 -1 -1 0
410 40 2 -0.3889835 15.876613476820992 21.605368167815204 2.3236425749693037 -1 0 0
546 51 1 0.1266165 20.266041495221675 22.3440961123625 5.7432290300735644 0 -1 0
411 40 3 0.7551165 16.866213837893255 22.34263485407766 1.8191026389734066 -1 0 0
415 40 5 0.0582835 17.16816588101818 20.232321520325854 3.369264504040495 -1 0 0
428 41 5 0.0582835 21.215020617353815 22.575457839356243 1.0740811268560275 -1 -1 0
990 96 8 -0.5033997099999999 11.950450662049894 20.59128743538447 7.40819657666333 0 0 0
829 75 1 0.1266165 17.686678308950263 15.588817073914392 6.615073406342551 0 0 0
836 75 5 0.0582835 18.770700040990384 15.714694821008637 6.536926826236184 0 0 0
312 31 5 0.0582835 18.60468100465677 18.49122396924709 4.378787065307435 -1 0 1
302 31 2 -0.3889835 21.127348197571315 19.736879936220525 1.4346120163492706 -1 0 1
551 51 5 0.0582835 19.35255414232949 21.788373926448433 5.609078264872032 0 -1 0
613 57 1 0.1266165 13.165284309327733 22.162334720165347 0.9513415771827792 0 0 0
429 41 5 0.0582835 21.102125189303386 22.52134471047625 2.844446188946411 -1 -1 0
310 31 5 0.0582835 19.635623728233483 17.02460638263592 4.075456026523432 -1 0 1
748 68 4 -0.5800835 19.579370688320964 18.166320721083938 10.472384472326207 0 0 0
315 32 3 0.7551165 14.682641454118553 16.13926035098584 10.219062854254405 0 0 0
576 53 5 0.0582835 15.573731784075392 15.892495715643374 1.731176239777399 0 0 1
620 57 5 0.0582835 13.381633861378997 21.0861413930778 0.870706181266926 0 0 0
305 31 2 -0.3889835 20.54154894213793 18.924321438393413 3.5955497543151624 -1 0 1
543 51 3 0.7551165 22.07073701086404 22.533373965883776 7.225449048442327 0 -1 0
542 51 2 -0.3889835 22.61242482780628 22.131021569358385 8.3662116075097 0 -1 0
320 32 5 0.0582835 14.513183828789167 19.14592858167355 8.630838866773493 0 0 0
575 53 5 0.0582835 16.298426715606396 17.489001695027735 1.9978601223722139 0 0 1
755 68 5 0.0582835 19.12435433639646 19.85931698778232 7.206319756312066 0 0 0
830 75 2 -0.3889835 17.09055179346942 16.33926587565277 5.5982712804051 0 0 0
545 51 2 -0.3889835 20.915912915239666 21.972381111690414 6.946304730966014 0 -1 0
9 1 5 0.0798 12.19414501161527 20.878476318190113 4.1704646895990765 0 -1 1
313 32 1 0.1266165 14.478183752974441 18.02432664117875 8.68677872071804 0 0 0
833 75 2 -0.3889835 15.1858467283088 17.021264158570602 4.498098969158883 0 0 0
304 31 4 -0.5800835 19.302379506702675 18.34749510512614 1.753334551653216 -1 0 1
994 96 7 -0.08276671400000001 12.426337429383743 21.51252928527693 8.619838777391871 0 0 0
311 31 5 0.0582835 19.988553173504048 18.027002500738586 5.38513287113562 -1 0 1
750 68 1 0.1266165 19.289951211526272 19.503139616217457 8.246273809376945 0 0 0
340 34 4 -0.5800835 16.58029788960254 21.6791185476222 10.467135731630956 -1 0 0
107 11 5 0.0798 13.940764992737963 23.129013905459118 10.192379779470425 0 -1 0
348 34 5 0.0582835 15.828040538850123 20.59738359479398 7.945050068675856 -1 0 0
995 96 7 -0.08276671400000001 13.264222502392407 21.036051396292745 6.585688592407269 0 0 0
342 34 1 0.1266165 15.87921110002107 21.686049642992234 7.806491742498783 -1 0 0
339 34 3 0.7551165 17.378952156965834 22.161396890254036 9.647116941398831 -1 0 0
306 31 1 0.1266165 19.612237815828575 18.09718597161132 4.373811549068819 -1 0 1
756 68 5 0.0582835 18.992172593436337 20.293571675036937 8.857664538008953 0 0 0
570 53 1 0.1266165 16.314555225667366 16.53499095799924 1.3966421313598212 0 0 1
301 31 1 0.1266165 20.810535332542862 19.768333324452446 0.010135415274741526 -1 0 1
319 32 5 0.0582835 13.460091112245639 17.777656475981072 8.340388373601218 0 0 0
303 31 3 0.7551165 20.242204866940913 18.95258850713357 2.2060831601969517 -1 0 1
747 68 3 0.7551165 18.768098882031197 17.756219978936002 9.632987731100862 0 0 0
409 40 1 0.1266165 16.305522136294005 20.266932166690044 2.7193941100070385 -1 0 0
754 68 5 0.0582835 20.360967131009467 19.2704808672457 8.280872273215737 0 0 0
744 67 5 0.0582835 21.507202662649913 20.208316134612872 10.546247512226191 0 0 0
417 40 5 0.0582835 16.47453847468674 19.632130750923388 1.897264857983204 -1 0 0
217 22 5 0.0798 13.572150815759672 13.881923544569768 0.003321239547321133 0 0 0
307 31 5 0.0582835 19.868482117536463 20.34896782954992 -0.08198678621085595 -1 0 1
767 69 5 0.0582835 22.79237819947554 3.9465600528652383 11.63649722749075 -1 1 0
742 67 5 0.0582835 21.441308698264383 18.914017751639452 11.63228909891527 0 0 0
1000 97 7 -0.08276671400000001 12.99283165711032 4.573107739232264 15.975688367562412 0 0 0
462 44 1 0.1266165 15.669853620844174 3.2299028066931745 18.965979775952846 -1 0 0
461 44 2 -0.3889835 15.980835596190788 3.8354792630916243 17.654159524580972 -1 0 0
459 44 3 0.7551165 17.318004021034625 4.003167102713206 17.390161534260475 -1 0 0
458 44 2 -0.3889835 17.695517664527845 4.609653207637022 16.19907099920295 -1 0 0
468 44 5 0.0582835 15.96534598603229 2.1286439077993076 18.881307511133738 -1 0 0
457 44 1 0.1266165 19.141708450035896 4.858305680944807 15.84402264973719 -1 0 0
466 44 5 0.0582835 16.213292200115852 3.747955817954888 19.792458634009883 -1 0 0
460 44 4 -0.5800835 18.19655312139828 3.6504965160035177 18.202184582990412 -1 0 0
465 44 5 0.0582835 19.68046128081119 5.468933996989756 16.55457085788408 -1 0 0
463 44 5 0.0582835 19.72782888778292 3.9456850783584922 15.839586229896355 -1 0 0
564 52 5 0.0582835 15.76491167058673 6.648786448874829 18.337090577527725 0 0 0
464 44 5 0.0582835 19.248155167969223 5.351348313845601 14.876567808926058 -1 0 0
52 6 1 0.0955 20.418162728675455 4.888328168641369 20.67601283593636 0 0 0
51 6 1 0.0955 19.222237605404523 4.963983253272145 21.5727578250951 0 0 0
558 52 1 0.1266165 14.652799637995559 6.807609680186578 18.462756246040094 0 0 0
60 6 5 0.0798 20.61797481231887 3.858144306934527 20.345901470111222 0 0 0
557 52 2 -0.3889835 14.34905109682371 6.452964376677325 19.853583042534204 0 0 0
513 48 5 0.0582835 15.626718976500097 6.82775336455832 16.14016262674234 0 0 0
512 48 5 0.0582835 15.35124362658455 7.1729959933383265 14.446232617346444 0 0 0
467 44 5 0.0582835 14.592484234044157 3.2870157426814046 19.080036423129947 -1 0 0
59 6 5 0.0798 21.190069714161528 5.230405354098688 21.311593235786162 0 0 0
53 6 2 -0.4048 20.18058227456689 5.947987946316129 19.678337437767578 0 0 0
258 26 5 0.0798 17.4319096465289 2.6322516654247337 14.522238701035501 -1 0 1
58 6 5 0.0798 18.625957680825977 4.178862905374106 21.169057646085253 0 0 0
57 6 5 0.0798 19.339142062668845 4.754425365402548 22.68049511963829 0 0 0
54 6 3 0.8478 18.968371703480873 6.652548994940871 19.969749188405657 0 0 0
562 52 5 0.0582835 14.014976698250807 6.279922654748326 17.7373524646962 0 0 0
1002 97 7 -0.08276671400000001 13.14290664979271 6.150324109804712 14.27791858349847 0 0 0
1046 100 10 0.051144 20.96776766367709 6.504003355539975 13.187171183775417 0 0 0
56 6 2 -0.4048 18.37453213980869 6.09206694111301 21.079327043551768 0 0 0
1059 100 10 0.051144 21.891609004531727 7.350499369056846 16.66352908184699 0 0 0
692 63 5 0.0582835 18.523935538560178 1.9383062823211858 20.267457915588608 -1 0 0
256 26 2 -0.4048 17.857056165056008 3.2792541186806097 12.64756796670783 -1 0 1
843 76 3 0.7551165 16.791245701161653 23.217595408798836 16.799911169223083 0 -1 0
229 23 5 0.0798 15.485337361507513 2.3705067337074417 22.713161628732703 0 0 0
230 23 5 0.0798 14.366834931910654 3.713905154819063 22.436670536528784 0 0 0
554 52 2 -0.3889835 14.685159835703539 6.7447495014462735 22.085867608369764 0 0 0
254 26 3 0.8478 17.542198214171353 4.530043255496199 12.297414139627563 -1 0 1
260 26 5 0.0798 15.635833969985065 4.213910853064885 14.796247638465694 -1 0 1
1057 100 10 0.051144 22.28472345256491 6.369379503824052 18.122421499934863 0 0 0
768 69 5 0.0582835 21.497372175525378 3.656060958915027 12.432237617634831 -1 1 0
762 69 1 0.1266165 22.52622769556459 3.4590374780763584 12.517752917818923 -1 1 0
1027 100 1 -0.3481 22.517464040251177 9.696425029204317 12.151335305841668 0 0 0
251 26 1 0.0955 16.86033408438157 2.7514924868405557 13.606125860300818 -1 0 1
693 63 5 0.0582835 19.938218644000383 1.7809416720779914 19.216196161556926 -1 0 0
253 26 2 -0.4048 16.34966485367003 4.922767401104366 12.960496037705012 -1 0 1
259 26 5 0.0798 14.874555335366047 3.5471975750504723 13.394898777365004 -1 0 1
1058 100 10 0.051144 21.901478687537523 5.530949412203743 16.69344766168821 0 0 0
847 76 5 0.0582835 18.73671836233316 1.3419886758414865 16.17986612995936 0 0 0
873 78 5 0.0582835 12.843354552482545 1.186993521036224 21.536788143334075 -1 1 0
252 26 1 0.0955 15.853901361779725 3.898466961158804 13.774871557273034 -1 0 1
257 26 5 0.0798 16.55431038625355 1.808842754175704 13.293579846236925 -1 0 1
871 78 5 0.0582835 13.160928036684691 1.1578653761407975 19.72800575614666 -1 1 0
760 69 4 -0.5800835 21.91345842771585 1.5825550289857986 14.361158724870942 -1 1 0
865 78 1 0.1266165 12.699346384044372 0.6364785766427636 20.599911443759705 -1 1 0
872 78 5 0.0582835 11.648147735322546 0.6423200166025523 20.373597891000134 -1 1 0
708 64 5 0.0582835 11.871533505114403 21.00370092036743 16.742844202537036 0 0 0
685 63 1 0.1266165 19.300773673280563 1.269083838360225 19.945179527929902 -1 0 0
1032 100 1 -0.3481 22.42514524699198 6.460695073566893 17.055301954038136 0 0 0
759 69 3 0.7551165 22.51229449636187 1.1832252391149258 13.394776992937029 -1 1 0
997 97 8 -0.5033997099999999 11.923141668123437 5.582778074732999 15.21113271449758 0 0 0
555 52 3 0.7551165 15.009685178346027 7.085347527159165 20.79998724262831 0 0 0
505 48 1 0.1266165 15.679213205781444 7.624130437526655 15.378738002988438 0 0 0
761 69 2 -0.3889835 22.87542953001716 1.9995014883984406 12.423806840954445 -1 1 0
223 23 2 -0.4048 16.09262281148962 4.236295402383925 23.161102801482123 0 0 0
999 97 7 -0.08276671400000001 11.81123725931497 7.234578372883471 15.198445791454995 0 0 0
603 56 3 0.7551165 22.297714769986484 7.499382543286954 22.54010313081444 -1 -1 -1
563 52 5 0.0582835 14.578628046866452 7.883178451130041 18.19484416565308 0 0 0
136 14 2 -0.4048 22.41719226992218 2.9541017102689042 22.654627663064502 0 0 0
55 6 4 -0.5484 18.42187473988145 7.597427585566912 19.383735682310054 0 0 0
998 97 7 -0.08276671400000001 11.812207163931136 5.572708054104282 16.807828549595566 0 0 0
828 74 5 0.0582835 12.235050097667589 5.374387845101584 21.904613293802385 0 0 0
602 56 2 -0.3889835 22.826499276472394 7.883009781237519 21.393446052237117 -1 -1 -1
758 69 2 -0.3889835 22.921413146361434 -0.10932009136598685 13.12177249326309 -1 1 0
848 76 5 0.0582835 20.01382571630358 0.13537630880232435 16.863620153023746 0 0 0
844 76 4 -0.5800835 16.358636702645057 0.37259006530977457 15.904003730830274 0 0 0
841 76 1 0.1266165 19.07932778348262 0.2718215706439746 16.264176752978116 0 0 0
849 76 5 0.0582835 19.093872736039703 23.34219539779978 15.290214393726576 0 -1 0
686 63 2 -0.3889835 20.081986545845687 0.816884647142742 21.08458063494411 -1 0 0
868 78 4 -0.5800835 15.366721538453975 0.1386967456506556 21.022490555378088 -1 1 0
920 82 5 0.0582835 23.386237964087428 1.508731152415237 18.66778776759254 0 0 -1
691 63 5 0.0582835 18.817820540967055 0.4025856180818088 19.51673067127568 -1 0 0
687 63 3 0.7551165 21.272273681590274 0.11112010791468083 20.774518897923524 -1 0 0
852 76 5 0.0582835 14.401448909242573 -0.010761047459491491 17.555425807600344 0 0 0
29 3 5 0.0798 11.66281053919839 1.4708928689638563 15.149617994053015 0 1 0
344 34 5 0.0582835 19.757759847784612 23.130153754017584 11.717956261569032 -1 0 0
605 56 2 -0.3889835 22.966743849846395 6.598914006021223 23.280827954588233 -1 -1 -1
1050 100 10 0.051144 21.636380236952583 10.174135473354847 11.692793065899421 0 0 0
193 20 2 -0.4048 11.861689121432986 12.390406164939797 12.370860279826854 0 0 0
245 25 4 -0.5484 12.476517892631836 7.954071885561912 12.290704286805708 0 0 0
511 48 5 0.0582835 15.042239828668897 8.408109044130613 15.614040370062918 0 0 0
222 23 1 0.0955 15.048030880380558 3.3533634076703813 23.118309486789883 0 0 0
326 33 2 -0.3889835 18.003329174485263 11.417487827628566 12.623170764927126 0 0 -1
765 69 5 0.0582835 23.04662068950866 22.899671896316196 15.053723983119621 -1 0 0
1047 100 10 0.051144 20.822310441021795 7.812635774668376 14.33038475688804 0 0 0
1026 100 1 -0.3481 20.923785398295752 7.630392189887314 13.253478048602403 0 0 0
323 32 5 0.0582835 15.50945359152795 14.19026697663456 12.737127826052363 0 0 0
1045 100 10 0.051144 19.98681508864398 8.063349252574223 12.86515511526643 0 0 0
567 53 3 0.7551165 14.82638354165047 17.69030305620445 23.362204715199102 0 0 0
559 52 5 0.0582835 15.172238885031371 8.543487427400652 22.988405199700797 0 0 0
604 56 4 -0.5800835 21.22200476216848 7.9654951611286275 22.91793582552288 -1 -1 -1
1024 100 9 1.0437 22.26587533884808 8.187653335801642 12.62970140280467 0 0 0
247 25 5 0.0798 15.250597233983914 11.109397579051828 12.787472288282467 0 0 0
213 22 2 -0.4048 14.26551267222938 11.181811588012069 22.720963320892885 0 0 -1
291 30 1 0.0955 12.513245733680302 11.88587358161652 17.314935666880448 0 0 -1
212 22 1 0.0955 13.532596598884115 12.334992903897994 22.27099877110322 0 0 -1
506 48 2 -0.3889835 17.06933798053442 8.238514186951505 15.159707292336613 0 0 0
244 25 3 0.8478 13.524006568252844 8.565168721729453 12.33367737135988 0 0 0
556 52 4 -0.5800835 15.841187828583127 7.91871072525612 20.479314794796533 0 0 0
507 48 3 0.7551165 17.674502002256546 8.870580228791354 16.23223367511539 0 0 0
248 25 5 0.0798 15.741394167292519 9.861850831936202 13.788681176027216 0 0 0
85 9 4 -0.5484 21.783219649406412 14.251741114018653 15.13763631698199 -1 -1 0
84 9 3 0.8478 22.534129554315566 14.40036714499829 14.211372874419016 -1 -1 0
609 56 5 0.0582835 21.338583939763463 8.518133762236308 19.985684718744338 -1 -1 -1
508 48 4 -0.5800835 17.10526396531948 8.916742172389304 17.309717389256026 0 0 0
509 48 2 -0.3889835 18.92682461490302 9.40566223814771 15.984933607059904 0 0 0
816 73 5 0.0582835 17.856536652088163 9.214082084146238 22.735531938201394 0 0 -1
334 33 5 0.0582835 16.93129651130368 12.454475537852419 16.746455771576446 0 0 -1
336 33 5 0.0582835 16.90888579647325 13.736724376150894 15.58851882757553 0 0 -1
293 30 2 -0.4048 14.385154495948212 10.557635050087335 16.798085559257544 0 0 -1
966 91 6 1 17.04468225411766 9.033071508460901 19.31564221266282 0 0 0
296 30 2 -0.4048 13.3045064805894 11.635586074640436 18.51125454235099 0 0 -1
514 48 5 0.0582835 19.47363926140016 9.416797752638747 18.064003687414917 0 0 0
810 73 1 0.1266165 18.804596780601237 9.701354202985138 22.803248168080334 0 0 -1
515 48 5 0.0582835 20.559480083822926 10.349408262679855 17.037571603444338 0 0 0
510 48 1 0.1266165 19.522558622151568 10.058710732263368 17.17391634356853 0 0 0
814 73 5 0.0582835 19.41124800321111 9.020739718028574 22.222684016031923 0 0 -1
516 48 5 0.0582835 18.934958492683656 10.898516692457939 17.390208689877554 0 0 0
809 73 2 -0.3889835 18.664238134803192 11.096767266784557 22.36860975047877 0 0 -1
808 73 4 -0.5800835 17.910172625845714 10.557591197308355 20.238558041153713 0 0 -1
807 73 3 0.7551165 18.22295707902796 11.395181842564739 21.08938238558727 0 0 -1
813 73 5 0.0582835 18.32852847053265 12.90512684400824 18.840900626937184 0 0 -1
805 73 1 0.1266165 17.627874066453572 13.2116856747655 19.58479097147672 0 0 -1
806 73 2 -0.3889835 18.117279998184678 12.731903682810513 20.83703389873832 0 0 -1
812 73 5 0.0582835 17.613952107953 14.278359909357961 19.611305492461298 0 0 -1
811 73 5 0.0582835 16.606372346721663 12.84335759635454 19.31889766390795 0 0 -1
295 30 4 -0.5484 15.343649626259277 10.450154789746668 18.8986096174694 0 0 -1
294 30 3 0.8478 14.419515815878695 10.847279699699044 18.132203943312295 0 0 -1
330 33 1 0.1266165 17.46799383699374 12.8806288136129 15.89694745590813 0 0 -1
335 33 5 0.0582835 18.471994144602988 13.18936947504881 16.255324903593728 0 0 -1
529 50 1 0.1266165 22.527054510995047 13.807358955397813 22.67598821521406 -1 0 0
183 19 2 -0.4048 19.988149080592244 14.772293199588576 17.658620911667505 -1 0 0
185 19 4 -0.5484 20.852046755962952 12.922777789903096 18.74571964102649 -1 0 0
184 19 3 0.8478 20.97633105178985 14.101978897205212 18.329889413191687 -1 0 0
329 33 2 -0.3889835 17.47513128652686 11.883474623795761 14.84738271295807 0 0 -1
186 19 2 -0.4048 22.075332290514 14.856523533122292 18.480986276910816 -1 0 0
94 10 3 0.8478 14.612734341159202 14.954879524315368 16.810325480794702 0 0 -1
95 10 4 -0.5484 15.21334079870925 14.36127494890482 17.66668054864305 0 0 -1
250 25 5 0.0798 16.594834352980207 8.818128561025114 11.964609817731061 0 0 0
1001 97 7 -0.08276671400000001 11.847308481384465 4.421831848800608 14.090555308641706 0 0 0
83 9 2 -0.4048 23.16217981635972 15.643408417212077 13.976143005961994 -1 -1 0
211 22 1 0.0955 14.270516742718504 13.560403103462074 22.76824286244944 0 0 -1
536 50 5 0.0582835 22.24737266400304 14.827077440120256 22.959972209404082 -1 0 0
246 25 2 -0.4048 13.79376646929194 9.53521218087381 13.175186921106132 0 0 0
218 22 5 0.0798 14.337466323081824 14.37550865984744 22.072593299795848 0 0 -1
684 62 5 0.0582835 11.861847113113713 16.734541508661685 20.781574251546193 0 0 -1
86 9 2 -0.4048 22.923585744479055 13.506380905381333 13.258696639809932 -1 -1 0
241 25 1 0.0955 15.144522956836193 10.022004682955735 12.944594947818471 0 0 0
601 56 1 0.1266165 22.14255125818002 8.827193250353757 20.559961772028693 -1 -1 -1
327 33 3 0.7551165 17.95122111752611 12.328400017006933 13.668166517765666 0 0 -1
607 56 5 0.0582835 21.761571000668205 9.647750725264753 21.206403681996157 -1 -1 -1
292 30 1 0.0955 13.240840848385313 11.161367273146983 16.183264078691522 0 0 -1
220 22 5 0.0798 13.752190129806865 12.424334514492514 21.20393624697693 0 0 -1
345 34 5 0.0582835 18.00792304466035 22.959381570940316 12.016586815916064 -1 0 0
300 30 5 0.0798 13.511219448622898 11.821119056086346 15.360479765620495 0 0 -1
219 22 5 0.0798 12.449511433309025 12.336156562320653 22.481291753486445 0 0 -1
96 10 2 -0.4048 14.410017493727272 14.431525313939447 15.561854603214183 0 0 -1
1049 100 10 0.051144 22.77231585983961 10.289465680045117 12.98433488757963 0 0 0
553 52 1 0.1266165 15.455280854411049 7.49683118519823 23.01811134570074 0 0 0
299 30 5 0.0798 12.714605384057737 10.3961766842766 15.811207016294844 0 0 -1
298 30 5 0.0798 12.562673996408316 12.943240480633106 17.13543547142546 0 0 -1
899 80 5 0.0582835 19.174604485791946 15.618178879041583 22.52043655910546 -1 0 0
682 62 5 0.0582835 12.694795911623208 15.522235277992104 19.741354199006537 0 0 -1
242 25 1 0.0955 15.616503502794494 9.19918394140088 11.83028302828841 0 0 0
561 52 5 0.0582835 16.481274272415504 7.388239859480806 22.80563289270324 0 0 0
573 53 5 0.0582835 12.416366480372115 18.39201345454796 22.297592162419033 0 0 0
328 33 4 -0.5800835 18.358445335604948 13.447828609541926 13.409577653112239 0 0 -1
91 10 1 0.0955 13.649952012229628 15.480262347314275 14.809310590942347 0 0 -1
98 10 5 0.0798 12.662645733545766 15.075460965549913 14.339548775284193 0 0 -1
65 7 4 -0.5484 12.068114972800855 8.726174943571362 18.32877229649319 0 0 -1
608 56 5 0.0582835 22.887999971617564 9.245664126908913 19.90519025406935 -1 -1 -1
537 50 5 0.0582835 21.624225794815192 13.25856791887527 22.38276854979963 -1 0 0
343 34 5 0.0582835 19.08687402990918 21.548663734228377 11.806393066414802 -1 0 0
99 10 5 0.0798 13.718611775270062 17.5889099704448 15.542030531036122 0 0 -1
978 94 7 -0.08276671400000001 12.036024574746527 16.637198848920264 12.176070701562404 0 0 0
309 31 5 0.0582835 20.782176081887442 18.73178988857788 23.273536717191785 -1 0 0
766 69 5 0.0582835 22.874939054991014 3.8220808341736094 13.487241802645451 -1 1 0
267 27 5 0.0798 16.527233129535208 17.43409594730854 13.383512468501774 0 0 0
751 68 5 0.0582835 17.871790942653053 16.62500853510647 11.780795116166285 0 0 0
479 45 5 0.0582835 23.347556626161108 17.20615842302147 22.370897384517857 0 0 0
269 27 5 0.0798 17.13004817322348 19.48371782338535 12.107563974982241 0 0 0
308 31 5 0.0582835 21.619196307562653 20.349004519386988 23.06379245924448 -1 0 0
261 27 1 0.0955 16.728062234782644 18.320741420118274 13.924424573767906 0 0 0
653 60 2 -0.3889835 11.851764568868175 22.38895777016631 13.428597839142208 0 0 0
737 67 2 -0.3889835 23.29352869477541 19.838761064141934 11.706440651408666 0 0 0
262 27 1 0.0955 16.652220110714214 19.58807071778237 13.135530411304018 0 0 0
846 76 1 0.1266165 14.590425713522336 22.489517054852545 17.447924654334674 0 -1 0
658 60 5 0.0582835 12.48727700852844 20.713622395648166 12.515326102353866 0 0 0
480 45 5 0.0582835 23.02119222419695 17.087097216951104 20.54438677474697 0 0 0
850 76 5 0.0582835 14.381993555448826 22.140881527161735 16.47645414318515 0 -1 0
181 19 1 0.0955 21.89614828947237 16.121666132483835 17.89230709822606 -1 0 0
182 19 1 0.0955 20.48794262556978 16.086411293904835 17.36533611264408 -1 0 0
190 19 5 0.0798 20.23570300482523 16.67737756191191 16.371296246950852 -1 0 0
189 19 5 0.0798 19.875240807217345 16.68656257617492 18.039668074408606 -1 0 0
93 10 2 -0.4048 14.018742376773913 16.173558569082395 16.957085585601636 0 0 -1
270 27 5 0.0798 15.739164346170016 20.031050020041096 12.933096782247535 0 0 0
701 64 2 -0.3889835 12.280135075116782 19.42595086382446 18.03417713811437 0 0 0
92 10 1 0.0955 13.378868505040824 16.597377325983164 15.810079629626212 0 0 -1
764 69 5 0.0582835 23.064498540908133 21.584001383429303 13.673428667107578 -1 0 0
188 19 5 0.0798 22.533050763529246 16.115387635642776 16.975993751390153 -1 0 0
268 27 5 0.0798 15.800584700388429 18.375081226838493 14.503437594027618 0 0 0
895 80 5 0.0582835 20.169172374352748 20.67323003479035 20.1639201610165 -1 0 0
100 10 5 0.0798 12.3145454278861 16.670318452702073 16.118121314335138 0 0 -1
264 27 3 0.8478 18.262825505953764 19.71414522200675 14.822003034262776 0 0 0
743 67 5 0.0582835 21.46246411683759 20.669278582188245 12.20100211814276 0 0 0
851 76 5 0.0582835 14.070228763445762 21.9497458393966 18.201786480138473 0 -1 0
757 69 1 0.1266165 22.60481221641327 22.52615881705104 14.101449856825116 -1 0 0
894 80 1 0.1266165 18.8559907304746 16.459010936064672 21.88379131848821 -1 0 0
660 60 5 0.0582835 12.673107474257323 20.639462535798714 14.291115497925913 0 0 0
689 63 2 -0.3889835 21.948482639257502 23.274986545149464 21.930813049185584 -1 -1 0
683 62 5 0.0582835 11.639971155778397 16.843069205371318 19.024094737101017 0 0 -1
845 76 2 -0.3889835 16.019801391165995 22.453839609122955 17.63102051372252 0 -1 0
898 80 5 0.0582835 18.143983327058532 16.19261231015117 21.1080287949538 -1 0 0
659 60 5 0.0582835 13.782867659663145 21.690359536186435 13.30962620870253 0 0 0
97 10 5 0.0798 14.309980870921931 15.932780868798762 14.035251948179202 0 0 -1
266 27 2 -0.4048 17.756418415156514 18.404542757633497 15.010245873440045 0 0 0
678 62 1 0.1266165 11.824928176439844 16.168265990719064 19.877541751096523 0 0 -1
699 64 3 0.7551165 13.634331518091173 19.31162173075344 17.763433776934406 0 0 0
565 53 1 0.1266165 13.323836973750453 18.78806554603115 21.828305617538902 0 0 0
697 64 1 0.1266165 15.822306768795666 18.500769941117 18.509440212246304 0 0 0
265 27 4 -0.5484 19.152899398788318 20.26142029065538 15.440606491090842 0 0 0
703 64 5 0.0582835 16.258017866612473 19.405686429650217 18.148752003979357 0 0 0
842 76 2 -0.3889835 18.1115351102981 23.091397691427748 17.06520413201424 0 -1 0
889 80 1 0.1266165 20.72721302717547 19.9728245137028 19.53073671857224 -1 0 0
893 80 2 -0.3889835 19.996153071799963 17.03729248831503 21.375026715274327 -1 0 0
874 78 5 0.0582835 16.869145260979028 21.960593330812525 21.921345331157124 -1 0 0
704 64 5 0.0582835 16.263905804272735 18.056667707527183 19.450711147494616 0 0 0
263 27 2 -0.4048 17.66415702010512 20.35006243845358 13.799849762833821 0 0 0
572 53 5 0.0582835 13.075717049392106 18.822395549087613 20.7553520546871 0 0 0
890 80 2 -0.3889835 20.896165128734626 18.756694800120272 20.205746192748453 -1 0 0
875 78 5 0.0582835 16.731169457902194 20.224076146672946 21.30727252369203 -1 0 0
892 80 4 -0.5800835 18.69824872317503 18.659601881680363 20.54749050928175 -1 0 0
763 69 5 0.0582835 21.513897284443928 22.516830703028305 14.271161868961258 -1 0 0
900 80 5 0.0582835 18.307729647585933 17.214881329664305 22.490954307724977 -1 0 0
705 64 5 0.0582835 15.88885422791627 17.882886764244514 17.611958651692653 0 0 0
187 19 5 0.0798 22.212307114895353 17.060281127234465 18.33342851287906 -1 0 0
870 78 1 0.1266165 16.463288885584053 21.31873423471183 21.13413927312807 -1 0 0
696 63 5 0.0582835 22.985209686391073 21.539319315351968 21.236149098783823 -1 -1 0
876 78 5 0.0582835 16.936746636015023 21.58983054933495 20.17368617437579 -1 0 0
690 63 1 0.1266165 23.152526510316356 22.514298651617324 21.741348969160914 -1 -1 0
688 63 4 -0.5800835 21.613182583586706 -0.11181557811552476 19.61794801582082 -1 0 0
897 80 5 0.0582835 20.204261959470486 19.82187090419974 18.62314589837033 -1 0 0
866 78 2 -0.3889835 13.262627631618287 22.815044718171432 20.668333571698273 -1 0 0
869 78 2 -0.3889835 15.04552682322193 21.466452012800104 20.936142911802243 -1 0 0
891 80 3 0.7551165 19.79223183485159 18.172480842386268 20.69088784858928 -1 0 0
698 64 2 -0.3889835 14.433642496925117 18.68624713542885 18.756242070974803 0 0 0
700 64 4 -0.5800835 14.09647820425503 19.70605591035467 16.681976063227328 0 0 0
654 60 1 0.1266165 12.785133553083847 21.259421855870634 13.413242190216964 0 0 0
566 53 2 -0.3889835 14.491905739051706 17.982966463224543 22.06286235697119 0 0 0
867 78 3 0.7551165 14.604487168380999 22.71747435379363 20.8918792717425 -1 0 0
896 80 5 0.0582835 21.69115851283726 20.393018224081015 19.272252069174133 -1 0 0
571 53 5 0.0582835 13.385588310628687 19.75218223664707 22.28922527042338 0 0 0
418 40 5 0.0582835 17.726499292690455 0.45839339352673186 23.423646027971575 -1 1 -1
318 32 1 0.1266165 14.92353802284089 14.262232008982345 11.776625791967746 0 0 0
324 32 5 0.0582835 13.911140771847514 13.905366634621283 11.984277619441817 0 0 0
214 22 3 0.8478 15.333018769111689 11.65397334908547 23.42314563381812 0 0 -1

Velocities

121 -0.0030032797461156694 0.0012293539992357279 -0.004530506954208635
122 0.00045619322202640554 -0.003481480738230196 0.0033984341548078806
127 0.0055085015181990105 0.024443555507943387 0.03532985980033377
130 0.008465311454916928 0.007220336320981312 -0.017566849494353803
983 -0.0030714486023690735 -0.005154459379263781 0.0006668703254156708
986 0.003605942607709249 -0.004178335810876829 -0.004352434904478428
11 -0.01253781791347996 0.006538623070467327 -0.005907522070229485
668 0.022413694898627306 -0.0021279144733720827 0.009117767475772086
984 -0.005020315690318705 0.0012998971759941784 -0.0028849453621359396
19 0.0015595485038755173 -0.006914029388337608 -0.014486490431891434
12 -0.0036763887887853123 -0.0021723450349358823 0.005471024857313359
17 -0.028933520242093478 -0.02401020191590728 0.021228433837817015
982 -0.004355742142717427 -0.00447768802998451 0.0008397037709095596
669 -0.02456205925870512 0.0015410003224701706 0.008397811933453325
661 -2.184166921750442e-05 0.00038707334657252777 -0.0021102963258196224
20 0.0026032588067124154 -0.035037574881559036 -0.024289374520365222
18 0.005524142496100887 0.00018475692436976075 -0.0005821458462113068
129 -0.012556344820613685 -0.0010438393688330214 -0.031506845514776935
667 -0.007351603853681034 -0.02565881422734733 -0.004073200733498546
662 0.002556407830806744 0.0015574039245904372 0.0021490792260757973
16 0.0022784142546635614 -0.004669707587225024 0.0019109609474914462
13 -0.002998000261856243 -0.0011415542597341326 0.006716234668313578
128 0.003319127535972094 -0.001366440993836183 0.009210993638314416
426 0.004931857077861257 -0.0015524640220590071 -0.0003046191985755279
857 -0.0015777651921367879 0.0032610752886311034 0.00032358415829967136
14 -0.0009347523895781022 -0.0015101519331406415 -0.002205256207074898
663 0.0018932633316531009 -0.002172346312242313 0.0038418799705821293
664 0.0015346628242360058 -0.00046339542998621733 0.0024148714258966928
15 0.0007144189304356724 -0.008420556825460947 -0.014579123787070835
665 0.0035422652805405497 -0.0039492619749094664 -0.0015796822722770562
494 -0.0025406348644005103 0.0002517970928287661 -0.0009513859326021443
666 -0.010668332717765459 -0.0007721602460350127 0.005831830916948075
500 0.009288188218770792 0.00782619658521155 -0.0025399876438064097
1041 -0.014150499916913443 0.04832970700405944 0.005576629952293613
671 0.010383763607913772 0.012162357376714224 0.017568325987267243
625 0.006942864646736829 -0.006628213027965879 -0.0020646430516472057
501 -0.025098656587444482 -0.010287078471050193 -0.007901577047494654
632 -0.009934394557744253 0.0038758371234615036 0.0025715503997375344
1040 -0.003897570249720893 0.01535368042922971 0.021708911169446322
855 0.0015468157884753258 -0.003246381161840292 0.0004281176032873621
633 0.0008915246382577347 -0.02974673983017751 0.010432564377085861
631 -0.006930619077248533 0.0041374607686560615 0.010573508202695515
383 0.007445849940719984 0.0193834723958633 0.008459018313875652
378 -0.007307725265022058 -0.00442698236409771 5.8965797981291846e-05
1009 -0.00012054897949516434 -0.004122480172252648 0.008324204102825328
586 0.00806509813612343 -0.011883359830091799 -0.01400674695411213
377 -0.00334131645543365 0.0012026320816167565 0.005334545252303908
384 0.009880340123291642 0.015365604286280221 0.0075781877986099
209 -0.013641192987712646 -0.004933657090254945 -0.02718713110676362
202 0.000933687461357408 0.0006364743209717303 -0.001285056221501093
210 0.0002433711377665777 7.364591975570108e-05 -0.02430188251912919
1006 0.007976369886535188 0.003342191196331191 0.000283842447501612
1007 -0.0023670999169234444 -0.0017415965208752086 0.00450702564622669
432 -0.02362538353649289 -0.02077635396811911 -0.008012581305442268
626 0.00400614902008638 -0.004048388794253942 -0.0021699998550706204
624 -0.005593441458745288 0.01418433603350023 -0.03540820785163445
1008 -0.0015801801146193039 0.005480724379188243 0.001022216802312621
1004 -0.002073733611458793 -1.4086925425403044e-05 0.004123008625096562
10 -0.012494026877141691 0.011713673154519226 -0.01838970320192555
123 -0.002189308511230101 -0.00351296671260714 0.0059085801741669275
858 0.006591327882890219 -0.0020315218884848565 -0.006124724554012854
670 -0.010333610458561779 -0.0013700093031976787 -0.011719302837315378
818 6.89558773731328e-05 0.005875985966269769 -0.001108718466139595
140 5.3948135154281924e-05 0.010662600509790093 0.007086629559459446
1020 0.005085582639405762 0.0035694926783063014 -0.0019748811062047897
940 5.1688711930082524e-05 0.005238129837976159 -0.0017467199245223327
444 0.0025343244162869968 -0.009433030777462409 -0.026801264139924414
375 0.007658640985121392 -0.002916914663138129 0.0011739745565697679
1005 0.004114168899992477 0.0003067140541202315 -0.0032520489036846393
819 -0.008474400426600814 0.006903980372542149 -0.0019948774773498523
1003 0.0035239093813661682 0.003978183701632732 0.008246954344206657
438 0.003737015155549627 0.003634438384167382 -0.0029408550231037876
443 0.010835617138392999 -0.010857226715274797 0.010025336083395649
856 0.002006824613863774 -0.0021657229849867308 0.002509744453572492
132 0.0032664190124077367 0.0007507596410556873 0.0009048047674019066
825 -0.007806077672666417 -0.016585832899555095 -0.012376473299853393
943 0.012405870015163375 -0.016361792300872844 0.016583001028370355
139 0.037743738015742635 -0.006172921146899482 0.015324388161478675
382 0.011494195116306737 -0.013723861592172657 0.014622102711486768
863 -0.005396133529678466 0.00317540317239081 -0.0034152037034369583
672 -0.012929020658144297 0.004435885418357013 -0.018552454243638224
862 0.0006143282817114703 -0.01947645272962121 -0.003155581699874991
824 0.010320630808415495 0.0007316566867618887 0.028601716479981314
1039 0.021703379716824994 -0.022010316754169403 -0.007701581246434103
497 -0.006996752225218692 0.007460281545991968 -0.003462306240948833
361 0.0026671382753440044 0.006170080077608934 0.0012346870591772086
71 -0.005888733609889853 -0.0016617555724580222 0.0006528992289363878
372 -0.015920579642091617 -0.029368608370170426 -0.005174984688602136
283 -0.003990098315715844 -0.0019339898249659628 0.002046176903374784
374 0.005512501817989462 0.004722955215145816 0.004197259209876129
285 -0.002664954933418441 0.004584075311655836 -0.007494931153377483
369 -0.0015722377637045933 0.027525255630656144 -0.003006994093848848
495 0.002998944288407234 -0.006614077138158107 0.0015570088804019461
716 0.006531142285381949 -0.00199039919434735 -0.009464620474401818
493 -0.0027315640353674656 0.008107040345405598 0.005389006024838554
499 -0.004926347629444303 -0.014693405982740965 0.011296092610145348
496 -0.002312395338656671 -0.0010982185832446338 0.007222681801414801
959 0.01860261782088989 0.022170762619597294 0.026040798896234715
730 -0.0010376630374046194 0.010677954438381248 0.01336774845634415
588 -0.004046401894125424 -0.002187498163069293 0.0010016674292322486
436 -0.0033907517488334666 -0.000772371055404751 0.00015952601028468261
711 -0.0037298651464374825 -0.0026630633080925925 0.0029726568477440153
712 -0.0015222990747982025 -0.004297037302748171 -0.006222902249076759
233 -0.0023057312783345517 -0.002827829410088425 -0.0014133969014048864
731 -0.025712003227034565 -0.021719523247818447 -0.00910306771396221
126 0.0045639706824846735 -0.010981855669474874 0.006117440070580446
442 -0.0188174017208585 0.013040198482716878 0.024782232786932645
191 0.002086917189595925 -0.009520326047481924 0.00467803406503524
951 -0.0007401056517607541 -0.0019480730680948746 0.007208040584703477
234 -0.007170391176319735 -0.0009044588505889052 0.0004826192954795627
238 -0.005689415548298416 0.012045303720336376 -0.02161254114202982
364 0.0008150703759107287 0.0018402986811487947 -0.0018317195251226531
962 -0.008625657635447592 0.011434181072116929 -0.0038709117233928403
164 0.0011522781868403874 0.008556118599355886 -0.0005162942525220122
165 0.001357585717666853 -0.0025727198136357605 -0.0007476124168396756
163 0.002979203065394594 -0.00463472595786945 0.001019185741183321
166 0.0002288654680508603 -0.0016938889896023612 -0.006236246951942476
587 -0.0005546716221904386 -0.019495890718264356 0.008831937819722852
367 0.006082071425178388 -0.02738548248566105 0.0232619724055063
953 -0.005332903128360302 -0.007274363717928608 0.0025108391309835425
232 0.002797142573762335 0.00014291990185741208 0.0004116290494125575
240 0.007339512904950229 0.026234075259785952 0.0001638085447610917
231 -0.0003300361423889641 -0.0026059420265480693 0.0017259513267363327
237 0.007552256633611356 0.007347305746459252 -0.005437352024298132
239 0.019895089150146247 0.0011685262133322273 -0.00506004514229151
162 0.008910279270440736 0.006181200459075121 -0.0020775911898662626
161 0.010330948286951438 0.0016517107579509982 -0.0014536161392665172
435 -0.0013797807922064438 0.002425502570455498 0.0044658617697480385
236 0.0033393817616665334 -0.0031872255683162323 0.0006826601341879974
170 0.012610410288311048 0.006580384098554893 -0.0034462550486994512
78 0.0172682650450652 0.019025522677150488 -0.016387903487741523
169 -0.003407134082091336 -0.0035731879254852755 -0.03235193951157152
974 0.0013999248538991678 0.00312416496816724 0.0037618661701996816
167 -0.01925861447964625 -0.0141040987642269 -0.01110112753040858
168 -0.037982963707090846 0.011554443631544212 -0.017670706926747395
802 0.009012390548514614 -0.021123647759338032 -0.004616124722096736
724 -0.0008658548267097236 0.0027030941983068853 0.0053113969750426225
437 0.00015763244307204514 0.000167687045486133 -0.007506176624840762
729 0.024516445877996097 0.00920810281453909 0.00409415330682513
723 -0.007824177099715644 0.008126315331882999 0.0015094123262351718
732 0.0024755518512142127 0.0017895290945809448 0.009396250280686157
796 0.008342087763144653 -0.00029977441218162926 -0.004368521904582816
727 -0.013280981488010489 0.006619229718662143 -0.01130097459439226
971 0.006716529490119888 -0.0024868948382691645 -0.00013103222912744805
721 -0.0004813876970580417 0.008130108549472114 0.001985024570554286
235 -0.0013327247752975635 0.0012406186042900002 0.0018761333642456903
722 -0.005097811238890247 0.0107521140672299 0.004679696882585693
725 -0.006976847409420261 0.009014747611969767 -0.004230506664036196
717 -0.007690553563582637 -0.01438875995923302 0.004318624931658578
972 -0.0005596965050161065 -0.0007496012554178391 -0.00035387913470764974
582 0.001814642023761405 0.0016735681529606397 -0.00027118134648986263
728 -0.03890821534576438 0.009163750062982206 0.014073067422119567
710 -0.006801568633474611 -0.004668805993402829 -0.009727810286697653
434 0.00042093995622111005 0.00014518215452560457 -0.004238168971851566
709 0.008121754842205717 0.00397106137748693 -5.91557112596835e-05
198 0.01424336658470756 0.002675785724065277 0.006100291437621632
726 -0.0012319680373602325 -0.0020501672757128647 6.113454555966574e-05
969 0.0015793997256315368 -0.005202260547077483 1.0766034498259275e-05
197 0.01861713646961146 0.0034486416365945094 -0.0020988256910054134
715 0.010747630210282282 -0.007523245073441712 -0.0343917952273702
284 -0.003616297901171631 0.0019272380521599373 -0.0011100467342910854
368 -0.0006463283783448855 -0.005490055098450423 0.02298562738124256
801 0.0005495062822051831 0.020567181296935327 -0.00823147899042957
973 0.0003722524466748504 0.0019203825079412312 -0.0004054008860701941
192 0.006081252841810366 0.0032046188284284784 -0.003992097945736531
3 -0.0009981796215194727 0.0001826051875337596 -0.0003132765089624103
957 -0.007674440177846537 0.00900088322367971 -0.02503781103712562
199 -0.02468991633876948 0.010200391947313854 -0.02890290265519707
713 0.0014629365794361193 -0.008897285851885157 0.0052103380692216025
741 -0.02367976076399287 0.019914067229324605 -0.011184459250846343
820 -0.0020514598961077386 4.006239028927838e-05 -0.00288487392175851
987 -0.0020028669691303535 0.001989330749795707 0.003167982975265318
430 -0.011902891235478788 -0.03671208540817084 0.015741719606961198
988 0.004864678027448993 -0.0007839257288786802 -0.002716273362601033
431 0.0068076966619544325 -0.0066202173394411205 -0.007679298387043209
985 0.0037923306068759896 0.0011383970021650045 0.0012013352920363324
734 0.004418050678256007 -0.004321474441964362 0.006807281660960244
955 0.011118994388674187 -0.01792715790446264 -0.00980178266083978
549 0.006679210646554998 -0.0036115495520452627 -0.002240049038273663
548 0.02086294852547356 0.016942517337714888 0.005814938063491052
740 -0.012285936769487974 0.003526900522479871 0.0004743652832664728
735 -0.004084613478490961 0.002415690964903107 0.0020872868435748114
798 0.0016357082164067192 -0.0037852638056925982 0.0022840129928353515
803 -0.011831828254947897 0.016046787565062903 -0.002015239828905907
797 0.0008522471004944209 -0.005475111301019181 -0.0020943220263550484
804 0.029552438667299098 -0.0015744286211604413 0.02819606812222293
950 0.005370777409800729 0.00028690446132452203 0.006050142105690839
795 0.00043991671666812745 -0.0007121780128503306 -0.00014721187178907047
968 -0.005187463036146796 -0.0015413538510374019 0.002894503212450472
970 0.0017820927777884464 -0.0013010281701777244 0.004671699081066898
541 -0.0009298860446410023 -0.00015111698281120186 -0.0044569871162134485
117 -0.01367926154432791 -0.028637511677118078 0.027752905202083226
945 0.00413018301574585 0.0010262801898010922 0.013379531020805363
930 0.0005428388731945624 -0.0033858750593191013 -0.005869661220236236
425 -0.0017382647937306405 -0.0014388589086908785 0.008485249488186032
793 0.006248898511985466 -0.0018857925066997224 0.011918112049136684
423 0.003605238078591713 0.006175999493579805 -0.0018753740571771154
208 0.002071534422873531 0.02819786787806973 -0.004800199036444061
113 0.0025189678221891817 -0.004597823647086489 0.006524018535173971
488 -0.04643806627184457 -0.0060729961674322736 0.002573869706819777
991 0.004160128835910033 -0.00034153264640677866 -0.004929092105313241
116 0.001892042018909038 0.0004324464556889709 -0.0033173934973328907
111 0.007600674682175521 -0.0028239905964113896 -0.004818248345432763
644 -0.032863321823451704 -0.013718877335550193 0.002071009930336329
956 0.0004747398847507291 -0.010280122411614695 -0.004939189814644999
949 -0.005822743110832738 -0.004511359790640832 -0.0072415789654976265
739 -0.007006213384620073 -0.05546205699179782 0.02460838009215544
203 0.00453098846262656 -0.007731882748891322 -0.00860878385189063
794 -0.00038030045898331433 0.007931911137573303 -0.0014897226543413816
149 -0.00518266790905238 -0.016248193875560413 0.0261420141393548
787 0.03107210110714788 -0.0009391860293687761 0.0018927466053896662
148 -0.015785660446816906 -0.022671896525828142 -0.006050678227137354
204 0.004193199491317211 -0.00026002893070480927 0.005131515496710719
799 -0.03508766025532878 0.009083549491649771 0.019567596782906222
645 0.011512047202977252 0.000846706903319055 0.002892925505398233
993 0.004352279561796754 0.001419885988845142 0.00020055279631615202
2 -3.5579255894584595e-05 0.0005762087576396868 -0.0009194552035696462
938 0.0018927023120345599 0.009273733013780218 0.004002309166008843
975 0.003532966978404331 -0.0013255004017662909 -0.002735720519888612
939 -0.0009561625574843107 0.0006128744635204384 0.0007033145082762358
276 0.00015660356541982365 -0.0034708514471915855 0.0013502119348155928
1 0.00018715792576878354 0.002909371044758376 0.0051162884348834
643 -0.007208001610732392 0.024177230233449483 -0.0073538181864257705
273 -0.0020358659374833535 -0.002442074744689209 0.005102233552631484
146 -0.0035053364796249994 0.005490605501277038 0.003586310546395603
272 -0.002997734840679591 0.000880176041260882 -0.005794456004667366
271 -0.0008855707158915622 0.0023992128731619264 -0.0008590348419381316
141 -0.003976386890100705 0.0005975969768419925 -0.0008302270953330142
206 -0.006380251287812258 0.0034723242498190914 -0.001599177765442833
279 -0.006256511545786112 -0.01880393690194888 -0.00375674964267665
274 0.0019113145263614884 -0.005174101285137149 0.0019620264126556874
205 -0.009434848936418461 0.00023436231153805724 0.0006053003052917104
936 -0.00060329403793845 -0.013660479480820654 0.0026942402687926167
278 -0.019759453625885222 0.003345071331317453 0.009466129215610887
147 0.009899773204379327 0.021064416867753025 -0.016274013805108456
144 -0.0035094364881878837 0.003874910031961188 0.005607814731693893
277 -0.00556833829189945 -0.0063702477059472545 -0.010393763216724411
6 0.001940561226813493 0.006277663921489079 -0.005932724215785863
934 0.02350377232067255 -0.0015467339702659626 0.012694141383749104
114 -0.0020914979892161577 -0.0007206287783628374 0.00046077389786923105
119 0.01286977992605878 -0.005643984367569422 -0.014895317561185758
275 0.003263945912970527 0.0041113438021981395 0.0009287896267383311
207 -0.022763342198540686 0.007719219743673746 -0.03292325752084734
4 -0.0003353927405007573 -0.012047622228741726 -0.008439312339456535
7 -0.002834930343761455 0.015598826629701551 0.010686051657137088
937 0.012818257206000333 0.0026818574576717344 -0.0028262627023240674
733 0.0039004179349356786 -0.0020799028824884536 -0.0037017524543935857
944 -0.017174797850797677 -0.005754374583260865 0.01129498564848688
201 5.2734993744646495e-05 0.004478862276338606 0.00026613547169890837
150 0.005832045468850044 -0.004552499420879444 0.020351518774845513
8 0.0015251776890803214 -0.00029564238801045454 -0.02081388898523733
112 0.0032320816478330376 0.005262535309985359 -0.005583033357951211
145 0.0014842518079899382 0.00019190356226016553 0.004936666153735862
118 0.012524525909396404 -0.00846089217168218 -0.005490064012858627
142 -0.000958770103048124 -0.00426159963416963 0.0013011753817339029
120 -0.0016746598137630264 0.008759688197779907 0.010214126264980096
637 0.008695188558128085 0.0004692709609396852 -0.0024020915402017413
965 -0.014071293800862273 -0.0007055177267979391 -0.003426024596214193
5 0.000830647871070104 0.0001628060514921282 0.007338314550183125
280 0.0204103957574701 0.00881400443716954 -0.007732050282969131
143 0.00578076234785658 -0.007113258738411316 0.004237543663331336
935 -0.0011942161870837618 -0.015221393029274922 0.015534178854823654
817 -0.01172049539677245 0.0037221323078792386 0.0009361921707535833
615 -0.0076156096664706276 -0.00705203927963013 0.009425318238763112
547 -0.011556589641894231 0.00797834193695895 -0.02025321357184284
954 -0.008680744377878616 -0.0021385704492388933 -0.001936465151681138
1054 0.004491373412612922 -0.026821334268210324 0.015098785896690326
864 0.0014553049771834662 0.0093533789211743 0.0017603567659133308
1018 0.0038185017627837253 -0.0030621271063129727 -0.0008432663132959023
357 0.012638431657132167 -0.018469547880574994 0.00850418346481559
355 -0.020952189192639605 0.008456538538274574 -0.018283957466629423
350 -0.005588426285547133 -0.002157304988282657 0.0006664473606133679
349 0.002591939974890499 -0.008006596709664214 0.0028869151008645796
351 0.006840254062400389 0.0010232756095965682 0.003056161571272804
353 0.00129169324846538 0.002984423332241336 -0.0071792368483624205
352 -0.0015467174909781691 0.0021173959428663846 -0.001979228997111938
822 0.0035270698949574275 0.0031436779301319195 -0.0012236341885676983
360 0.020567312816394265 0.019297797929271037 -0.023601605697672678
354 0.0025148876395507634 -0.0002034274624338422 -0.0021123460735331585
358 -0.005143028054451892 0.01564296139591864 -0.008670059928630357
1021 0.0013875931295682228 0.0006337684650163564 0.002989374797436385
1031 -0.002284257398809635 -0.0020704490169954595 -0.004897880204044999
1056 -0.007403186878050702 0.029496283183776593 -0.024296600017628393
1055 -0.0068137412687776944 -0.016001829669778422 0.008393184411113287
1037 0.02221165278849952 -0.00426606864964704 0.020847240306757466
919 0.011023720660597846 0.028251001650106154 -0.01598736313497378
622 -0.016182751585264585 -0.008996190164328994 0.011234582637849407
359 -0.022668941739593884 0.007426677080669323 -0.009203246846537862
1019 -0.0020026015949210986 -0.0031604694130347465 -0.0046950548423632405
391 -0.012765068584586575 -0.013447193839677305 0.008486265892549163
138 0.009006306574547115 -0.007751454643515003 0.0031795377750540596
996 0.0027483386141252167 4.752126251373706e-06 0.00019222040612571173
1029 0.0011330334649027735 0.002629320569273768 0.0006822065570661786
393 0.007515916371025784 -0.011715025788661453 0.02298313728626329
385 0.0004496502986577086 0.0007572976941872756 -0.0024232419299017615
131 -0.0036785130795795413 -0.0009492747206789619 0.0036243006310437823
392 0.0006450970465649614 -0.01779927387450976 0.017194609669317327
1022 -0.0008818277685916603 -0.001781246804859774 -0.005767270522988037
826 0.003140259098529606 0.010921071101712454 -0.011853093558587907
125 0.0008869234089094909 0.001819977710843966 0.003761280921316132
947 0.013452693220559015 -0.01782938253079557 0.022603090484648126
356 -0.005153761495481996 -0.008810369061781405 -0.010672095368908476
26 -0.0008758497424743083 -0.0015624821532659611 -0.003454635283670728
915 0.0014188429357424042 0.005502427866466274 -0.0004536568723853753
821 0.0015180211334859263 -0.0020215795237272217 -0.003588688441509869
917 -0.001835814788316363 -0.0015021859658611498 0.0008040203804137427
1034 0.01218803670607124 0.0007410383916809952 0.021516417127632935
370 0.008633882030334149 -0.004834148496839006 0.016753251526027572
827 0.016206329840097837 0.00863413122405172 -0.011979582087359468
137 0.018138199493783997 0.00032390575079608604 -0.033805773256718755
922 0.003100376074885061 0.01880280915430258 0.005882643476961911
923 -0.03514405433335774 -0.03643546903897493 0.01607636372312787
918 0.00921568265565717 0.004165087479131518 -0.009797906653550015
1017 -0.0007055791498399107 0.0015845014067416136 0.002318206629494796
492 -0.011736102982671318 -0.006523649665056759 0.019391277714179176
961 -0.004850354908454341 0.009381010840788703 0.002843904055693272
1036 0.014029011239876297 -0.005747085175246872 0.014929844776348232
386 0.005412075794229033 -0.0003953901353946867 0.0011154586401442483
87 0.01961314142926513 0.005498690822851687 0.02756390788632506
916 -0.003782051975670871 0.0008052889582033856 0.0012662134863512956
81 0.01725174544956546 0.007917128197040017 -0.00029923216433021455
924 0.02929911356677488 -0.011342615268980066 0.021814191543771226
1052 0.002890117111879517 0.019789456583373194 -0.012734497044904754
28 0.022643487712291042 0.022203253811139287 0.00017917890188547125
1038 0.008804965547505556 -0.023047937003297606 -0.013195584101575482
914 -0.003530812047332154 0.0022819000671639674 -0.004414918668303015
21 0.008095465766559722 -0.00019730844904465027 -0.006795005474320797
1033 0.017174127461138576 0.0010487689291874464 0.014029254667834948
502 -0.013786164819679566 -0.011839640427174768 -0.006528513966729875
942 -0.002707695467660857 0.0033199001649037493 -0.006373807597803127
491 0.0050411388640820825 -0.0021370657580663797 0.015906671730931188
486 0.006113506665145608 0.00018902049636404934 0.0005178097043312142
485 -0.002028396977864142 -0.002010531881448136 -0.001837935662463565
1035 -0.014338161579972362 0.017079072830589882 0.005645935578237959
483 -0.006014812020627623 -0.002209034397763416 0.004226756129720356
27 -0.0075078359548700156 -0.0044160110079879585 0.005192816921054859
371 -0.007088981474370675 -0.03383891213063311 -0.03768014867900291
913 0.007979725244768126 -0.001915602381930953 0.0023512331309352118
366 -0.0064786508203505695 0.0007408268861255917 0.002548121449319609
22 -0.002228482092905223 0.0009715757684480177 0.00020377458127685113
656 -0.011161740740911849 0.007205144222038668 0.0014854537740623009
23 -0.0035184393953957794 0.005113195889526112 -0.005290379467106464
482 0.0008232454484759654 0.00023959610442414345 -0.0005298042570062793
124 -0.009534095956135162 -0.004232844493453494 -0.002660749980910279
490 -0.0013761134472472015 -0.02990915042503297 -0.0038180765341356603
24 0.0016044763460527905 0.004888820892224139 -0.005256585837128603
623 0.008259962746651842 -0.015330471310312272 -0.0002825137037565993
618 0.0032692145022368145 -0.005409837278884577 -0.00028340101169685276
694 -0.0067013666713333555 -0.0003304034690410976 0.003937714852024902
921 0.00946666510711768 0.013198783781237624 -0.0036040853017451574
941 -0.0013661140266129383 0.003160176416643564 0.0033287075605294867
676 -0.004346076454711551 -0.001457617851951743 -0.003082594879568669
580 0.0006627291254502173 -0.006458716955704064 -0.0014533174545556889
1030 0.005910734421963549 0.006987784732918695 0.003222317823194968
49 0.009779428567678751 -0.026396562581428484 0.008375702608622975
1051 -0.010899450529098515 0.033726878239986345 0.00406357774707546
388 -0.00790116145013987 -0.0011267164409002924 -0.0025244823200653694
585 0.007321215698232024 0.002331727112549565 0.002060777626028241
503 0.008797893258341443 0.015023080036784724 -0.002109592922258327
504 0.001265918261806014 0.000526634199957795 -0.01141319413355222
362 -0.0021346820900736106 0.002572170432291251 -0.005813095243507994
681 -0.012767282418914335 0.004882425581402631 0.010144545735754726
577 -0.00422561328707066 -0.004051444248268324 0.007848646262197004
584 -0.016846752047420845 0.010342675553318283 -0.025792409469044444
583 0.026955139910785908 -0.006054872874701698 -0.009165651729977105
579 -0.0032300342048359435 0.0018296191157389416 -0.00798835333493853
578 -0.0028982343382948747 -0.004952312082522933 0.001170507827354479
45 -0.004608549356535198 -0.0029276884672506404 0.0026294516699256875
44 0.003700400137508515 0.00341105659028004 -0.011837272998493397
532 -0.0024930608188844187 -0.004056397846358402 -0.005019590088945459
531 0.0025412294506581175 -0.001379236716326775 -0.006072677007490885
42 -0.002937583635592853 -0.007420138862759747 0.006272410072024502
365 8.08736595702864e-05 -0.002722618663714102 -0.005156589279099753
387 0.004791064739659233 0.003621604371851222 -0.0030456799574185575
680 0.0027936849832968192 -0.0017282238374922933 -0.03284643086937408
581 -0.0031288175115163856 0.0006679660749565181 0.0006426107735582353
389 0.00031162891602686525 0.004261427202059804 -0.00020365216272966212
534 0.0011739727904686993 0.000178445322712509 -0.0008724337641120483
395 -0.012253926689075753 -0.014150164233582513 0.0019120835833406958
390 -0.0043594199541545885 -0.0001324998220670375 -0.004721996297835385
394 -0.007506498832287067 -0.00041961864728631143 -0.017061350933196967
43 -0.0011827051294335074 0.001647333670577738 -0.003291160759373827
400 0.0040929411042782615 -0.000443583733046913 0.0016942247307275952
539 -0.015299090695540155 0.0070956535199371215 0.0009272918007591589
449 0.0010403506319877202 -0.005269730230998827 -0.00012428105424242485
448 0.0025167118121621657 0.0019346094324059855 0.00651825469375416
446 -0.002212339566157481 -0.00401448333358074 -0.005833478237682321
455 0.0053965663087879034 -0.006472050568536871 0.014679178953620527
454 0.017003360143203926 -0.021111860507022746 -0.013073253548274141
450 0.0015646080377837892 0.004704372235398288 0.0038269065157465767
456 0.02955117378285293 -0.010411675192172303 0.0047868589920757555
194 0.001249892148507513 -0.0043291830766574 0.009210137099169423
196 0.00548756293528987 0.0011497217986946226 0.0015881236827053752
195 -0.0019964294192497192 -0.0027939532875363307 0.0006023915146754653
447 -0.0009732832642501943 -0.004561944934594187 0.0016317393765784972
675 -0.00105604522845225 0.0008078091348282664 -0.0012322989949711564
401 0.00826187408168512 0.003493507131191504 -0.0015857941085815038
398 -0.0034779439037096317 0.003962429280460161 -0.0036934394108486166
399 0.002064513031208113 -0.0012608140249027158 -0.0013373252229798229
397 0.004084929289872928 -0.006458703423009192 -0.0005914983498688236
403 0.008327693963868534 0.024630880628892717 0.03221595596204639
396 0.023039409956150947 -0.013789437050898455 -0.02259334432259003
674 0.0001621843854255206 0.0027356693073864067 -0.0030148208686787536
67 0.037543266962606216 0.01255354841602547 0.005198537197529036
673 -0.007808896994366672 -0.0036869128400035473 -0.0012570146365061012
404 -0.01278736722235923 -0.006217738589555564 0.0006035565177613322
538 0.01582924613564363 -0.0023673929561745174 0.0012885371115221398
533 -0.010270942757068 0.004014539524761281 -0.0006802534247479065
405 0.006579883632491991 -0.007476167376309531 -0.013620167605732016
792 0.032283849041953826 -0.0039055939049746575 0.022594768509965567
791 0.002783897846156932 -0.02091776419038874 -0.012167359083623817
445 -0.0074396889369123835 0.0021194626411580194 0.0035659340121527126
453 -0.012157525608625465 -0.0015541319042308979 0.023863159737435604
47 -0.004986134007952743 0.02111225230967416 0.009916927296489077
69 0.014484595950481276 -0.019981415730574895 0.032022846012143356
61 0.010838715877931608 -0.0020798195179428116 0.0007902285979960045
62 0.0004815896582164726 -0.004130512610788586 0.002894860176221549
786 0.002466245313891436 0.0018146766557533465 0.0023259655300674536
785 0.002868013001819783 0.0013032541690028872 0.006664927509887127
46 -0.0009359901325240046 -3.532876833550153e-05 0.007765635797601025
64 0.001828475962789526 0.006925438621520095 0.005573017355218492
540 -0.005833202985063708 -0.03122238647884254 0.016930058649445648
70 -0.012703192990249867 0.016364328073107184 0.022723026018733126
63 0.004626624634943525 0.00967174877661043 0.003029294349368719
48 0.006297080766593332 -0.01646723015832115 -0.001531107162944121
41 -0.000763827066488822 -0.004263087844282219 0.005326953564516682
677 -0.004612784617798365 -0.0018965539924797273 0.0030492182557526498
498 -0.002043389982288476 0.0075545592802925155 0.0005875939198109668
1053 0.009012791184131048 0.00955117759631019 0.007074915040795691
402 0.008088798251989498 -0.00045635245686204476 0.004311126458722295
406 -0.012006052169159153 0.017353385183857133 -0.017672008248084903
408 0.0055110230720515204 -0.00908704245437879 -0.020790745832707194
407 0.008052660206867224 0.012028771843352647 0.01464638803866922
790 -0.015706295990985664 -0.0002792751342723526 -0.00010299602091981552
297 -0.00963310198624553 -0.010312084136128897 -0.024154398178227822
451 0.005408550983990988 0.014700394846862851 -0.006167658228651332
89 0.0024396709597046423 0.013581550906788385 0.0062157477428563136
68 0.006800204171784785 0.0026512242884901916 -0.024213984094319553
679 -0.015554696177151562 -5.162090365343382e-05 0.03309130804317635
66 -0.0012064081235375911 -0.0031435947786214147 -0.003015396392434723
50 0.0131689910898278 -0.018706478030848045 0.006989408048779053
981 -0.004290446329693505 -0.0015962419054594246 0.004521303369767283
946 -0.027065586849732814 -0.01540690314364438 0.013070041098539303
593 0.0013580414528218004 0.008331695575150228 -0.0010050632831888088
598 0.010113097649958422 0.015051182484724777 0.011125116180149677
470 -0.0001374000938408653 0.000665916656674554 -0.006853199238208465
702 0.005379596094152865 0.011207180073972265 -0.0023475792663721702
596 0.011094356431152069 -0.00019678611395391142 -0.012960699256722235
976 0.00015275842194843124 0.001568504594654495 -0.005214579824438635
597 0.01811639685656651 0.015618849853715854 0.007914399902536944
655 0.010741920001848874 -0.0009749307945949586 0.012889319111322798
948 0.01329877710347767 0.013589323195282905 0.01440424485363398
646 -0.02394816381447587 0.008737736276653113 0.01162101859801856
789 -0.003248409140759255 0.006490045754560962 0.009117269826511067
788 0.004581206676783051 -0.012768283661134028 0.0172570906863138
474 0.0018910306568628707 -0.0021508512171329076 -0.006892812973896726
977 -0.001718009973022942 0.001640514697795417 -0.004305605677534911
640 -0.0007774565859508885 -0.0014951269935079602 0.0003892489844028074
695 0.0008283294993431992 0.007984627663563532 -0.0009202740849186363
473 0.001726544603816284 -0.002156682625089119 0.003964952692152055
524 0.005449797496601225 -0.003391740218691077 0.0005754276660237684
647 -0.001727515903947533 0.012217157492990327 0.0170013565768701
481 0.004366015595363779 -0.004410299006212416 0.002238593439343005
926 -0.0041805538185274715 -0.0033994063564335257 -0.0007646460677691691
489 0.004918014059296034 -0.010983164384287444 0.004128654141447336
781 -0.004407592138969032 0.003014185317570591 0.004758177344551026
599 0.0021653276583187874 0.008089014863175594 -0.0028260718607651617
657 -0.04410883845760366 -0.020525242363513156 0.009139860680367718
639 -0.0011194137320020509 -0.006005045769380855 -0.009003739744593477
525 0.003599360250293848 -0.019178579415562294 0.02914803199089313
487 0.027802583879314263 -0.01236809190942219 -0.03388117499621964
471 -0.0026873915829797933 0.01535036923582027 8.101137499393551e-05
929 -0.0009604949661002917 -0.004344929789535363 0.0018589165298183456
520 0.001674737045546427 0.0029267702229542744 -0.0017328001207220188
706 0.010052842176122402 -0.004878488211071327 0.0008201138235829821
784 -0.00016319706112672883 0.0001441113282305914 0.002849339273490498
476 0.002635829486569302 -0.013227092421490269 0.0057645980439131545
528 -0.004853486821531368 0.02874907265724706 -0.010148254332492735
650 0.00041135494257625186 -0.0025042719005573793 -0.006589202255967369
979 -0.000984591106898301 -0.0008973883962562442 0.00016064529714087774
592 -0.004599574726215711 0.0069565277802426054 0.0020809776524832926
707 0.0035919855315760148 -0.025012598282351025 0.007902733850128586
652 -0.002604124655027824 -0.003019432541459616 -0.001999177588244383
932 -0.030710887815940186 0.008899033354116119 -0.005086274591454889
649 0.005043724499143192 0.0025388969722807807 0.001099177539343139
967 0.00034183648888319455 0.0004724637724628859 -0.0059299543412174895
475 -0.03324488859935944 0.00394047125904248 0.012827932801411044
526 0.018538071644773217 0.006307706044518454 0.011368747243553582
642 0.0032870255749890926 0.008485149535352458 -0.005241326132532937
783 -0.001945805383223811 -0.0014131355715943906 0.00133966874291243
782 0.001538106118089817 0.0005996361394172687 0.00012441795540637103
517 -0.005504307560934567 0.009304613850174882 -0.003349389838661334
522 0.0033513221145884866 0.002029601069181426 -0.0016567203456481162
927 -0.0038083023671544973 -0.004750088588379131 0.002875728987329268
590 0.007332815409576845 0.004286485620180538 -0.0008508746675957946
518 0.0036265183278141907 0.007381769274820275 0.003997994001648878
589 -0.0029420172732505944 0.0023569744389354275 -0.006243293486919244
484 0.007349142591586805 0.0006785240688457848 -0.0061177775576321935
523 0.010614495430038751 0.04305674891083194 0.016569473752597083
469 -0.0009568141889782845 -0.0005086013892062378 -0.007302847507787665
651 -0.0070393788760702136 0.0002614415679846123 0.008961497061914844
591 -0.0053440930910733245 -0.00557136404779928 0.003669764194872728
980 -0.0010547618653483479 0.0003619501777735886 0.007493831039475118
25 0.005772398599721171 0.0015933641113611556 -0.0017471215472958555
477 0.01606198561046044 -0.005663076297944079 -0.014811509461910592
519 0.0034927033051080835 -0.005837435552714336 0.0022211878689219144
648 -0.007399309916347917 -0.00877540664278149 -0.0012728574383149309
521 0.005976539368164835 -0.002975043474504573 0.005238085214804509
595 -0.029799892516446175 -0.0028986743398661 0.004401073175421185
925 0.0012896330055897226 -0.00011152137144449881 -0.0057797105344198985
928 0.007564334071157303 0.002341238769931839 -0.004792204728040004
527 0.014769011555447308 -0.003090544154332933 -0.023499943992317356
931 0.02109510933579125 0.0038483334229004462 -0.003970314150829717
472 -0.002327393527333111 -0.0020403650654157598 0.003523541697904676
933 0.007119765510979481 -0.005768592632961392 -0.0010144137137303845
641 -0.0030795535324635148 0.004222920789753731 -0.005288607770030707
594 -0.0012490191698590807 0.004867259483510949 -0.0041454467747497215
600 0.035602253443576926 -0.005981155589030266 -0.020486700225471142
478 0.01945656070021446 -0.0037096332104081552 0.012349846838237762
638 0.007409482096226828 0.0004950708722084905 0.0034245004497798076
1028 -0.0010579881794543864 -0.0010519208841244189 -0.0002743847872543057
82 -0.0033312931803285957 8.167169527201648e-05 0.0014567131162466574
530 0.0060195505651415215 -0.0012055033144536776 0.0007329222138900545
617 -0.004465973587910982 0.004266082896512596 -0.0034035640133816517
363 0.006003234260752012 -0.0031932030150150018 0.00721072669517879
1023 -0.007463946028718391 -0.0007341485741222679 0.0026881212691037756
90 -0.0052652668007607244 0.00010204645714233327 -0.013497822606009038
452 0.007163410904763713 -0.016183113051311614 0.008552936998431243
30 -0.01916707502190224 -0.00848714629541485 -0.025538561582214653
159 -0.01301706343788844 -0.003061935117666466 0.04077342281936197
154 0.003469855490100559 -0.003761475243680466 -0.0017308175118412043
153 -0.00041361338027521584 -0.00226631246670025 -0.0071347761682180304
152 -0.007281162760381131 0.0011841875084291696 -0.008944109286347179
160 -0.01519853193375377 -0.007434292487449123 0.0219947215155864
151 0.0006102547874864753 0.008581659709236196 0.002507274572612886
105 -0.00022610754296041642 0.001214977739437317 -0.0005938310293882807
629 0.003354225677501288 0.0019901342044977037 -0.0011217404845894649
104 -0.004446256246278507 0.0036892996863530612 -0.0027269978522146713
155 -0.005509296127285633 0.005679860058697903 -0.002400599215267956
156 -0.00821914093878459 0.004863667936958624 -0.001603177145598298
630 -0.003924119572882198 0.001185713194851341 0.0008391068132942716
157 0.03252474168840063 -0.015597909008667286 -0.007714975148322449
635 -0.0264381277163651 0.003345003285572439 0.0027260254241487387
38 0.0010407023626010474 0.013283153282079432 -0.011569219306065671
36 0.0018581657570421026 -0.004271509888894287 -0.005757617527230871
31 0.008023376956994415 -4.1759730229380264e-05 -0.00016534490820383505
103 0.0025346595810937893 0.003454900850392013 -0.00029710724439300666
34 -0.0065572882969858505 -0.004919157167586289 -0.0019043961035095285
37 -0.030455866013252075 -0.01851239714611923 -0.007690832623198249
102 0.0012305000864591986 -0.0042089163241494755 0.000494856327698053
40 0.007224089185780534 0.008843869606939834 -0.0014774993557204134
35 0.0110657669154363 -0.002284428731808492 -0.006004250780641165
878 -0.003325855697350166 0.0005954150271695795 -0.0009264676257012964
39 -0.017894502198315686 -0.014408399244691537 0.010709238105375444
33 -0.00459898280605116 0.005888205275337818 0.004427797612262685
32 0.0031185482568766502 -0.0016007800387030898 -0.011742375155180822
906 0.0037780360812569263 -0.011835429094097221 0.005974780208488418
910 0.00040843444742313603 -0.016094559948832892 -0.01290367460714123
905 -0.0007229148866457296 0.0011536205466181318 -5.763089837011048e-05
886 0.011803461229391438 0.014706942819255574 0.016758533503016367
881 0.006226109024243958 -0.002935701007452885 0.004508943199404748
860 -0.001266334676536765 -0.012168628898658737 -0.021765043061843327
884 -0.008359363943144084 -0.007422489659381293 -0.001655578748970482
606 0.0022203149091904683 0.003763464852319712 -0.004728619720533192
101 0.00024248717198974883 -0.002300324937549389 0.008776131429159591
227 0.005456176862453797 -0.018129090406267537 -0.033813322446681525
226 -0.005106631393213518 0.0024684578802304383 0.0013648455096601292
634 0.005037127351217689 -0.0015335407257795934 0.0053212426129446615
610 0.013988942938409958 -0.023793111451892272 -0.013791274238685538
612 0.025603858639664565 -0.006195546587638051 0.02967546994199772
636 -0.01051234517798786 0.016797718712681542 0.0338772349515762
228 -0.010049965874971863 -0.005623063555625574 -0.010362805694889116
882 0.007984735415444205 0.005201977833561945 0.0018811295256247072
879 -0.0007455393794053172 0.007348523857306058 0.0006335186294048889
221 0.00019408533537547715 0.0024492981139012547 0.005400062881189596
861 -0.012152317220673413 -0.00765555011352927 0.0059265008996085
853 -9.205023843180798e-05 0.0026498725195788957 -0.0064445962709820115
109 -0.017702261965517798 0.009320671724685361 -0.01276282095671065
420 -0.006600199911447501 0.0036233712791163553 -0.015957900032439513
877 -0.0002370898092753425 -0.0008926363411983283 0.0012630863177146541
883 -0.0034607605593541765 0.004048500293642329 -0.015255248681272215
989 -0.0034638171556505225 -0.0021468712747966163 0.002905501499128788
414 -0.008453646050609586 -0.0028854444035182076 -0.007075721738304905
611 -0.004193374705569562 -0.023851663858607146 -0.028010721876013674
963 -0.0014653337820038615 -0.016680742344170208 -0.0025819690272303707
627 -0.0012523480061852796 0.0033691515623060016 0.0030788244721165893
912 0.0012034885076151762 0.011788993873588208 0.0018515913108125646
885 0.0015583459859530857 -0.0014038253585938066 -0.00990660433340618
424 0.0001589515844429653 0.0014055684517324375 -0.0032872274924270017
225 -0.005289911265610431 -0.006557291898270341 -0.00033260602041608033
823 0.003600715792687877 -0.019297935961971727 -0.009492308286249933
376 0.001654982556738312 -0.0083622159298652 0.005885800946739286
224 0.0038935097752412144 -7.975793108005319e-05 -0.005957948123203684
158 -0.004850223608480419 -0.022881383689327822 -0.004044784054944758
859 0.008476244685783809 -0.024461333892731803 0.012065083852204578
621 0.01091718477366435 0.007490131384468557 -0.015092248832387889
115 0.00040042600362809414 -0.006290315801153538 -0.0029360958189303303
887 -0.023154332205831712 0.006778454061499583 -0.035600966884422075
1043 0.014068739702401193 0.02712516207442372 0.003332350187355042
880 0.0022135644609225288 -0.0055780663147387746 -0.003084835188440824
441 0.015043797810370303 0.009551307999913092 -0.014917294345551635
1042 -0.02215431582151304 0.0017055072545733496 0.0005807214267302529
134 -0.0035210009905501786 -0.005138003673798915 -0.011059718651256335
614 -0.0016265198023024136 -0.005923373006348039 0.0009365709848904132
616 -0.0027551749326366467 0.0037655610866334636 0.0019124803205327334
135 -0.002033898626727764 -0.000710977713064218 -0.002376983427521426
628 -0.0031876655431645985 0.007955153891659857 0.005729719682903198
1025 0.0003843411595785752 -0.00011337950226790049 -0.0019224793275394295
560 0.005081928349581445 -0.018619495203289045 -0.004224640308262506
419 0.009874356739730694 -0.018214304249619836 0.023026648733718593
106 -0.003551870146816501 1.597513477291939e-06 -0.008307837600449779
133 0.007791806436722786 0.0030935609020256677 0.0035516939123918503
736 -0.0023540224531177446 0.0015576568594328753 -0.0027478299890722597
108 0.030232914696797793 0.020334244678250107 0.031630143223279034
413 -0.0007620464927180012 -0.00296165483545759 -0.0018970615791189308
427 -0.016426760012558356 0.018543114279113815 0.02338116860643466
854 -0.0034534429017552748 0.0013803341835629576 0.004541222181763154
110 0.011973873193401059 -0.016589576861495543 -0.010217299838702251
243 -0.002024350999446296 -0.003629573347554522 0.00010686496575070499
255 -0.0030601674768480094 -0.0009172991513091435 0.005594802929879509
903 -0.0026686910531323344 -0.00026490962746455364 -0.0005208309747736638
911 -0.0013362736568605213 -0.0112982490800838 -0.031916029219791524
904 -0.0027461333395907583 0.0024112753093657245 -0.0031232762917358875
909 -0.010316223112205885 -0.013565531963695865 0.01373136871417915
738 -0.008489760799036931 0.010466350303687803 -0.0030922099509953496
215 -0.0019791148747286325 0.003988176794330347 -0.001424927273804963
75 0.004159443476750754 0.005326607805399402 -0.0006064158206237362
902 -0.003652905062540833 -0.0032639054761741744 -0.0018203820923227833
958 -0.0017786404170439512 0.004172414731606976 0.006608867391011127
908 0.011600633415805466 0.015656829274862737 0.012134176129439065
888 0.0013814203050814618 0.00351871004240264 -0.004375648036854223
289 0.0022608893878328443 -0.00035051114981704795 -0.025534512049455643
74 -0.002980680710511119 0.00011800234371842988 0.0007851272000243015
380 0.012392531309171789 -0.0051923811238519454 -0.007072926691957801
73 -0.00052575136790071 0.0009112057124990201 -0.004209350996167157
815 -0.005027042708265155 -0.008384110255266449 0.002197009991252456
249 -0.004137161125171177 -0.0002646715565141418 -0.005451945732590597
952 0.0007968145737195278 -0.0029036101429878395 -0.0040192731436719965
286 -0.0026172387690099955 -0.014373698346486347 -0.001254975190053178
535 -0.030287328571632393 -0.0023871750676112023 -0.025413945452655726
325 0.005089362708438667 0.005741381745842972 -0.005817415072200812
287 0.0042144997929756895 -0.0004329147074736547 0.02581566411071766
381 -0.0031614069139579725 0.006425299957396561 -0.0007011156160059502
373 0.001071079587310429 0.0003432979892626489 -0.0040355582263244755
780 -0.003537591216351057 -0.03487051675354144 0.01100726391797511
379 -0.017484675235493755 -0.0030516944511311847 0.00600053849028679
901 -0.001696956870169867 -0.0072437940611370195 0.000817042375333716
778 -0.010918615260089897 0.02442772783113023 0.002830306404514035
322 -0.0031828953712203156 0.013910268559474137 0.01890659292444856
180 -0.04648451949872534 0.016713309200550443 0.0030036013315869418
288 0.011611410257706664 -0.02559782844316733 -0.0063094257205977625
179 0.009663285151971571 0.0165598638087235 0.010652470118893606
907 0.0033994281931629487 -0.01124714399783637 0.002053112000494659
281 -0.0022311677812192556 -0.0011685521921945244 -0.004341437459170084
769 -0.0032184957368494123 -0.0020087867709975603 0.007059217995615062
771 -0.0048552351923006895 0.011255565021924891 -0.005364957009296769
175 0.0011158216471763931 -0.011941582024109805 0.0015645444904723925
176 -0.0033460901586652844 -0.00043595068359216627 -0.0037173677171822425
178 -0.030037483692166994 0.025545628154613444 -0.003035498078388139
171 0.007956945469113649 -0.004420409588651368 0.0018052273774018441
177 0.010966784699269308 -0.008999396619711632 -0.010127670566360752
172 -0.0016342439990211228 0.006508636619869874 -0.001569593184966402
174 0.0012553757607539455 0.002317267679414998 0.0008287420021516538
173 0.005675119330130866 0.00048538975194632885 0.0016973038313626504
1016 -0.0006008198139161271 0.0018266430476472676 0.005648058485193238
1015 -0.0021014848329434636 0.001598649296416997 -0.010286392330649426
1011 0.0003739516720044562 -0.00018419754824673071 -0.0005643378087904276
1014 -0.004325712421887559 -0.005814386388661707 0.0027967940566696776
1012 0.007748163790287489 -0.004451030102141458 0.0030889506523737
1010 -0.0013160612445209292 -0.0023491277855909104 0.0012345490667377674
1013 0.001001311156252231 9.557076023046935e-05 -0.00293114803338925
964 0.008679448544253817 -0.00679096345724075 -0.0002708838746437471
77 -0.0021014756280703195 -0.02483980475873927 0.01884861225585461
316 -0.002385896308493859 0.002166205435281825 0.004440419488562633
770 0.0040461624827712915 0.004662936920611982 0.005329841540050704
282 -0.0007639606007467225 -0.0004465129876524542 0.00010625145480905535
773 -0.0047628334927051 0.002753216460168916 -0.002168335428906626
290 -0.019821512095329914 0.006460552583575672 0.0028419000246900296
752 -0.008250811200575825 -0.016397089242127245 -0.010835066914028529
774 -0.003834524718704135 -0.004943272663124819 -0.005789800853182808
779 -0.015600584641698369 0.030255331046090322 -0.0030240160073792266
317 0.00016641663319593618 0.0038394663904912033 -0.003466204790508445
331 0.0060712314986303625 -0.007791005988997478 0.019254050934223346
777 0.0044811911029479685 -0.01748443516378163 0.0036988237312689768
314 0.004592051446190287 -0.0008738372037230139 0.000549745701567117
440 -0.049911346385220885 -0.006369144426102704 -0.006854556901426794
79 0.014744328714688905 -0.004632784612535378 -0.015100149568164512
332 0.008267013472207482 0.00022862883058370905 0.006048313595037092
835 -0.014177012374812994 0.0055042819883811345 0.045299301917416435
772 0.0015114785846094274 8.39203225621774e-05 0.0004996772294073952
439 -0.014937361125416718 0.00940939430165033 0.007820996869978477
72 -0.0023280165911985073 0.00824355963366189 -0.004875321081408285
333 -0.013920232969583331 -2.7661201778609885e-05 0.011227500630233821
960 -0.014821818837862832 0.015300172115651395 -0.0022926055802881366
76 -0.0033534571291195733 -0.004335017512450308 0.002811996582129248
1048 0.0231008620999674 0.012361781911901085 0.014359687598891576
80 -0.010249950801476681 0.002970189324581047 -0.012977207770529985
1044 0.0384304959054633 0.03041793292233042 -0.031163055994899654
88 0.0003546145058864981 0.006485933326956993 -0.017193473289732628
775 0.007392069098800192 -0.025840104806020083 0.0036745835017690798
574 0.023806717587359142 0.015837975088324935 0.005365351472406145
718 0.012234161718699368 -0.002886486515805043 0.0031830524590552804
416 -0.020260997303199968 0.030228458448464765 -0.0036327427911678842
433 -0.003809615518294096 0.0029334381594001116 0.002964052918927686
200 -0.021937501351844392 0.00735615041405401 -0.014117304871391486
216 -0.004441652439481923 -0.00487293220989349 -0.001119620448121506
552 -0.00905821825855917 0.024230278556625098 0.011254808116671617
422 -0.0006963163611910156 0.002485642316376764 0.0028755179069356557
337 0.0060897023923369145 -0.003686649565526523 0.004255219969639318
619 0.012618711713320232 -0.024220830456775068 0.017433745481918554
346 0.0002592258427358161 -0.009863752504997133 0.01612381631549812
338 -0.003667161382191671 0.0035009995203067754 0.0025943637271969152
347 -0.013428718801841912 0.013322668487038357 0.00447514434612384
341 0.006815163999634783 -0.0018018238925237868 -0.0012958044971682517
834 0.0074407668466420366 0.0009730792072511547 -0.004603323390584728
838 -0.013362972990953603 -0.03219035598312663 0.0032712782914816312
992 0.010344395025671797 0.005497554708292503 -0.008020991663028497
714 -0.005499819032269985 -0.0014117195814677397 0.0023944113947983944
745 -0.0031529829542003623 0.0013331326302061378 0.003974446822856557
753 0.006344237576478399 -0.021515524414146742 0.011375467352884017
719 0.008832811534920286 0.0007809538018905738 0.015000791026342735
837 -0.025416520061759016 0.0005374517067723214 0.009960445377093383
568 -0.004677270726340427 -0.0008072022399922928 -0.0025737841644545563
544 0.002347516162049199 -0.0004197842677412814 0.0013473165141034077
800 0.007025322614034241 0.009313517359311812 0.021520520923530337
831 -0.0006576759737844335 0.005780342921637583 -0.008843361974414609
412 -0.00290369587347806 -0.0018419006746001642 -0.00129989259953355
550 -0.03342762808089133 -0.006248042408436321 0.007531768318766985
720 0.017278110615041673 0.002921578213558503 -0.004228766368571616
569 0.0028194178270630377 -0.00027438501804108255 -0.0056109248684737155
776 0.015290344336514178 -0.003117593964192098 -0.009163823435970855
746 0.005903002698731036 0.0007270509311551384 -0.00048186818997408826
832 0.006407147593286289 0.0005565714151030152 0.006904553653871212
749 -0.0060018120198456456 0.0025779131442783395 0.004005992571077124
840 -0.009241983741745537 -0.03287749280335798 0.026945834843304994
839 -0.001143138862828873 0.030753486329603757 -0.015548646922308992
321 -0.014810950518238167 -0.013457623373482577 -0.021967872197972443
421 -0.005042800751770927 0.001253835452521889 -0.0021111625816750577
410 -0.0024467808223050894 -0.0021955121817205155 0.00669082020183811
546 0.0008025526803214062 0.008048866936751425 0.001388105381333556
411 0.004369821412032716 0.0013804421724969921 0.0008128568027071358
415 -0.00774864266469422 0.015499999243889003 0.007672701818387821
428 0.0021011778503827053 0.022356395173801072 0.0020268173432185462
990 -0.0009561370029720602 0.0032996176084909507 -0.0030126224101089736
829 -0.0006687746385414241 0.002492510122241186 -0.002981086503695126
836 -0.0044433640627017405 -0.006941549574452025 -0.03799259395805621
312 0.01468616470218792 -0.03827958923621142 0.029623786077091263
302 0.0005857465807460728 -0.0004895212146584291 0.006827846652877134
551 0.009609788665553603 -0.023664559435696328 0.005359277675776505
613 -0.006047325574725095 0.007353373642341499 -0.006512392072269246
429 0.011636383826213653 -0.006614360622174985 0.0064731122475100026
310 0.002378050267856987 0.0043480184343467065 -0.01286182410501611
748 0.0002655920155932772 -0.004999429654508992 0.004121114514738262
315 0.004098405759964844 0.0008217668842188478 -0.0040056471797344576
576 -0.002594926284099415 0.021148876702863327 0.002317295517882719
620 0.0006932244360623582 0.001783095513360288 0.006536756593237778
305 -0.008344600211214673 -0.0004663414588903592 -0.001985360522863928
543 0.0007207925431835982 0.0035392198696403707 -0.0002051257939447472
542 -0.0007391249118439041 0.007837597509965233 -0.00104452257270762
320 0.026560009005600387 0.00788910161176954 0.010450895231392688
575 -0.017314547159762914 -0.010804526008979062 -0.012472603168423172
755 -0.011460943422357487 -0.0031788214994317495 0.008649201272197402
830 -0.000885055067369378 0.0007650236748372708 -0.001798283094803476
545 0.0007974592717434122 0.0012821770705226487 0.0034093377009106413
9 -0.010217877023224612 0.00845535126968235 -0.03332264150630288
313 0.00790544771361829 0.004860692841414211 -8.605595648531763e-05
833 0.001413074637319347 -0.003687737740430173 0.002369409427730655
304 -0.00401737043090463 -0.0035778454435531504 0.0015810802441976577
994 0.0045001669727465846 -0.0020638982567346203 -0.0021691440547820123
311 -0.023430886732180474 -0.0017292324882210248 0.0036959133677332222
750 0.0034418711149094366 -0.002946479171405808 0.004683867682219092
340 -0.0064859810028452085 -0.007599381676190875 0.0015210888586842386
107 0.0023712207248186346 -0.03201627507301157 0.03329889015555912
348 -0.0005124921665030429 -0.004029875289678787 -0.001626163964637588
995 -0.0033596147832078917 0.002222588455117631 -0.0008248925563733545
342 0.0009549380531908332 2.181863311747335e-05 0.010945375596132255
339 -0.003049534672279256 -0.0023459417073422137 -0.0005458981210960534
306 -0.00751692409564119 0.0005435862850700475 -0.0047123241877722625
756 0.015213189260497521 -0.003918406387499817 0.012870514771219616
570 -0.003754805546288662 -0.0008305012879841196 0.003042434762334009
301 -0.0010289782994180366 -0.0014412394945697126 0.004273501932188826
319 -0.004075371041179593 -0.005903546171253808 0.000775002514266596
303 0.0036040895477119786 0.007231089845949664 0.0015650501518792521
747 0.0012551745310897331 0.004901911849069392 -0.00621661959538963
409 -0.004266759654101757 0.010842862456253195 -0.0017644431163804622
754 0.006092524140610223 -0.022131838844190867 0.005857009400579361
744 -0.019570223062887603 -0.016195391953503637 0.021048223122398804
417 0.020161628828151354 0.008965774789838501 -0.013879140446069789
217 -0.0037116062396431405 -0.009885170910889814 -0.013345611464354402
307 -0.0024431372559126055 0.020697389174628437 0.0019745502998056684
767 -0.0338328249355561 0.008423636838291709 -0.023418308462413592
742 0.011416144373547904 -0.007386152119560696 -0.013172949000847032
1000 0.0011299834415878086 4.411082627479973e-05 0.003638195540822754
462 0.007030625345200353 -0.0031465937230663503 -0.0005413367485852419
461 0.0015188931447686167 -0.005205322692807185 -0.00039817806583386474
459 -0.0030251747479322763 -0.005500029520869188 -0.0022392027707219355
458 -0.0019572221592390722 -0.0009205865178185572 0.0026414887315764496
468 -0.02629266808728998 -0.009300657834793325 0.007178695513264929
457 0.005409791332582966 0.00184597563828827 -0.0008455734139716565
466 0.04207891944049755 0.009610320605086358 0.012939141082902242
460 -0.002156262846500827 0.0025323044351629053 0.00487319914388646
465 -0.016208263814176973 -0.00025511198487135215 -0.029692473915542132
463 0.024383298372091813 0.011695604095246477 -0.014050717619153625
564 -0.021023373716495486 0.010191566817101384 0.01673058263537276
464 -0.01545728490688313 0.017918113819117152 -0.003949427307868964
52 -0.008052686144792752 0.0008452499729521603 0.00772770140325819
51 -0.010074419484922383 -0.0036879541127537475 -0.0024299700574801587
558 0.001087522615082638 0.006988112603826851 0.0014271361860146233
60 -0.015031479810157313 -0.001645949308006272 0.004365697740787398
557 0.005871678085896691 0.0004552269223974999 0.0025085543955439176
513 -0.005947963798286092 -0.0503748574278711 0.026955551536278204
512 -0.009480948702438746 -0.02347757630555464 0.018474114933314637
467 0.025923389266515835 0.013941123766265108 -0.011922429764648952
59 -0.009076568869765824 0.01425087368044817 -0.028177947323775612
53 -0.003044073860806026 -0.001655121623143516 -0.006594426430680854
258 -0.0021379677281966104 -0.0029219710592539713 -0.02803212147482899
58 -0.0157030115254311 -0.00518597207694479 -0.01565740309749278
57 -0.012080289813818557 -0.009442516999696018 -0.009170275345322833
54 0.002982316445342253 -0.004779295024891452 0.004679611931061837
562 -0.02327627323765419 -0.008502290388955527 0.0259361240284191
1002 0.010831262069647239 0.0019420941930108604 0.005542429471818277
1046 -0.007713329950730934 -0.02211397337562202 0.0019055374745674013
56 -0.0015051532985918814 0.0010471823717939826 0.0007838040455010813
1059 -0.0008687597702321027 0.005235521836733443 0.012573010524808147
692 -0.015066534891398978 0.011010312645364149 0.0020932298587774045
256 0.00028013925493126045 -0.002285258298880014 0.008880133717913241
843 -0.0009731976951171907 -0.006454021856430426 9.268423250226665e-05
229 -0.01810443436632663 -0.008034374323939589 -0.010723017048404598
230 -0.0002954162518500839 0.015444877913425487 0.0009184191940168939
554 0.001833891414493393 -0.0006654072660023215 0.0004308659270327148
254 -0.005117300028404307 0.005709817936641215 0.0033436171170935954
260 -0.006849161178915679 0.019130537879585626 0.018630028809513352
1057 -0.02406466967276242 0.0010179504521501516 0.002937805493352467
768 -0.004211817397547411 0.0013955548984227331 -0.017871490481945574
762 0.002082510110815753 0.006566374671485374 -0.0005919696522830279
1027 -0.000804143402484725 0.003702759454136715 0.009748020820656626
251 -0.0038036246910797653 -0.0010317176149876816 0.0019780933892331086
693 0.002580646736249526 -0.03409783510276108 0.00034029271743130687
253 0.0028973223263714554 -0.003219447588724839 -0.0006205145164662535
259 -0.027779950366862535 -0.01871700265373809 0.006360515273150219
1058 -0.019789146018272558 -0.006298636260019327 -0.0158063343187995
847 0.02097153169076579 -0.028311211285202753 -0.0035969114678421734
873 -0.017250192958335804 -0.0013629665850429355 -0.02085621546817406
252 -0.00023307407561976078 -0.005506780770177955 -0.003408645182549196
257 0.01720350471618668 0.002482950723538835 -0.00513259713653927
871 0.018655416159367638 -0.012615658269154704 0.010092111032688303
760 -0.010023421241815114 0.0016418247277745612 -0.0001283749062214617
865 -0.003062171623110728 0.001907829380684412 -0.0028578007971471245
872 0.016438547554940994 0.010460680965673305 0.03683590192246271
708 -0.013143745036761146 0.0032187934368703786 0.00496342734389587
685 0.009763215865087327 0.0016875598531064515 -0.0036706240123236264
1032 0.002526929186242633 -0.009406937692545504 -0.005890778888445485
759 -0.0019585622081423016 -0.0011770007908005952 0.00546267622475042
997 -3.545526710210769e-05 -0.0017854132968161162 -0.00030119455556283805
555 0.003304922034606804 -0.0038302882654642515 0.002330341963553251
505 -0.0018422790320382439 0.0013135105241865496 -0.0024384680568578783
761 0.0065332233385854005 -0.005082441951696391 0.0005719613773243742
223 0.004923633424146102 -0.009383973663743187 0.0012005137733419116
999 0.002345857763163943 0.0010998851143448694 -0.001996510866440865
603 0.0005635195140823232 0.0012969378763076072 0.011908843278728274
563 0.0151527628736364 0.0027314257434959853 0.007447876671167282
136 0.0018492213773753745 0.0053947974262252875 0.0028668117545392834
55 -0.0031912776870587595 0.0014411304535976504 -0.003915423716834402
998 0.001973587215881999 -0.0015289685155084806 0.0010299540204955948
828 0.006452021221402763 -0.00594779599261827 0.026267618399163663
602 0.0065191629980204165 0.003532269714135646 0.0002372481543541625
758 -0.005264535242674847 0.002005532122649827 0.0003310326057851534
848 -0.0012743603022892889 0.012066928960116297 0.016441119452005395
844 0.0017404562105732175 -0.007576426222465506 -0.004350536088595025
841 0.002223167430067667 0.0032139365371527478 0.0004754280696864891
849 -0.011182192423548974 -0.012457698951071858 -0.020186448437460074
686 0.0019177695588995529 0.002234410460926286 0.0019809977815417913
868 -0.0022962848688744316 -0.001572108924795308 0.008078891480432547
920 0.012437851571765692 2.1755602344720608e-05 -0.009494732370579701
691 -0.017684241138216972 0.010163050282638997 0.004182437235868966
687 0.007889271510510795 -0.007374374985098924 -0.004917693152678048
852 0.03381220422069021 -0.015662572983882912 0.014000907840797494
29 -0.015109731174324213 -0.01894749301964572 0.019625063195170035
344 0.0028205723737324694 -0.03487894715476917 -0.0245085328639979
605 0.0038173472171774353 -0.001402046799389311 -0.006919703938359408
1050 -0.008607156302074433 -0.007085397284035586 0.0010435668164324387
193 0.0018701091870075711 0.002756987647056545 -0.008941287067997841
245 -0.009922505535326727 0.0006295177709638534 0.0019575828501139365
511 -0.012706779351028662 0.021962040758415485 -0.011594374766279832
222 0.0055623752234057735 0.001093194858461412 -0.0001550268173131667
326 -0.005875760358711746 -0.008592585647893511 0.009561700547972597
765 -0.01726835098159523 -0.0014500392149957289 -0.000875252016207619
1047 -0.007694845221537721 -0.009234224935864132 -0.002578269600302416
1026 -0.0017265471414838714 -0.005886623314785538 0.005194402480856209
323 -0.027145023519237685 0.01152003202531254 -0.006967769578548284
1045 0.0019347151590506672 0.020520557393588372 -0.005908757525069761
567 -0.001417193910486968 0.0030190959682557476 0.0068474029321679486
559 0.006669631453882659 0.024446780558368644 -0.015997427267266117
604 -0.0010919198944460366 -0.00025657419648095084 -0.0015467016187890625
1024 0.00340522853101995 -0.0009331772051033791 0.0016743992868872377
247 -0.011654695211614401 0.002331592969400601 0.004130680148140685
213 -0.002696436761745858 0.002051117843705143 0.006728154112207281
291 0.0003919978501152527 -0.00940314268486781 0.0023495410737135775
212 -0.007460317647869972 -0.005926699190238706 0.005275674762287589
506 -0.0014089418033666535 -0.0015229447632891812 -0.004434052926235942
244 -0.0004440104508471382 0.007189441789719979 -0.0049778647325654036
556 0.0033526928463681193 -0.005079583215392214 -0.0025890538530721485
507 -0.00011324566664753301 -0.001625310700268029 0.004419050815429847
248 0.002932462753767674 0.024645027392059683 -0.007531226095196305
85 0.004299395871807094 0.006970005345959169 -0.0014014588765072242
84 -0.0006993758636195121 0.004118200521616824 0.003328105130085109
609 0.0011398251777712722 0.0007996337638799221 -0.01580517889478775
508 0.0034735862025538178 0.0061628963005131345 -0.0006794212430157888
509 0.0008126202967814787 0.00854776512819652 0.0011354233719860314
816 -0.018434105326238584 0.022716075147361667 -0.001371043401224624
334 -0.009340049906511627 -0.023390699484373702 -0.0013156106305751555
336 -0.00251116317038054 -0.0001450453350169273 -0.006894231842912495
293 0.004624117335172364 0.0008123238222970306 -0.002944606995515494
966 -0.0024326234188500016 -0.0002603701030576501 0.0021776533449809994
296 0.0028667512893425346 0.007410434861631353 0.007501771353255352
514 -0.0066079829978941225 -0.02012625187173946 -0.005487496211246644
810 -0.002621329284306185 0.004093798089656886 0.0017642927895100138
515 0.00861899803086361 0.00648013027433036 0.0056447045607795725
510 0.0006810214986298447 -0.0010186094428248395 -0.003444185371595564
814 0.019222974585539804 -0.0025498353256665192 -0.01307485925820951
516 0.009144587297792422 -0.001775673049301504 0.001433967534324672
809 -0.0016174883589943196 0.0030925502438438604 -0.0004823882515089459
808 -0.00023460902716571503 0.0030631238423354428 -0.003424700174298274
807 0.00686097905505121 -0.0024047817985848852 -0.006299457462022078
813 0.028220476806456698 0.017289407647349406 -0.004290450956373765
805 0.00025016223688765246 0.004331786006810824 0.005106432694480887
806 0.0005309689051190621 0.007977976061703997 0.00335970160052459
812 -0.013110307641659462 -0.022039787011708386 -0.016640877067921826
811 -0.012440085484009268 -0.03033075334881831 -0.022081157757264026
295 -0.006095987224136238 -0.007467653511847595 0.0025477962249780637
294 -0.004431034027667363 -0.0016960571595778236 -0.002703030678037034
330 -0.0011666537499773369 -0.0020785245025982287 -0.00859736354446982
335 -0.011346474686018218 -0.00017309957143691137 0.010418331486137212
529 0.0026475019505148973 -0.00319992110679097 -0.002616404329479672
183 -0.001170741945478816 -0.006049006570980368 -0.001066134205737741
185 -0.0035884166637392824 0.0007338656403298334 -0.001006996684432606
184 0.003602456907321965 0.004502231897908641 0.0013311913711082201
329 -0.005579758284378268 -0.004747606191137041 -0.0024780026563940858
186 -0.006031652344617203 -0.005492046895099889 -9.527975820854993e-06
94 -0.0034962466138708645 0.00039286140327602715 0.004289704415483426
95 0.004391818514746161 0.008068563927460455 -0.0009672419855523576
250 -0.013644265310467972 -0.016606906131469916 -0.048092029632865456
1001 0.009181942178593798 -0.003557603658394962 0.003590156510683891
83 0.0032323536156072747 -0.006607161981718848 -0.007030372258213264
211 -0.011378429533263327 -0.00013532938121403295 -0.0012245364062798332
536 0.0018143904688305316 -0.005768966348471602 0.013117177173182337
246 -0.0046299895265694 -0.003296308964228718 -0.003448559202539436
218 -0.0038381586567875076 7.042657643419915e-05 0.0016174957543178383
684 0.01983280203574938 0.009422194589538847 -0.011904818151447002
86 0.002084674444913598 0.002145295726287679 0.0012341637447684907
241 -0.0037220023231282723 0.0017168008670124962 0.0035252489439758926
601 0.0032434124303332154 0.004190402839738305 0.0037126675689254205
327 -0.005393473245504895 -0.0010873021056654634 0.005347007961508055
607 -0.0031322213119554894 -0.0127442059285761 0.023757906102752732
292 0.00356833657943477 0.008937515333892813 -0.0019850879191597587
220 0.008705570723231717 0.014491680818119872 0.019136249964815173
345 -0.0007132200476400977 0.00024345415031646906 0.008102463464984194
300 -0.027824895137109562 -0.008093289420581011 -0.00891539377618707
219 -0.03621668444961683 -0.00387861054644708 0.013880608598210085
96 0.0016110847753522829 -0.004039484195319229 0.00020085443073003637
1049 0.012823164743658513 -0.02180819063331172 0.0029844432807737474
553 -0.0013028452575470492 0.005904782456721988 -0.005449592253601476
299 -0.004526501197899985 0.0007653215802874876 0.0026034417277934034
298 0.008360820629250747 -0.0029278718214129796 0.032610713881985304
899 0.001678076078386402 0.012020610183920033 0.008612071287304688
682 -0.03744593086777853 -0.00848638422219895 0.007993627130775472
242 -0.001981221644518163 -0.00241785789480238 -0.008090485009895993
561 0.0176677532162076 -0.001738569589317867 -0.018581595361449408
573 -0.035014072491461046 -0.004213352762963857 0.009644283923068615
328 -0.0025922961759018127 -0.004207495544638271 -0.00503496955284833
91 0.007948060267480036 0.0022660041513970957 0.007904498445047594
98 -0.010832977577100921 -0.02285909873846064 0.014507491594211847
65 -0.005293353266549397 -8.257283452927896e-05 -0.00021307605791725674
608 -0.0022150712510105265 -0.014703278962777358 -0.005146774305137849
537 -0.004448950278089647 0.012320445695583503 -0.0022478316309680994
343 -0.001366822444317112 0.015239887361649572 -0.03924071111513824
99 0.005427714275550535 -0.014908428261512096 0.002236890688980188
978 0.005100761915247352 0.0002168724359165368 0.0062513177157012
309 -0.016803533326018714 -0.03820522079602086 0.0022012065713163326
766 -0.034164496365768675 0.011766811742493534 -0.012638512430087597
267 0.022357362716880505 0.007347391473826919 -0.003719055278392451
751 0.020275313213636688 0.010951578350631812 0.0034879743320030054
479 0.020189423676211418 0.01087757470106184 0.02704269065545527
269 -0.0027746532445514357 0.0004127124470524172 0.01045553983062582
308 -0.022817577736406042 0.008879326426320984 -0.010037098430582744
261 -0.003802409438075842 0.0031784492144321733 0.0045597624167459695
653 -0.0030389391404359763 -0.0023512292860727916 -0.002073720167490671
737 0.0033459535531930396 0.0002815985770118789 -0.0032495658353732656
262 0.0007261093922378702 0.005262641477823525 -0.004101102425144401
846 -0.003527986049407907 -0.0012242699045353386 -0.00223493211536402
658 -0.021514486541781223 0.00010348284135629953 0.014854308939988374
480 -0.014942092874217007 0.0003039546526754436 0.009426334902179104
850 -0.004048662468001321 0.006314473952987419 0.004605187830197
181 0.003018481363993654 0.003223249588803519 -0.0008416543323411369
182 0.0001583738824908019 0.001981283421445816 0.004033190658402628
190 0.0024205389521444946 0.00839562717219817 0.0038980157423326835
189 0.02414505587429789 -0.018608883285114047 0.028301244989127193
93 0.001182689406827093 0.0010547346237082767 0.0004972029557461391
270 -0.01097250330519563 0.008707580994378046 0.008068959423179074
701 -0.00413806476037968 0.0018143788447286995 0.0004295883558856862
92 -0.0005000703624761563 0.004899906704166966 0.003514952583007763
764 0.006782469777997066 -0.026992696942407805 0.0037235657481513125
188 0.011635668655825913 0.00686239831337197 -0.013423654723016508
268 0.003576231483638819 -0.004438477546298706 -0.0011733507486495977
895 -0.008776447830927117 0.004193035310138098 -0.02373204104125604
100 -0.0005947263842776369 0.012434008700205064 -0.011114680809105215
264 0.0008068837324545141 0.0011524978238069028 -0.004458898282842836
743 0.005583449198592574 -0.005446732074548146 0.0013663400946763496
851 0.026638049081365918 0.01347026538512604 0.0025210037710882206
757 0.006540317888196613 -0.003230095146301042 -0.0007383523467622598
894 0.0008522139761565384 0.004214121716491277 -0.0014853773590815882
660 0.014042691073802578 -0.0019687389369104757 -0.03494035928467177
689 -0.0007287460886447789 -0.005066071265173649 -0.0016174246400043352
683 0.01133076324141692 0.011030557287922491 0.016027206605622967
845 -0.004826964203135921 0.003553595543951743 -0.006294424359609507
898 0.012810123896657128 0.0010415465569194723 -0.0035222668054922805
659 -0.012022205750433036 0.015292251042390861 -0.004730586510543012
97 -0.03267625367912928 -0.005218509875909815 -0.0027257167030411856
266 -0.0008916731734092257 -0.0016420224971966091 0.003983402017243592
678 -0.008823153254600168 -0.0023522412724911695 -0.0031226597967190252
699 0.0022284444610046077 0.0005073338910295973 0.006033523552463503
565 0.0008296262835585321 -0.0016111342938964458 0.0035446795546841153
697 0.002196057838715915 -0.0012637190272377454 0.0034695602660380293
265 -0.0008637172003962367 0.003471274391796646 0.003617603253930482
703 -0.009613251213299886 0.003655138161779015 -0.022293385414235468
842 -0.00014620236496882118 0.0018539608524261162 -0.00414706805576457
889 0.003513054140668367 -0.0011181593576411635 -0.0025012837346692855
893 0.004990253504714276 0.004998379024540709 0.0011605556333942036
874 0.018307232624407765 0.005828811778193298 -0.018848845284826853
704 -0.008156058293615556 0.0043159956695172 -0.006682417307173472
263 -0.0010379761154754477 -0.0077264937145453206 -0.001826526541574203
572 0.016001155530295717 -0.017917740074805667 0.01069253561692229
890 0.0036696735088000104 0.0048600308740742 -0.0007359280427952464
875 -0.024433820842849042 0.0021739961321693693 0.021500724449269693
892 -0.0031317027285318573 -0.0003303342284701169 -0.007406036477545425
763 -0.0009016455825386367 -0.02565360825691238 0.019769872971053776
900 0.0008999337671140068 0.013063132787611556 -0.0347853221189167
705 -0.0037776748204627897 0.01960390057519633 0.01846006702512272
187 0.008256789662228986 0.005458087455242169 -0.025131732757653392
870 -0.0003672864439266564 -0.007120483016736586 0.0015101142087752518
696 0.0367554890301291 0.02272327498449336 0.004002049751062732
876 -0.03476549866019845 0.012901372788999782 0.01633741614032194
690 0.004617326696461012 0.0056446844209732915 0.0072999368672606296
688 7.186017935475146e-05 0.0035847028814045647 -0.003734372031835522
897 -0.002710173405326507 0.017836525495756952 0.004006235066516522
866 -0.0012963389153706987 -0.0018400793109140424 0.00037954160255206787
869 0.013014483756737283 -0.00016124361676402395 0.008899280514753609
891 -4.475081797558622e-06 -0.0011873241122964562 0.002264506191438499
698 0.00018925872091438676 -0.0021370102407006443 -0.0011712282168201158
700 -0.0005728777221225501 -0.0014889626564712514 -0.0008124273053945813
654 0.00875436775074586 0.00682776668563156 0.006338460197961001
566 0.006827749259833377 0.005856114754056807 -0.0031462992960725935
867 0.00017187666908816454 -0.0016811545127794016 0.00915850530633116
896 -0.005719818751295849 0.018921828253160747 -0.0053634971213775895
571 -0.017790783213825923 -0.027593639726805994 -0.0048803311226865
418 0.020078767654875474 0.006771962495656141 0.018207262507810785
318 -0.0008380680829636899 0.0029815462091015636 0.003067743311588437
324 -0.0038223703906238543 0.009815752259205368 0.00457780048798854
214 -0.007323185138284204 0.00037992618312405953 0.00281297032756182

Bonds

1 1 121 122
2 2 121 126
3 3 121 127
4 3 121 128
5 2 122 123
6 3 122 129
7 3 122 130
8 6 983 984
9 6 983 985
10 6 983 986
11 6 983 987
12 6 983 988
13 1 11 12
14 2 11 16
15 3 11 17
16 3 11 18
17 2 12 13
18 3 12 19
19 3 12 20
20 6 982 983
21 2 661 662
22 3 661 667
23 3 661 668
24 3 661 669
25 4 662 663
26 4 13 14
27 3 426 430
28 3 426 431
29 3 426 432
30 2 857 858
31 5 14 15
32 4 14 16
33 5 663 664
34 4 663 665
35 2 665 666
36 4 494 495
37 3 666 670
38 3 666 671
39 3 666 672
40 2 625 626
41 3 625 631
42 3 625 632
43 3 625 633
44 5 855 856
45 4 855 857
46 3 378 382
47 3 378 383
48 3 378 384
49 2 377 378
50 2 202 203
51 3 202 209
52 3 202 210
53 4 626 627
54 6 1004 1005
55 6 1004 1006
56 6 1004 1007
57 6 1004 1008
58 6 1004 1009
59 4 123 124
60 3 858 862
61 3 858 863
62 3 858 864
63 4 818 819
64 3 1020 1039
65 3 1020 1040
66 3 1020 1041
67 5 375 376
68 4 375 377
69 5 819 820
70 4 819 821
71 6 1003 1004
72 3 438 442
73 3 438 443
74 3 438 444
75 2 132 133
76 3 132 139
77 3 132 140
78 2 497 498
79 2 361 362
80 3 361 367
81 3 361 368
82 3 361 369
83 1 71 72
84 2 71 76
85 3 71 77
86 3 71 78
87 4 283 284
88 4 374 375
89 5 495 496
90 4 495 497
91 2 493 494
92 3 493 499
93 3 493 500
94 3 493 501
95 5 711 712
96 4 711 713
97 4 233 234
98 1 191 192
99 2 191 196
100 3 191 197
101 3 191 198
102 5 951 952
103 4 951 953
104 5 234 235
105 4 234 236
106 5 164 165
107 4 164 166
108 4 163 164
109 2 953 954
110 2 232 233
111 3 232 239
112 3 232 240
113 1 231 232
114 2 231 236
115 3 231 237
116 3 231 238
117 2 162 163
118 3 162 169
119 3 162 170
120 1 161 162
121 2 161 166
122 3 161 167
123 3 161 168
124 5 435 436
125 4 435 437
126 2 437 438
127 5 723 724
128 4 723 725
129 2 721 722
130 3 721 727
131 3 721 728
132 3 721 729
133 4 722 723
134 2 725 726
135 3 582 586
136 3 582 587
137 3 582 588
138 4 710 711
139 4 434 435
140 2 709 710
141 3 709 715
142 3 709 716
143 3 709 717
144 3 726 730
145 3 726 731
146 3 726 732
147 6 969 970
148 6 969 971
149 6 969 972
150 6 969 973
151 6 969 974
152 5 284 285
153 4 284 286
154 2 192 193
155 3 192 199
156 3 192 200
157 4 3 4
158 2 713 714
159 4 734 735
160 5 735 736
161 4 735 737
162 3 798 802
163 3 798 803
164 3 798 804
165 2 797 798
166 4 950 951
167 5 795 796
168 4 795 797
169 6 968 969
170 2 541 542
171 3 541 547
172 3 541 548
173 3 541 549
174 3 930 934
175 3 930 935
176 3 930 936
177 2 425 426
178 2 793 794
179 3 793 799
180 3 793 800
181 3 793 801
182 5 423 424
183 4 423 425
184 4 113 114
185 1 111 112
186 2 111 116
187 3 111 117
188 3 111 118
189 2 949 950
190 3 949 955
191 3 949 956
192 3 949 957
193 4 203 204
194 4 794 795
195 5 204 205
196 4 204 206
197 2 2 3
198 3 2 9
199 3 2 10
200 4 938 939
201 6 975 976
202 5 939 940
203 4 939 941
204 1 1 2
205 2 1 6
206 3 1 7
207 3 1 8
208 4 273 274
209 2 272 273
210 3 272 279
211 3 272 280
212 1 271 272
213 2 271 276
214 3 271 277
215 3 271 278
216 1 141 142
217 2 141 146
218 3 141 147
219 3 141 148
220 5 274 275
221 4 274 276
222 5 144 145
223 4 144 146
224 5 114 115
225 4 114 116
226 5 4 5
227 4 4 6
228 2 937 938
229 3 937 943
230 3 937 944
231 3 937 945
232 2 733 734
233 3 733 739
234 3 733 740
235 3 733 741
236 1 201 202
237 2 201 206
238 3 201 207
239 3 201 208
240 2 112 113
241 3 112 119
242 3 112 120
243 2 142 143
244 3 142 149
245 3 142 150
246 2 637 638
247 3 637 643
248 3 637 644
249 3 637 645
250 4 143 144
251 2 817 818
252 3 817 823
253 3 817 824
254 3 817 825
255 5 615 616
256 4 615 617
257 3 954 958
258 3 954 959
259 3 954 960
260 7 1018 1019
261 7 1018 1020
262 8 1018 1021
263 4 350 351
264 2 349 350
265 3 349 355
266 3 349 356
267 3 349 357
268 5 351 352
269 4 351 353
270 2 353 354
271 3 822 826
272 3 822 827
273 3 822 828
274 3 354 358
275 3 354 359
276 3 354 360
277 9 1021 1022
278 3 1031 1054
279 3 1031 1055
280 3 1031 1056
281 3 1019 1036
282 3 1019 1037
283 3 1019 1038
284 6 996 997
285 7 1029 1030
286 7 1029 1031
287 7 1029 1032
288 2 385 386
289 3 385 391
290 3 385 392
291 3 385 393
292 1 131 132
293 2 131 136
294 3 131 137
295 3 131 138
296 9 1022 1023
297 9 1022 1028
298 5 915 916
299 4 915 917
300 2 821 822
301 2 917 918
302 3 918 922
303 3 918 923
304 3 918 924
305 7 1017 1018
306 3 1017 1033
307 3 1017 1034
308 3 1017 1035
309 4 386 387
310 1 81 82
311 2 81 86
312 3 81 87
313 3 81 88
314 4 914 915
315 1 21 22
316 2 21 26
317 3 21 27
318 3 21 28
319 3 942 946
320 3 942 947
321 3 942 948
322 3 486 490
323 3 486 491
324 3 486 492
325 2 485 486
326 5 483 484
327 4 483 485
328 2 913 914
329 3 913 919
330 3 913 920
331 3 913 921
332 3 366 370
333 3 366 371
334 3 366 372
335 2 22 23
336 3 22 29
337 3 22 30
338 4 23 24
339 4 482 483
340 5 124 125
341 4 124 126
342 5 24 25
343 4 24 26
344 3 618 622
345 3 618 623
346 3 618 624
347 2 941 942
348 3 1030 1051
349 3 1030 1052
350 3 1030 1053
351 4 362 363
352 2 577 578
353 3 577 583
354 3 577 584
355 3 577 585
356 5 579 580
357 4 579 581
358 4 578 579
359 5 44 45
360 4 44 46
361 5 531 532
362 4 531 533
363 2 42 43
364 3 42 49
365 3 42 50
366 2 365 366
367 5 387 388
368 4 387 389
369 2 581 582
370 2 389 390
371 3 534 538
372 3 534 539
373 3 534 540
374 3 390 394
375 3 390 395
376 3 390 396
377 4 43 44
378 2 449 450
379 4 446 447
380 3 450 454
381 3 450 455
382 3 450 456
383 5 194 195
384 4 194 196
385 5 447 448
386 4 447 449
387 5 675 676
388 4 675 677
389 2 401 402
390 4 398 399
391 5 399 400
392 4 399 401
393 2 397 398
394 3 397 403
395 3 397 404
396 3 397 405
397 4 674 675
398 2 673 674
399 3 673 679
400 3 673 680
401 3 673 681
402 2 533 534
403 2 445 446
404 3 445 451
405 3 445 452
406 3 445 453
407 1 61 62
408 2 61 66
409 3 61 67
410 3 61 68
411 2 62 63
412 3 62 69
413 3 62 70
414 3 786 790
415 3 786 791
416 3 786 792
417 2 785 786
418 5 64 65
419 4 64 66
420 4 63 64
421 1 41 42
422 2 41 46
423 3 41 47
424 3 41 48
425 2 677 678
426 3 498 502
427 3 498 503
428 3 498 504
429 3 402 406
430 3 402 407
431 3 402 408
432 2 593 594
433 4 470 471
434 3 702 706
435 3 702 707
436 3 702 708
437 6 976 977
438 6 976 978
439 6 976 979
440 6 976 980
441 6 976 981
442 3 474 478
443 3 474 479
444 3 474 480
445 2 473 474
446 2 481 482
447 3 481 487
448 3 481 488
449 3 481 489
450 4 926 927
451 2 781 782
452 3 781 787
453 3 781 788
454 3 781 789
455 5 639 640
456 4 639 641
457 5 471 472
458 4 471 473
459 2 929 930
460 4 650 651
461 2 649 650
462 3 649 655
463 3 649 656
464 3 649 657
465 3 642 646
466 3 642 647
467 3 642 648
468 5 783 784
469 4 783 785
470 4 782 783
471 2 517 518
472 3 517 523
473 3 517 524
474 3 517 525
475 3 522 526
476 3 522 527
477 3 522 528
478 5 927 928
479 4 927 929
480 4 590 591
481 4 518 519
482 2 589 590
483 3 589 595
484 3 589 596
485 3 589 597
486 2 469 470
487 3 469 475
488 3 469 476
489 3 469 477
490 5 651 652
491 4 651 653
492 5 591 592
493 4 591 593
494 5 519 520
495 4 519 521
496 2 521 522
497 2 925 926
498 3 925 931
499 3 925 932
500 3 925 933
501 2 641 642
502 3 594 598
503 3 594 599
504 3 594 600
505 4 638 639
506 8 1028 1029
507 2 82 83
508 3 82 89
509 3 82 90
510 4 530 531
511 2 617 618
512 5 363 364
513 4 363 365
514 8 1023 1024
515 5 154 155
516 4 154 156
517 4 153 154
518 2 152 153
519 3 152 159
520 3 152 160
521 1 151 152
522 2 151 156
523 3 151 157
524 3 151 158
525 2 629 630
526 5 104 105
527 4 104 106
528 3 630 634
529 3 630 635
530 3 630 636
531 1 31 32
532 2 31 36
533 3 31 37
534 3 31 38
535 4 103 104
536 5 34 35
537 4 34 36
538 2 102 103
539 3 102 109
540 3 102 110
541 4 878 879
542 4 33 34
543 2 32 33
544 3 32 39
545 3 32 40
546 3 906 910
547 3 906 911
548 3 906 912
549 2 905 906
550 2 881 882
551 3 606 610
552 3 606 611
553 3 606 612
554 1 101 102
555 2 101 106
556 3 101 107
557 3 101 108
558 3 882 886
559 3 882 887
560 3 882 888
561 5 879 880
562 4 879 881
563 1 221 222
564 2 221 226
565 3 221 227
566 3 221 228
567 2 853 854
568 3 853 859
569 3 853 860
570 3 853 861
571 2 877 878
572 3 877 883
573 3 877 884
574 3 877 885
575 6 989 990
576 3 414 418
577 3 414 419
578 3 414 420
579 5 627 628
580 4 627 629
581 5 224 225
582 4 224 226
583 5 134 135
584 4 134 136
585 4 614 615
586 3 1025 1042
587 3 1025 1043
588 3 1025 1044
589 4 133 134
590 2 413 414
591 4 854 855
592 4 243 244
593 5 903 904
594 4 903 905
595 3 738 742
596 3 738 743
597 3 738 744
598 4 902 903
599 5 74 75
600 4 74 76
601 4 73 74
602 2 325 326
603 3 325 331
604 3 325 332
605 3 325 333
606 2 373 374
607 3 373 379
608 3 373 380
609 3 373 381
610 2 901 902
611 3 901 907
612 3 901 908
613 3 901 909
614 1 281 282
615 2 281 286
616 3 281 287
617 3 281 288
618 2 769 770
619 3 769 775
620 3 769 776
621 3 769 777
622 5 771 772
623 4 771 773
624 1 171 172
625 2 171 176
626 3 171 177
627 3 171 178
628 2 172 173
629 3 172 179
630 3 172 180
631 5 174 175
632 4 174 176
633 4 173 174
634 6 1011 1012
635 6 1011 1013
636 6 1011 1014
637 6 1011 1015
638 6 1011 1016
639 6 1010 1011
640 4 770 771
641 2 282 283
642 3 282 289
643 3 282 290
644 2 773 774
645 3 774 778
646 3 774 779
647 3 774 780
648 2 317 318
649 4 314 315
650 2 72 73
651 3 72 79
652 3 72 80
653 2 433 434
654 3 433 439
655 3 433 440
656 3 433 441
657 4 422 423
658 2 337 338
659 3 337 343
660 3 337 344
661 3 337 345
662 4 338 339
663 2 341 342
664 3 834 838
665 3 834 839
666 3 834 840
667 3 714 718
668 3 714 719
669 3 714 720
670 2 745 746
671 3 745 751
672 3 745 752
673 3 745 753
674 5 831 832
675 4 831 833
676 2 569 570
677 4 746 747
678 2 749 750
679 2 421 422
680 3 421 427
681 3 421 428
682 3 421 429
683 4 410 411
684 3 546 550
685 3 546 551
686 3 546 552
687 5 411 412
688 4 411 413
689 6 990 991
690 6 990 992
691 6 990 993
692 6 990 994
693 6 990 995
694 2 829 830
695 3 829 835
696 3 829 836
697 3 829 837
698 4 302 303
699 2 613 614
700 3 613 619
701 3 613 620
702 3 613 621
703 5 315 316
704 4 315 317
705 2 305 306
706 5 543 544
707 4 543 545
708 4 542 543
709 4 830 831
710 2 545 546
711 2 313 314
712 3 313 319
713 3 313 320
714 3 313 321
715 2 833 834
716 3 750 754
717 3 750 755
718 3 750 756
719 3 342 346
720 3 342 347
721 3 342 348
722 5 339 340
723 4 339 341
724 3 306 310
725 3 306 311
726 3 306 312
727 3 570 574
728 3 570 575
729 3 570 576
730 2 301 302
731 3 301 307
732 3 301 308
733 3 301 309
734 5 303 304
735 4 303 305
736 5 747 748
737 4 747 749
738 2 409 410
739 3 409 415
740 3 409 416
741 3 409 417
742 3 462 466
743 3 462 467
744 3 462 468
745 2 461 462
746 5 459 460
747 4 459 461
748 4 458 459
749 2 457 458
750 3 457 463
751 3 457 464
752 3 457 465
753 2 52 53
754 3 52 59
755 3 52 60
756 1 51 52
757 2 51 56
758 3 51 57
759 3 51 58
760 3 558 562
761 3 558 563
762 3 558 564
763 2 557 558
764 4 53 54
765 5 54 55
766 4 54 56
767 5 843 844
768 4 843 845
769 4 554 555
770 5 254 255
771 4 254 256
772 3 762 766
773 3 762 767
774 3 762 768
775 3 1027 1048
776 3 1027 1049
777 3 1027 1050
778 1 251 252
779 2 251 256
780 3 251 257
781 3 251 258
782 4 253 254
783 2 252 253
784 3 252 259
785 3 252 260
786 2 865 866
787 3 865 871
788 3 865 872
789 3 865 873
790 2 685 686
791 3 685 691
792 3 685 692
793 3 685 693
794 3 1032 1057
795 3 1032 1058
796 3 1032 1059
797 5 759 760
798 4 759 761
799 6 997 998
800 6 997 999
801 6 997 1000
802 6 997 1001
803 6 997 1002
804 5 555 556
805 4 555 557
806 2 505 506
807 3 505 511
808 3 505 512
809 3 505 513
810 2 761 762
811 4 223 224
812 5 603 604
813 4 603 605
814 4 602 603
815 4 758 759
816 2 841 842
817 3 841 847
818 3 841 848
819 3 841 849
820 4 686 687
821 5 687 688
822 4 687 689
823 2 605 606
824 4 193 194
825 2 222 223
826 3 222 229
827 3 222 230
828 4 326 327
829 3 1026 1045
830 3 1026 1046
831 3 1026 1047
832 5 567 568
833 4 567 569
834 7 1024 1025
835 7 1024 1026
836 7 1024 1027
837 4 213 214
838 1 291 292
839 2 291 296
840 3 291 297
841 3 291 298
842 2 212 213
843 3 212 219
844 3 212 220
845 4 506 507
846 5 244 245
847 4 244 246
848 5 507 508
849 4 507 509
850 5 84 85
851 4 84 86
852 2 509 510
853 4 293 294
854 3 810 814
855 3 810 815
856 3 810 816
857 3 510 514
858 3 510 515
859 3 510 516
860 2 809 810
861 5 807 808
862 4 807 809
863 2 805 806
864 3 805 811
865 3 805 812
866 3 805 813
867 4 806 807
868 5 294 295
869 4 294 296
870 3 330 334
871 3 330 335
872 3 330 336
873 2 529 530
874 3 529 535
875 3 529 536
876 3 529 537
877 4 183 184
878 5 184 185
879 4 184 186
880 2 329 330
881 5 94 95
882 4 94 96
883 4 83 84
884 1 211 212
885 2 211 216
886 3 211 217
887 3 211 218
888 1 241 242
889 2 241 246
890 3 241 247
891 3 241 248
892 2 601 602
893 3 601 607
894 3 601 608
895 3 601 609
896 5 327 328
897 4 327 329
898 2 292 293
899 3 292 299
900 3 292 300
901 2 553 554
902 3 553 559
903 3 553 560
904 3 553 561
905 2 242 243
906 3 242 249
907 3 242 250
908 1 91 92
909 2 91 96
910 3 91 97
911 3 91 98
912 1 261 262
913 2 261 266
914 3 261 267
915 3 261 268
916 2 653 654
917 2 737 738
918 2 262 263
919 3 262 269
920 3 262 270
921 3 846 850
922 3 846 851
923 3 846 852
924 1 181 182
925 2 181 186
926 3 181 187
927 3 181 188
928 2 182 183
929 3 182 189
930 3 182 190
931 4 93 94
932 2 701 702
933 2 92 93
934 3 92 99
935 3 92 100
936 5 264 265
937 4 264 266
938 2 757 758
939 3 757 763
940 3 757 764
941 3 757 765
942 3 894 898
943 3 894 899
944 3 894 900
945 2 689 690
946 2 845 846
947 3 678 682
948 3 678 683
949 3 678 684
950 5 699 700
951 4 699 701
952 2 565 566
953 3 565 571
954 3 565 572
955 3 565 573
956 2 697 698
957 3 697 703
958 3 697 704
959 3 697 705
960 4 842 843
961 2 889 890
962 3 889 895
963 3 889 896
964 3 889 897
965 2 893 894
966 4 263 264
967 4 890 891
968 3 870 874
969 3 870 875
970 3 870 876
971 3 690 694
972 3 690 695
973 3 690 696
974 4 866 867
975 2 869 870
976 5 891 892
977 4 891 893
978 4 698 699
979 3 654 658
980 3 654 659
981 3 654 660
982 4 566 567
983 5 867 868
984 4 867 869
985 3 318 322
986 3 318 323
987 3 318 324
988 5 214 215
989 4 214 216

Angles

1 1 122 121 126
2 2 122 121 127
3 2 122 121 128
4 2 126 121 127
5 2 126 121 128
6 4 127 121 128
7 1 121 122 123
8 2 121 122 129
9 2 121 122 130
10 2 123 122 129
11 2 123 122 130
12 4 129 122 130
13 7 982 983 984
14 7 982 983 985
15 7 982 983 986
16 7 982 983 987
17 7 982 983 988
18 7 984 983 985
19 7 984 983 986
20 7 984 983 987
21 7 984 983 988
22 7 985 983 986
23 7 985 983 987
24 7 985 983 988
25 7 986 983 987
26 7 986 983 988
27 7 987 983 988
28 1 12 11 16
29 2 12 11 17
30 2 12 11 18
31 2 16 11 17
32 2 16 11 18
33 4 17 11 18
34 1 11 12 13
35 2 11 12 19
36 2 11 12 20
37 2 13 12 19
38 2 13 12 20
39 4 19 12 20
40 2 662 661 667
41 2 662 661 668
42 2 662 661 669
43 4 667 661 668
44 4 667 661 669
45 4 668 661 669
46 5 661 662 663
47 1 11 16 14
48 1 12 13 14
49 2 425 426 430
50 2 425 426 431
51 2 425 426 432
52 4 430 426 431
53 4 430 426 432
54 4 431 426 432
55 5 855 857 858
56 3 13 14 15
57 1 13 14 16
58 3 15 14 16
59 3 662 663 664
60 6 662 663 665
61 3 664 663 665
62 5 663 665 666
63 5 493 494 495
64 2 665 666 670
65 2 665 666 671
66 2 665 666 672
67 4 670 666 671
68 4 670 666 672
69 4 671 666 672
70 2 626 625 631
71 2 626 625 632
72 2 626 625 633
73 4 631 625 632
74 4 631 625 633
75 4 632 625 633
76 3 854 855 856
77 6 854 855 857
78 3 856 855 857
79 2 377 378 382
80 2 377 378 383
81 2 377 378 384
82 4 382 378 383
83 4 382 378 384
84 4 383 378 384
85 5 375 377 378
86 1 201 202 203
87 2 201 202 209
88 2 201 202 210
89 2 203 202 209
90 2 203 202 210
91 4 209 202 210
92 5 625 626 627
93 7 1003 1004 1005
94 7 1003 1004 1006
95 7 1003 1004 1007
96 7 1003 1004 1008
97 7 1003 1004 1009
98 7 1005 1004 1006
99 7 1005 1004 1007
100 7 1005 1004 1008
101 7 1005 1004 1009
102 7 1006 1004 1007
103 7 1006 1004 1008
104 7 1006 1004 1009
105 7 1007 1004 1008
106 7 1007 1004 1009
107 7 1008 1004 1009
108 1 122 123 124
109 2 857 858 862
110 2 857 858 863
111 2 857 858 864
112 4 862 858 863
113 4 862 858 864
114 4 863 858 864
115 5 817 818 819
116 10 1018 1020 1039
117 10 1018 1020 1040
118 10 1018 1020 1041
119 4 1039 1020 1040
120 4 1039 1020 1041
121 4 1040 1020 1041
122 3 374 375 376
123 6 374 375 377
124 3 376 375 377
125 3 818 819 820
126 6 818 819 821
127 3 820 819 821
128 2 437 438 442
129 2 437 438 443
130 2 437 438 444
131 4 442 438 443
132 4 442 438 444
133 4 443 438 444
134 1 131 132 133
135 2 131 132 139
136 2 131 132 140
137 2 133 132 139
138 2 133 132 140
139 4 139 132 140
140 5 495 497 498
141 2 362 361 367
142 2 362 361 368
143 2 362 361 369
144 4 367 361 368
145 4 367 361 369
146 4 368 361 369
147 1 72 71 76
148 2 72 71 77
149 2 72 71 78
150 2 76 71 77
151 2 76 71 78
152 4 77 71 78
153 1 282 283 284
154 5 373 374 375
155 3 494 495 496
156 6 494 495 497
157 3 496 495 497
158 2 494 493 499
159 2 494 493 500
160 2 494 493 501
161 4 499 493 500
162 4 499 493 501
163 4 500 493 501
164 3 710 711 712
165 6 710 711 713
166 3 712 711 713
167 1 232 233 234
168 1 121 126 124
169 1 192 191 196
170 2 192 191 197
171 2 192 191 198
172 2 196 191 197
173 2 196 191 198
174 4 197 191 198
175 3 950 951 952
176 6 950 951 953
177 3 952 951 953
178 3 233 234 235
179 1 233 234 236
180 3 235 234 236
181 3 163 164 165
182 1 163 164 166
183 3 165 164 166
184 1 162 163 164
185 1 161 166 164
186 5 951 953 954
187 1 231 232 233
188 2 231 232 239
189 2 231 232 240
190 2 233 232 239
191 2 233 232 240
192 4 239 232 240
193 1 232 231 236
194 2 232 231 237
195 2 232 231 238
196 2 236 231 237
197 2 236 231 238
198 4 237 231 238
199 1 161 162 163
200 2 161 162 169
201 2 161 162 170
202 2 163 162 169
203 2 163 162 170
204 4 169 162 170
205 1 162 161 166
206 2 162 161 167
207 2 162 161 168
208 2 166 161 167
209 2 166 161 168
210 4 167 161 168
211 3 434 435 436
212 6 434 435 437
213 3 436 435 437
214 1 231 236 234
215 5 435 437 438
216 3 722 723 724
217 6 722 723 725
218 3 724 723 725
219 2 722 721 727
220 2 722 721 728
221 2 722 721 729
222 4 727 721 728
223 4 727 721 729
224 4 728 721 729
225 5 721 722 723
226 5 723 725 726
227 2 581 582 586
228 2 581 582 587
229 2 581 582 588
230 4 586 582 587
231 4 586 582 588
232 4 587 582 588
233 5 709 710 711
234 5 433 434 435
235 2 710 709 715
236 2 710 709 716
237 2 710 709 717
238 4 715 709 716
239 4 715 709 717
240 4 716 709 717
241 2 725 726 730
242 2 725 726 731
243 2 725 726 732
244 4 730 726 731
245 4 730 726 732
246 4 731 726 732
247 7 968 969 970
248 7 968 969 971
249 7 968 969 972
250 7 968 969 973
251 7 968 969 974
252 7 970 969 971
253 7 970 969 972
254 7 970 969 973
255 7 970 969 974
256 7 971 969 972
257 7 971 969 973
258 7 971 969 974
259 7 972 969 973
260 7 972 969 974
261 7 973 969 974
262 3 283 284 285
263 1 283 284 286
264 3 285 284 286
265 1 191 192 193
266 2 191 192 199
267 2 191 192 200
268 2 193 192 199
269 2 193 192 200
270 4 199 192 200
271 1 2 3 4
272 5 711 713 714
273 5 733 734 735
274 3 734 735 736
275 6 734 735 737
276 3 736 735 737
277 2 797 798 802
278 2 797 798 803
279 2 797 798 804
280 4 802 798 803
281 4 802 798 804
282 4 803 798 804
283 5 795 797 798
284 5 949 950 951
285 3 794 795 796
286 6 794 795 797
287 3 796 795 797
288 2 542 541 547
289 2 542 541 548
290 2 542 541 549
291 4 547 541 548
292 4 547 541 549
293 4 548 541 549
294 2 929 930 934
295 2 929 930 935
296 2 929 930 936
297 4 934 930 935
298 4 934 930 936
299 4 935 930 936
300 5 423 425 426
301 2 794 793 799
302 2 794 793 800
303 2 794 793 801
304 4 799 793 800
305 4 799 793 801
306 4 800 793 801
307 3 422 423 424
308 6 422 423 425
309 3 424 423 425
310 1 112 113 114
311 1 111 116 114
312 1 112 111 116
313 2 112 111 117
314 2 112 111 118
315 2 116 111 117
316 2 116 111 118
317 4 117 111 118
318 2 950 949 955
319 2 950 949 956
320 2 950 949 957
321 4 955 949 956
322 4 955 949 957
323 4 956 949 957
324 1 202 203 204
325 5 793 794 795
326 3 203 204 205
327 1 203 204 206
328 3 205 204 206
329 1 1 2 3
330 2 1 2 9
331 2 1 2 10
332 2 3 2 9
333 2 3 2 10
334 4 9 2 10
335 5 937 938 939
336 3 938 939 940
337 6 938 939 941
338 3 940 939 941
339 1 271 276 274
340 1 2 1 6
341 2 2 1 7
342 2 2 1 8
343 2 6 1 7
344 2 6 1 8
345 4 7 1 8
346 1 272 273 274
347 1 141 146 144
348 1 271 272 273
349 2 271 272 279
350 2 271 272 280
351 2 273 272 279
352 2 273 272 280
353 4 279 272 280
354 1 272 271 276
355 2 272 271 277
356 2 272 271 278
357 2 276 271 277
358 2 276 271 278
359 4 277 271 278
360 1 142 141 146
361 2 142 141 147
362 2 142 141 148
363 2 146 141 147
364 2 146 141 148
365 4 147 141 148
366 1 201 206 204
367 3 273 274 275
368 1 273 274 276
369 3 275 274 276
370 3 143 144 145
371 1 143 144 146
372 3 145 144 146
373 1 1 6 4
374 3 113 114 115
375 1 113 114 116
376 3 115 114 116
377 3 3 4 5
378 1 3 4 6
379 3 5 4 6
380 2 938 937 943
381 2 938 937 944
382 2 938 937 945
383 4 943 937 944
384 4 943 937 945
385 4 944 937 945
386 2 734 733 739
387 2 734 733 740
388 2 734 733 741
389 4 739 733 740
390 4 739 733 741
391 4 740 733 741
392 1 202 201 206
393 2 202 201 207
394 2 202 201 208
395 2 206 201 207
396 2 206 201 208
397 4 207 201 208
398 1 111 112 113
399 2 111 112 119
400 2 111 112 120
401 2 113 112 119
402 2 113 112 120
403 4 119 112 120
404 1 141 142 143
405 2 141 142 149
406 2 141 142 150
407 2 143 142 149
408 2 143 142 150
409 4 149 142 150
410 2 638 637 643
411 2 638 637 644
412 2 638 637 645
413 4 643 637 644
414 4 643 637 645
415 4 644 637 645
416 1 142 143 144
417 2 818 817 823
418 2 818 817 824
419 2 818 817 825
420 4 823 817 824
421 4 823 817 825
422 4 824 817 825
423 3 614 615 616
424 6 614 615 617
425 3 616 615 617
426 2 953 954 958
427 2 953 954 959
428 2 953 954 960
429 4 958 954 959
430 4 958 954 960
431 4 959 954 960
432 8 1017 1018 1019
433 8 1017 1018 1020
434 9 1017 1018 1021
435 8 1019 1018 1020
436 9 1019 1018 1021
437 9 1020 1018 1021
438 5 349 350 351
439 2 350 349 355
440 2 350 349 356
441 2 350 349 357
442 4 355 349 356
443 4 355 349 357
444 4 356 349 357
445 3 350 351 352
446 6 350 351 353
447 3 352 351 353
448 5 351 353 354
449 2 821 822 826
450 2 821 822 827
451 2 821 822 828
452 4 826 822 827
453 4 826 822 828
454 4 827 822 828
455 2 353 354 358
456 2 353 354 359
457 2 353 354 360
458 4 358 354 359
459 4 358 354 360
460 4 359 354 360
461 11 1018 1021 1022
462 10 1029 1031 1054
463 10 1029 1031 1055
464 10 1029 1031 1056
465 4 1054 1031 1055
466 4 1054 1031 1056
467 4 1055 1031 1056
468 10 1018 1019 1036
469 10 1018 1019 1037
470 10 1018 1019 1038
471 4 1036 1019 1037
472 4 1036 1019 1038
473 4 1037 1019 1038
474 9 1028 1029 1030
475 9 1028 1029 1031
476 9 1028 1029 1032
477 8 1030 1029 1031
478 8 1030 1029 1032
479 8 1031 1029 1032
480 2 386 385 391
481 2 386 385 392
482 2 386 385 393
483 4 391 385 392
484 4 391 385 393
485 4 392 385 393
486 1 132 131 136
487 2 132 131 137
488 2 132 131 138
489 2 136 131 137
490 2 136 131 138
491 4 137 131 138
492 7 1021 1022 1023
493 7 1021 1022 1028
494 7 1023 1022 1028
495 1 21 26 24
496 3 914 915 916
497 6 914 915 917
498 3 916 915 917
499 5 819 821 822
500 5 915 917 918
501 2 917 918 922
502 2 917 918 923
503 2 917 918 924
504 4 922 918 923
505 4 922 918 924
506 4 923 918 924
507 10 1018 1017 1033
508 10 1018 1017 1034
509 10 1018 1017 1035
510 4 1033 1017 1034
511 4 1033 1017 1035
512 4 1034 1017 1035
513 5 385 386 387
514 1 82 81 86
515 2 82 81 87
516 2 82 81 88
517 2 86 81 87
518 2 86 81 88
519 4 87 81 88
520 5 913 914 915
521 1 22 21 26
522 2 22 21 27
523 2 22 21 28
524 2 26 21 27
525 2 26 21 28
526 4 27 21 28
527 2 941 942 946
528 2 941 942 947
529 2 941 942 948
530 4 946 942 947
531 4 946 942 948
532 4 947 942 948
533 2 485 486 490
534 2 485 486 491
535 2 485 486 492
536 4 490 486 491
537 4 490 486 492
538 4 491 486 492
539 5 483 485 486
540 3 482 483 484
541 6 482 483 485
542 3 484 483 485
543 2 914 913 919
544 2 914 913 920
545 2 914 913 921
546 4 919 913 920
547 4 919 913 921
548 4 920 913 921
549 2 365 366 370
550 2 365 366 371
551 2 365 366 372
552 4 370 366 371
553 4 370 366 372
554 4 371 366 372
555 1 21 22 23
556 2 21 22 29
557 2 21 22 30
558 2 23 22 29
559 2 23 22 30
560 4 29 22 30
561 1 22 23 24
562 5 481 482 483
563 3 123 124 125
564 1 123 124 126
565 3 125 124 126
566 3 23 24 25
567 1 23 24 26
568 3 25 24 26
569 2 617 618 622
570 2 617 618 623
571 2 617 618 624
572 4 622 618 623
573 4 622 618 624
574 4 623 618 624
575 5 939 941 942
576 10 1029 1030 1051
577 10 1029 1030 1052
578 10 1029 1030 1053
579 4 1051 1030 1052
580 4 1051 1030 1053
581 4 1052 1030 1053
582 5 361 362 363
583 2 578 577 583
584 2 578 577 584
585 2 578 577 585
586 4 583 577 584
587 4 583 577 585
588 4 584 577 585
589 3 578 579 580
590 6 578 579 581
591 3 580 579 581
592 5 577 578 579
593 3 43 44 45
594 1 43 44 46
595 3 45 44 46
596 3 530 531 532
597 6 530 531 533
598 3 532 531 533
599 1 41 42 43
600 2 41 42 49
601 2 41 42 50
602 2 43 42 49
603 2 43 42 50
604 4 49 42 50
605 5 363 365 366
606 3 386 387 388
607 6 386 387 389
608 3 388 387 389
609 5 579 581 582
610 5 387 389 390
611 2 533 534 538
612 2 533 534 539
613 2 533 534 540
614 4 538 534 539
615 4 538 534 540
616 4 539 534 540
617 2 389 390 394
618 2 389 390 395
619 2 389 390 396
620 4 394 390 395
621 4 394 390 396
622 4 395 390 396
623 1 42 43 44
624 5 447 449 450
625 5 445 446 447
626 2 449 450 454
627 2 449 450 455
628 2 449 450 456
629 4 454 450 455
630 4 454 450 456
631 4 455 450 456
632 3 193 194 195
633 1 193 194 196
634 3 195 194 196
635 1 191 196 194
636 3 446 447 448
637 6 446 447 449
638 3 448 447 449
639 3 674 675 676
640 6 674 675 677
641 3 676 675 677
642 5 399 401 402
643 5 397 398 399
644 3 398 399 400
645 6 398 399 401
646 3 400 399 401
647 2 398 397 403
648 2 398 397 404
649 2 398 397 405
650 4 403 397 404
651 4 403 397 405
652 4 404 397 405
653 5 673 674 675
654 2 674 673 679
655 2 674 673 680
656 2 674 673 681
657 4 679 673 680
658 4 679 673 681
659 4 680 673 681
660 5 531 533 534
661 2 446 445 451
662 2 446 445 452
663 2 446 445 453
664 4 451 445 452
665 4 451 445 453
666 4 452 445 453
667 1 62 61 66
668 2 62 61 67
669 2 62 61 68
670 2 66 61 67
671 2 66 61 68
672 4 67 61 68
673 1 61 62 63
674 2 61 62 69
675 2 61 62 70
676 2 63 62 69
677 2 63 62 70
678 4 69 62 70
679 2 785 786 790
680 2 785 786 791
681 2 785 786 792
682 4 790 786 791
683 4 790 786 792
684 4 791 786 792
685 5 783 785 786
686 1 41 46 44
687 3 63 64 65
688 1 63 64 66
689 3 65 64 66
690 1 62 63 64
691 1 42 41 46
692 2 42 41 47
693 2 42 41 48
694 2 46 41 47
695 2 46 41 48
696 4 47 41 48
697 5 675 677 678
698 2 497 498 502
699 2 497 498 503
700 2 497 498 504
701 4 502 498 503
702 4 502 498 504
703 4 503 498 504
704 2 401 402 406
705 2 401 402 407
706 2 401 402 408
707 4 406 402 407
708 4 406 402 408
709 4 407 402 408
710 1 61 66 64
711 5 591 593 594
712 5 469 470 471
713 2 701 702 706
714 2 701 702 707
715 2 701 702 708
716 4 706 702 707
717 4 706 702 708
718 4 707 702 708
719 7 975 976 977
720 7 975 976 978
721 7 975 976 979
722 7 975 976 980
723 7 975 976 981
724 7 977 976 978
725 7 977 976 979
726 7 977 976 980
727 7 977 976 981
728 7 978 976 979
729 7 978 976 980
730 7 978 976 981
731 7 979 976 980
732 7 979 976 981
733 7 980 976 981
734 2 473 474 478
735 2 473 474 479
736 2 473 474 480
737 4 478 474 479
738 4 478 474 480
739 4 479 474 480
740 5 471 473 474
741 2 482 481 487
742 2 482 481 488
743 2 482 481 489
744 4 487 481 488
745 4 487 481 489
746 4 488 481 489
747 5 925 926 927
748 2 782 781 787
749 2 782 781 788
750 2 782 781 789
751 4 787 781 788
752 4 787 781 789
753 4 788 781 789
754 3 638 639 640
755 6 638 639 641
756 3 640 639 641
757 3 470 471 472
758 6 470 471 473
759 3 472 471 473
760 5 927 929 930
761 5 649 650 651
762 2 650 649 655
763 2 650 649 656
764 2 650 649 657
765 4 655 649 656
766 4 655 649 657
767 4 656 649 657
768 2 641 642 646
769 2 641 642 647
770 2 641 642 648
771 4 646 642 647
772 4 646 642 648
773 4 647 642 648
774 3 782 783 784
775 6 782 783 785
776 3 784 783 785
777 5 781 782 783
778 2 518 517 523
779 2 518 517 524
780 2 518 517 525
781 4 523 517 524
782 4 523 517 525
783 4 524 517 525
784 2 521 522 526
785 2 521 522 527
786 2 521 522 528
787 4 526 522 527
788 4 526 522 528
789 4 527 522 528
790 3 926 927 928
791 6 926 927 929
792 3 928 927 929
793 5 589 590 591
794 5 517 518 519
795 2 590 589 595
796 2 590 589 596
797 2 590 589 597
798 4 595 589 596
799 4 595 589 597
800 4 596 589 597
801 2 470 469 475
802 2 470 469 476
803 2 470 469 477
804 4 475 469 476
805 4 475 469 477
806 4 476 469 477
807 3 650 651 652
808 6 650 651 653
809 3 652 651 653
810 3 590 591 592
811 6 590 591 593
812 3 592 591 593
813 3 518 519 520
814 6 518 519 521
815 3 520 519 521
816 5 519 521 522
817 2 926 925 931
818 2 926 925 932
819 2 926 925 933
820 4 931 925 932
821 4 931 925 933
822 4 932 925 933
823 5 639 641 642
824 2 593 594 598
825 2 593 594 599
826 2 593 594 600
827 4 598 594 599
828 4 598 594 600
829 4 599 594 600
830 5 637 638 639
831 11 1022 1028 1029
832 1 81 82 83
833 2 81 82 89
834 2 81 82 90
835 2 83 82 89
836 2 83 82 90
837 4 89 82 90
838 5 529 530 531
839 5 615 617 618
840 3 362 363 364
841 6 362 363 365
842 3 364 363 365
843 11 1022 1023 1024
844 3 153 154 155
845 1 153 154 156
846 3 155 154 156
847 1 152 153 154
848 1 151 152 153
849 2 151 152 159
850 2 151 152 160
851 2 153 152 159
852 2 153 152 160
853 4 159 152 160
854 1 152 151 156
855 2 152 151 157
856 2 152 151 158
857 2 156 151 157
858 2 156 151 158
859 4 157 151 158
860 5 627 629 630
861 3 103 104 105
862 1 103 104 106
863 3 105 104 106
864 1 151 156 154
865 2 629 630 634
866 2 629 630 635
867 2 629 630 636
868 4 634 630 635
869 4 634 630 636
870 4 635 630 636
871 1 31 36 34
872 1 32 31 36
873 2 32 31 37
874 2 32 31 38
875 2 36 31 37
876 2 36 31 38
877 4 37 31 38
878 1 102 103 104
879 3 33 34 35
880 1 33 34 36
881 3 35 34 36
882 1 101 102 103
883 2 101 102 109
884 2 101 102 110
885 2 103 102 109
886 2 103 102 110
887 4 109 102 110
888 5 877 878 879
889 1 32 33 34
890 1 31 32 33
891 2 31 32 39
892 2 31 32 40
893 2 33 32 39
894 2 33 32 40
895 4 39 32 40
896 2 905 906 910
897 2 905 906 911
898 2 905 906 912
899 4 910 906 911
900 4 910 906 912
901 4 911 906 912
902 5 903 905 906
903 5 879 881 882
904 2 605 606 610
905 2 605 606 611
906 2 605 606 612
907 4 610 606 611
908 4 610 606 612
909 4 611 606 612
910 1 102 101 106
911 2 102 101 107
912 2 102 101 108
913 2 106 101 107
914 2 106 101 108
915 4 107 101 108
916 1 221 226 224
917 2 881 882 886
918 2 881 882 887
919 2 881 882 888
920 4 886 882 887
921 4 886 882 888
922 4 887 882 888
923 3 878 879 880
924 6 878 879 881
925 3 880 879 881
926 1 222 221 226
927 2 222 221 227
928 2 222 221 228
929 2 226 221 227
930 2 226 221 228
931 4 227 221 228
932 2 854 853 859
933 2 854 853 860
934 2 854 853 861
935 4 859 853 860
936 4 859 853 861
937 4 860 853 861
938 2 878 877 883
939 2 878 877 884
940 2 878 877 885
941 4 883 877 884
942 4 883 877 885
943 4 884 877 885
944 2 413 414 418
945 2 413 414 419
946 2 413 414 420
947 4 418 414 419
948 4 418 414 420
949 4 419 414 420
950 3 626 627 628
951 6 626 627 629
952 3 628 627 629
953 3 223 224 225
954 1 223 224 226
955 3 225 224 226
956 3 133 134 135
957 1 133 134 136
958 3 135 134 136
959 5 613 614 615
960 10 1024 1025 1042
961 10 1024 1025 1043
962 10 1024 1025 1044
963 4 1042 1025 1043
964 4 1042 1025 1044
965 4 1043 1025 1044
966 1 101 106 104
967 1 132 133 134
968 5 411 413 414
969 5 853 854 855
970 1 242 243 244
971 3 902 903 904
972 6 902 903 905
973 3 904 903 905
974 2 737 738 742
975 2 737 738 743
976 2 737 738 744
977 4 742 738 743
978 4 742 738 744
979 4 743 738 744
980 5 901 902 903
981 3 73 74 75
982 1 73 74 76
983 3 75 74 76
984 1 72 73 74
985 1 281 286 284
986 2 326 325 331
987 2 326 325 332
988 2 326 325 333
989 4 331 325 332
990 4 331 325 333
991 4 332 325 333
992 2 374 373 379
993 2 374 373 380
994 2 374 373 381
995 4 379 373 380
996 4 379 373 381
997 4 380 373 381
998 2 902 901 907
999 2 902 901 908
1000 2 902 901 909
1001 4 907 901 908
1002 4 907 901 909
1003 4 908 901 909
1004 1 282 281 286
1005 2 282 281 287
1006 2 282 281 288
1007 2 286 281 287
1008 2 286 281 288
1009 4 287 281 288
1010 2 770 769 775
1011 2 770 769 776
1012 2 770 769 777
1013 4 775 769 776
1014 4 775 769 777
1015 4 776 769 777
1016 3 770 771 772
1017 6 770 771 773
1018 3 772 771 773
1019 1 171 176 174
1020 1 172 171 176
1021 2 172 171 177
1022 2 172 171 178
1023 2 176 171 177
1024 2 176 171 178
1025 4 177 171 178
1026 1 171 172 173
1027 2 171 172 179
1028 2 171 172 180
1029 2 173 172 179
1030 2 173 172 180
1031 4 179 172 180
1032 3 173 174 175
1033 1 173 174 176
1034 3 175 174 176
1035 1 172 173 174
1036 7 1010 1011 1012
1037 7 1010 1011 1013
1038 7 1010 1011 1014
1039 7 1010 1011 1015
1040 7 1010 1011 1016
1041 7 1012 1011 1013
1042 7 1012 1011 1014
1043 7 1012 1011 1015
1044 7 1012 1011 1016
1045 7 1013 1011 1014
1046 7 1013 1011 1015
1047 7 1013 1011 1016
1048 7 1014 1011 1015
1049 7 1014 1011 1016
1050 7 1015 1011 1016
1051 5 769 770 771
1052 1 281 282 283
1053 2 281 282 289
1054 2 281 282 290
1055 2 283 282 289
1056 2 283 282 290
1057 4 289 282 290
1058 5 771 773 774
1059 2 773 774 778
1060 2 773 774 779
1061 2 773 774 780
1062 4 778 774 779
1063 4 778 774 780
1064 4 779 774 780
1065 5 315 317 318
1066 5 313 314 315
1067 1 71 72 73
1068 2 71 72 79
1069 2 71 72 80
1070 2 73 72 79
1071 2 73 72 80
1072 4 79 72 80
1073 1 71 76 74
1074 2 434 433 439
1075 2 434 433 440
1076 2 434 433 441
1077 4 439 433 440
1078 4 439 433 441
1079 4 440 433 441
1080 1 211 216 214
1081 5 421 422 423
1082 2 338 337 343
1083 2 338 337 344
1084 2 338 337 345
1085 4 343 337 344
1086 4 343 337 345
1087 4 344 337 345
1088 5 337 338 339
1089 5 339 341 342
1090 2 833 834 838
1091 2 833 834 839
1092 2 833 834 840
1093 4 838 834 839
1094 4 838 834 840
1095 4 839 834 840
1096 2 713 714 718
1097 2 713 714 719
1098 2 713 714 720
1099 4 718 714 719
1100 4 718 714 720
1101 4 719 714 720
1102 2 746 745 751
1103 2 746 745 752
1104 2 746 745 753
1105 4 751 745 752
1106 4 751 745 753
1107 4 752 745 753
1108 3 830 831 832
1109 6 830 831 833
1110 3 832 831 833
1111 5 567 569 570
1112 5 745 746 747
1113 5 747 749 750
1114 2 422 421 427
1115 2 422 421 428
1116 2 422 421 429
1117 4 427 421 428
1118 4 427 421 429
1119 4 428 421 429
1120 5 409 410 411
1121 2 545 546 550
1122 2 545 546 551
1123 2 545 546 552
1124 4 550 546 551
1125 4 550 546 552
1126 4 551 546 552
1127 3 410 411 412
1128 6 410 411 413
1129 3 412 411 413
1130 7 989 990 991
1131 7 989 990 992
1132 7 989 990 993
1133 7 989 990 994
1134 7 989 990 995
1135 7 991 990 992
1136 7 991 990 993
1137 7 991 990 994
1138 7 991 990 995
1139 7 992 990 993
1140 7 992 990 994
1141 7 992 990 995
1142 7 993 990 994
1143 7 993 990 995
1144 7 994 990 995
1145 2 830 829 835
1146 2 830 829 836
1147 2 830 829 837
1148 4 835 829 836
1149 4 835 829 837
1150 4 836 829 837
1151 5 301 302 303
1152 2 614 613 619
1153 2 614 613 620
1154 2 614 613 621
1155 4 619 613 620
1156 4 619 613 621
1157 4 620 613 621
1158 3 314 315 316
1159 6 314 315 317
1160 3 316 315 317
1161 5 303 305 306
1162 3 542 543 544
1163 6 542 543 545
1164 3 544 543 545
1165 5 541 542 543
1166 5 829 830 831
1167 5 543 545 546
1168 2 314 313 319
1169 2 314 313 320
1170 2 314 313 321
1171 4 319 313 320
1172 4 319 313 321
1173 4 320 313 321
1174 5 831 833 834
1175 2 749 750 754
1176 2 749 750 755
1177 2 749 750 756
1178 4 754 750 755
1179 4 754 750 756
1180 4 755 750 756
1181 2 341 342 346
1182 2 341 342 347
1183 2 341 342 348
1184 4 346 342 347
1185 4 346 342 348
1186 4 347 342 348
1187 3 338 339 340
1188 6 338 339 341
1189 3 340 339 341
1190 2 305 306 310
1191 2 305 306 311
1192 2 305 306 312
1193 4 310 306 311
1194 4 310 306 312
1195 4 311 306 312
1196 2 569 570 574
1197 2 569 570 575
1198 2 569 570 576
1199 4 574 570 575
1200 4 574 570 576
1201 4 575 570 576
1202 2 302 301 307
1203 2 302 301 308
1204 2 302 301 309
1205 4 307 301 308
1206 4 307 301 309
1207 4 308 301 309
1208 3 302 303 304
1209 6 302 303 305
1210 3 304 303 305
1211 3 746 747 748
1212 6 746 747 749
1213 3 748 747 749
1214 2 410 409 415
1215 2 410 409 416
1216 2 410 409 417
1217 4 415 409 416
1218 4 415 409 417
1219 4 416 409 417
1220 2 461 462 466
1221 2 461 462 467
1222 2 461 462 468
1223 4 466 462 467
1224 4 466 462 468
1225 4 467 462 468
1226 5 459 461 462
1227 3 458 459 460
1228 6 458 459 461
1229 3 460 459 461
1230 5 457 458 459
1231 2 458 457 463
1232 2 458 457 464
1233 2 458 457 465
1234 4 463 457 464
1235 4 463 457 465
1236 4 464 457 465
1237 1 51 52 53
1238 2 51 52 59
1239 2 51 52 60
1240 2 53 52 59
1241 2 53 52 60
1242 4 59 52 60
1243 1 52 51 56
1244 2 52 51 57
1245 2 52 51 58
1246 2 56 51 57
1247 2 56 51 58
1248 4 57 51 58
1249 2 557 558 562
1250 2 557 558 563
1251 2 557 558 564
1252 4 562 558 563
1253 4 562 558 564
1254 4 563 558 564
1255 5 555 557 558
1256 1 52 53 54
1257 3 53 54 55
1258 1 53 54 56
1259 3 55 54 56
1260 1 51 56 54
1261 1 251 256 254
1262 3 842 843 844
1263 6 842 843 845
1264 3 844 843 845
1265 5 553 554 555
1266 3 253 254 255
1267 1 253 254 256
1268 3 255 254 256
1269 2 761 762 766
1270 2 761 762 767
1271 2 761 762 768
1272 4 766 762 767
1273 4 766 762 768
1274 4 767 762 768
1275 10 1024 1027 1048
1276 10 1024 1027 1049
1277 10 1024 1027 1050
1278 4 1048 1027 1049
1279 4 1048 1027 1050
1280 4 1049 1027 1050
1281 1 252 251 256
1282 2 252 251 257
1283 2 252 251 258
1284 2 256 251 257
1285 2 256 251 258
1286 4 257 251 258
1287 1 252 253 254
1288 1 251 252 253
1289 2 251 252 259
1290 2 251 252 260
1291 2 253 252 259
1292 2 253 252 260
1293 4 259 252 260
1294 2 866 865 871
1295 2 866 865 872
1296 2 866 865 873
1297 4 871 865 872
1298 4 871 865 873
1299 4 872 865 873
1300 2 686 685 691
1301 2 686 685 692
1302 2 686 685 693
1303 4 691 685 692
1304 4 691 685 693
1305 4 692 685 693
1306 10 1029 1032 1057
1307 10 1029 1032 1058
1308 10 1029 1032 1059
1309 4 1057 1032 1058
1310 4 1057 1032 1059
1311 4 1058 1032 1059
1312 3 758 759 760
1313 6 758 759 761
1314 3 760 759 761
1315 7 996 997 998
1316 7 996 997 999
1317 7 996 997 1000
1318 7 996 997 1001
1319 7 996 997 1002
1320 7 998 997 999
1321 7 998 997 1000
1322 7 998 997 1001
1323 7 998 997 1002
1324 7 999 997 1000
1325 7 999 997 1001
1326 7 999 997 1002
1327 7 1000 997 1001
1328 7 1000 997 1002
1329 7 1001 997 1002
1330 3 554 555 556
1331 6 554 555 557
1332 3 556 555 557
1333 2 506 505 511
1334 2 506 505 512
1335 2 506 505 513
1336 4 511 505 512
1337 4 511 505 513
1338 4 512 505 513
1339 5 759 761 762
1340 1 222 223 224
1341 3 602 603 604
1342 6 602 603 605
1343 3 604 603 605
1344 1 131 136 134
1345 5 601 602 603
1346 5 757 758 759
1347 2 842 841 847
1348 2 842 841 848
1349 2 842 841 849
1350 4 847 841 848
1351 4 847 841 849
1352 4 848 841 849
1353 5 685 686 687
1354 3 686 687 688
1355 6 686 687 689
1356 3 688 687 689
1357 5 603 605 606
1358 1 192 193 194
1359 1 221 222 223
1360 2 221 222 229
1361 2 221 222 230
1362 2 223 222 229
1363 2 223 222 230
1364 4 229 222 230
1365 5 325 326 327
1366 10 1024 1026 1045
1367 10 1024 1026 1046
1368 10 1024 1026 1047
1369 4 1045 1026 1046
1370 4 1045 1026 1047
1371 4 1046 1026 1047
1372 3 566 567 568
1373 6 566 567 569
1374 3 568 567 569
1375 9 1023 1024 1025
1376 9 1023 1024 1026
1377 9 1023 1024 1027
1378 8 1025 1024 1026
1379 8 1025 1024 1027
1380 8 1026 1024 1027
1381 1 212 213 214
1382 1 292 291 296
1383 2 292 291 297
1384 2 292 291 298
1385 2 296 291 297
1386 2 296 291 298
1387 4 297 291 298
1388 1 211 212 213
1389 2 211 212 219
1390 2 211 212 220
1391 2 213 212 219
1392 2 213 212 220
1393 4 219 212 220
1394 5 505 506 507
1395 3 243 244 245
1396 1 243 244 246
1397 3 245 244 246
1398 3 506 507 508
1399 6 506 507 509
1400 3 508 507 509
1401 3 83 84 85
1402 1 83 84 86
1403 3 85 84 86
1404 5 507 509 510
1405 1 292 293 294
1406 1 291 296 294
1407 2 809 810 814
1408 2 809 810 815
1409 2 809 810 816
1410 4 814 810 815
1411 4 814 810 816
1412 4 815 810 816
1413 2 509 510 514
1414 2 509 510 515
1415 2 509 510 516
1416 4 514 510 515
1417 4 514 510 516
1418 4 515 510 516
1419 5 807 809 810
1420 3 806 807 808
1421 6 806 807 809
1422 3 808 807 809
1423 2 806 805 811
1424 2 806 805 812
1425 2 806 805 813
1426 4 811 805 812
1427 4 811 805 813
1428 4 812 805 813
1429 5 805 806 807
1430 3 293 294 295
1431 1 293 294 296
1432 3 295 294 296
1433 2 329 330 334
1434 2 329 330 335
1435 2 329 330 336
1436 4 334 330 335
1437 4 334 330 336
1438 4 335 330 336
1439 2 530 529 535
1440 2 530 529 536
1441 2 530 529 537
1442 4 535 529 536
1443 4 535 529 537
1444 4 536 529 537
1445 1 182 183 184
1446 3 183 184 185
1447 1 183 184 186
1448 3 185 184 186
1449 5 327 329 330
1450 1 181 186 184
1451 3 93 94 95
1452 1 93 94 96
1453 3 95 94 96
1454 1 82 83 84
1455 1 212 211 216
1456 2 212 211 217
1457 2 212 211 218
1458 2 216 211 217
1459 2 216 211 218
1460 4 217 211 218
1461 1 241 246 244
1462 1 81 86 84
1463 1 242 241 246
1464 2 242 241 247
1465 2 242 241 248
1466 2 246 241 247
1467 2 246 241 248
1468 4 247 241 248
1469 2 602 601 607
1470 2 602 601 608
1471 2 602 601 609
1472 4 607 601 608
1473 4 607 601 609
1474 4 608 601 609
1475 3 326 327 328
1476 6 326 327 329
1477 3 328 327 329
1478 1 291 292 293
1479 2 291 292 299
1480 2 291 292 300
1481 2 293 292 299
1482 2 293 292 300
1483 4 299 292 300
1484 1 91 96 94
1485 2 554 553 559
1486 2 554 553 560
1487 2 554 553 561
1488 4 559 553 560
1489 4 559 553 561
1490 4 560 553 561
1491 1 241 242 243
1492 2 241 242 249
1493 2 241 242 250
1494 2 243 242 249
1495 2 243 242 250
1496 4 249 242 250
1497 1 92 91 96
1498 2 92 91 97
1499 2 92 91 98
1500 2 96 91 97
1501 2 96 91 98
1502 4 97 91 98
1503 1 262 261 266
1504 2 262 261 267
1505 2 262 261 268
1506 2 266 261 267
1507 2 266 261 268
1508 4 267 261 268
1509 5 651 653 654
1510 5 735 737 738
1511 1 261 262 263
1512 2 261 262 269
1513 2 261 262 270
1514 2 263 262 269
1515 2 263 262 270
1516 4 269 262 270
1517 2 845 846 850
1518 2 845 846 851
1519 2 845 846 852
1520 4 850 846 851
1521 4 850 846 852
1522 4 851 846 852
1523 1 182 181 186
1524 2 182 181 187
1525 2 182 181 188
1526 2 186 181 187
1527 2 186 181 188
1528 4 187 181 188
1529 1 181 182 183
1530 2 181 182 189
1531 2 181 182 190
1532 2 183 182 189
1533 2 183 182 190
1534 4 189 182 190
1535 1 92 93 94
1536 5 699 701 702
1537 1 91 92 93
1538 2 91 92 99
1539 2 91 92 100
1540 2 93 92 99
1541 2 93 92 100
1542 4 99 92 100
1543 3 263 264 265
1544 1 263 264 266
1545 3 265 264 266
1546 2 758 757 763
1547 2 758 757 764
1548 2 758 757 765
1549 4 763 757 764
1550 4 763 757 765
1551 4 764 757 765
1552 2 893 894 898
1553 2 893 894 899
1554 2 893 894 900
1555 4 898 894 899
1556 4 898 894 900
1557 4 899 894 900
1558 5 687 689 690
1559 5 843 845 846
1560 1 261 266 264
1561 2 677 678 682
1562 2 677 678 683
1563 2 677 678 684
1564 4 682 678 683
1565 4 682 678 684
1566 4 683 678 684
1567 3 698 699 700
1568 6 698 699 701
1569 3 700 699 701
1570 2 566 565 571
1571 2 566 565 572
1572 2 566 565 573
1573 4 571 565 572
1574 4 571 565 573
1575 4 572 565 573
1576 2 698 697 703
1577 2 698 697 704
1578 2 698 697 705
1579 4 703 697 704
1580 4 703 697 705
1581 4 704 697 705
1582 5 841 842 843
1583 2 890 889 895
1584 2 890 889 896
1585 2 890 889 897
1586 4 895 889 896
1587 4 895 889 897
1588 4 896 889 897
1589 5 891 893 894
1590 1 262 263 264
1591 5 889 890 891
1592 2 869 870 874
1593 2 869 870 875
1594 2 869 870 876
1595 4 874 870 875
1596 4 874 870 876
1597 4 875 870 876
1598 2 689 690 694
1599 2 689 690 695
1600 2 689 690 696
1601 4 694 690 695
1602 4 694 690 696
1603 4 695 690 696
1604 5 865 866 867
1605 5 867 869 870
1606 3 890 891 892
1607 6 890 891 893
1608 3 892 891 893
1609 5 697 698 699
1610 2 653 654 658
1611 2 653 654 659
1612 2 653 654 660
1613 4 658 654 659
1614 4 658 654 660
1615 4 659 654 660
1616 5 565 566 567
1617 3 866 867 868
1618 6 866 867 869
1619 3 868 867 869
1620 2 317 318 322
1621 2 317 318 323
1622 2 317 318 324
1623 4 322 318 323
1624 4 322 318 324
1625 4 323 318 324
1626 3 213 214 215
1627 1 213 214 216
1628 3 215 214 216

Dihedrals

1 1 122 121 126 124
2 2 122 121 126 124
3 6 126 121 122 129
4 7 126 121 122 129
5 6 126 121 122 130
6 7 126 121 122 130
7 9 127 121 122 129
8 9 127 121 122 130
9 9 128 121 122 129
10 9 128 121 122 130
11 1 121 122 123 124
12 2 121 122 123 124
13 4 123 122 121 126
14 5 123 122 121 126
15 6 123 122 121 127
16 7 123 122 121 127
17 6 123 122 121 128
18 7 123 122 121 128
19 1 12 11 16 14
20 2 12 11 16 14
21 6 16 11 12 19
22 7 16 11 12 19
23 6 16 11 12 20
24 7 16 11 12 20
25 9 17 11 12 19
26 9 17 11 12 20
27 9 18 11 12 19
28 9 18 11 12 20
29 1 11 12 13 14
30 2 11 12 13 14
31 4 13 12 11 16
32 5 13 12 11 16
33 6 13 12 11 17
34 7 13 12 11 17
35 6 13 12 11 18
36 7 13 12 11 18
37 10 661 662 663 664
38 11 661 662 663 664
39 12 661 662 663 665
40 8 663 662 661 667
41 8 663 662 661 668
42 8 663 662 661 669
43 3 11 16 14 13
44 3 11 16 14 15
45 8 14 16 11 17
46 8 14 16 11 18
47 3 12 13 14 15
48 3 12 13 14 16
49 8 14 13 12 19
50 8 14 13 12 20
51 8 855 857 858 862
52 8 855 857 858 863
53 8 855 857 858 864
54 12 662 663 665 666
55 10 664 663 665 666
56 11 664 663 665 666
57 8 663 665 666 670
58 8 663 665 666 671
59 8 663 665 666 672
60 10 493 494 495 496
61 11 493 494 495 496
62 12 493 494 495 497
63 8 495 494 493 499
64 8 495 494 493 500
65 8 495 494 493 501
66 12 854 855 857 858
67 10 856 855 857 858
68 11 856 855 857 858
69 8 375 377 378 382
70 8 375 377 378 383
71 8 375 377 378 384
72 1 201 202 203 204
73 2 201 202 203 204
74 4 203 202 201 206
75 5 203 202 201 206
76 6 203 202 201 207
77 7 203 202 201 207
78 6 203 202 201 208
79 7 203 202 201 208
80 10 625 626 627 628
81 11 625 626 627 628
82 12 625 626 627 629
83 8 627 626 625 631
84 8 627 626 625 632
85 8 627 626 625 633
86 3 122 123 124 125
87 3 122 123 124 126
88 8 124 123 122 129
89 8 124 123 122 130
90 10 817 818 819 820
91 11 817 818 819 820
92 12 817 818 819 821
93 8 819 818 817 823
94 8 819 818 817 824
95 8 819 818 817 825
96 12 374 375 377 378
97 10 376 375 377 378
98 11 376 375 377 378
99 12 818 819 821 822
100 10 820 819 821 822
101 11 820 819 821 822
102 1 131 132 133 134
103 2 131 132 133 134
104 4 133 132 131 136
105 5 133 132 131 136
106 6 133 132 131 137
107 7 133 132 131 137
108 6 133 132 131 138
109 7 133 132 131 138
110 8 495 497 498 502
111 8 495 497 498 503
112 8 495 497 498 504
113 1 72 71 76 74
114 2 72 71 76 74
115 6 76 71 72 79
116 7 76 71 72 79
117 6 76 71 72 80
118 7 76 71 72 80
119 9 77 71 72 79
120 9 77 71 72 80
121 9 78 71 72 79
122 9 78 71 72 80
123 3 282 283 284 285
124 3 282 283 284 286
125 8 284 283 282 289
126 8 284 283 282 290
127 10 373 374 375 376
128 11 373 374 375 376
129 12 373 374 375 377
130 8 375 374 373 379
131 8 375 374 373 380
132 8 375 374 373 381
133 12 494 495 497 498
134 10 496 495 497 498
135 11 496 495 497 498
136 12 710 711 713 714
137 10 712 711 713 714
138 11 712 711 713 714
139 3 232 233 234 235
140 3 232 233 234 236
141 8 234 233 232 239
142 8 234 233 232 240
143 3 121 126 124 123
144 3 121 126 124 125
145 8 124 126 121 127
146 8 124 126 121 128
147 1 192 191 196 194
148 2 192 191 196 194
149 6 196 191 192 199
150 7 196 191 192 199
151 6 196 191 192 200
152 7 196 191 192 200
153 9 197 191 192 199
154 9 197 191 192 200
155 9 198 191 192 199
156 9 198 191 192 200
157 12 950 951 953 954
158 10 952 951 953 954
159 11 952 951 953 954
160 3 162 163 164 165
161 3 162 163 164 166
162 8 164 163 162 169
163 8 164 163 162 170
164 3 161 166 164 163
165 3 161 166 164 165
166 8 164 166 161 167
167 8 164 166 161 168
168 8 951 953 954 958
169 8 951 953 954 959
170 8 951 953 954 960
171 1 231 232 233 234
172 2 231 232 233 234
173 4 233 232 231 236
174 5 233 232 231 236
175 6 233 232 231 237
176 7 233 232 231 237
177 6 233 232 231 238
178 7 233 232 231 238
179 1 232 231 236 234
180 2 232 231 236 234
181 6 236 231 232 239
182 7 236 231 232 239
183 6 236 231 232 240
184 7 236 231 232 240
185 9 237 231 232 239
186 9 237 231 232 240
187 9 238 231 232 239
188 9 238 231 232 240
189 1 161 162 163 164
190 2 161 162 163 164
191 4 163 162 161 166
192 5 163 162 161 166
193 6 163 162 161 167
194 7 163 162 161 167
195 6 163 162 161 168
196 7 163 162 161 168
197 1 162 161 166 164
198 2 162 161 166 164
199 6 166 161 162 169
200 7 166 161 162 169
201 6 166 161 162 170
202 7 166 161 162 170
203 9 167 161 162 169
204 9 167 161 162 170
205 9 168 161 162 169
206 9 168 161 162 170
207 12 434 435 437 438
208 10 436 435 437 438
209 11 436 435 437 438
210 3 231 236 234 233
211 3 231 236 234 235
212 8 234 236 231 237
213 8 234 236 231 238
214 8 435 437 438 442
215 8 435 437 438 443
216 8 435 437 438 444
217 12 722 723 725 726
218 10 724 723 725 726
219 11 724 723 725 726
220 10 721 722 723 724
221 11 721 722 723 724
222 12 721 722 723 725
223 8 723 722 721 727
224 8 723 722 721 728
225 8 723 722 721 729
226 8 723 725 726 730
227 8 723 725 726 731
228 8 723 725 726 732
229 10 709 710 711 712
230 11 709 710 711 712
231 12 709 710 711 713
232 8 711 710 709 715
233 8 711 710 709 716
234 8 711 710 709 717
235 10 433 434 435 436
236 11 433 434 435 436
237 12 433 434 435 437
238 8 435 434 433 439
239 8 435 434 433 440
240 8 435 434 433 441
241 1 191 192 193 194
242 2 191 192 193 194
243 4 193 192 191 196
244 5 193 192 191 196
245 6 193 192 191 197
246 7 193 192 191 197
247 6 193 192 191 198
248 7 193 192 191 198
249 3 2 3 4 5
250 3 2 3 4 6
251 8 4 3 2 9
252 8 4 3 2 10
253 8 711 713 714 718
254 8 711 713 714 719
255 8 711 713 714 720
256 10 733 734 735 736
257 11 733 734 735 736
258 12 733 734 735 737
259 8 735 734 733 739
260 8 735 734 733 740
261 8 735 734 733 741
262 12 734 735 737 738
263 10 736 735 737 738
264 11 736 735 737 738
265 8 795 797 798 802
266 8 795 797 798 803
267 8 795 797 798 804
268 10 949 950 951 952
269 11 949 950 951 952
270 12 949 950 951 953
271 8 951 950 949 955
272 8 951 950 949 956
273 8 951 950 949 957
274 12 794 795 797 798
275 10 796 795 797 798
276 11 796 795 797 798
277 8 423 425 426 430
278 8 423 425 426 431
279 8 423 425 426 432
280 12 422 423 425 426
281 10 424 423 425 426
282 11 424 423 425 426
283 3 112 113 114 115
284 3 112 113 114 116
285 8 114 113 112 119
286 8 114 113 112 120
287 3 111 116 114 113
288 3 111 116 114 115
289 8 114 116 111 117
290 8 114 116 111 118
291 1 112 111 116 114
292 2 112 111 116 114
293 6 116 111 112 119
294 7 116 111 112 119
295 6 116 111 112 120
296 7 116 111 112 120
297 9 117 111 112 119
298 9 117 111 112 120
299 9 118 111 112 119
300 9 118 111 112 120
301 3 202 203 204 205
302 3 202 203 204 206
303 8 204 203 202 209
304 8 204 203 202 210
305 10 793 794 795 796
306 11 793 794 795 796
307 12 793 794 795 797
308 8 795 794 793 799
309 8 795 794 793 800
310 8 795 794 793 801
311 1 1 2 3 4
312 2 1 2 3 4
313 4 3 2 1 6
314 5 3 2 1 6
315 6 3 2 1 7
316 7 3 2 1 7
317 6 3 2 1 8
318 7 3 2 1 8
319 10 937 938 939 940
320 11 937 938 939 940
321 12 937 938 939 941
322 8 939 938 937 943
323 8 939 938 937 944
324 8 939 938 937 945
325 12 938 939 941 942
326 10 940 939 941 942
327 11 940 939 941 942
328 3 271 276 274 273
329 3 271 276 274 275
330 8 274 276 271 277
331 8 274 276 271 278
332 1 2 1 6 4
333 2 2 1 6 4
334 6 6 1 2 9
335 7 6 1 2 9
336 6 6 1 2 10
337 7 6 1 2 10
338 9 7 1 2 9
339 9 7 1 2 10
340 9 8 1 2 9
341 9 8 1 2 10
342 3 272 273 274 275
343 3 272 273 274 276
344 8 274 273 272 279
345 8 274 273 272 280
346 3 141 146 144 143
347 3 141 146 144 145
348 8 144 146 141 147
349 8 144 146 141 148
350 1 271 272 273 274
351 2 271 272 273 274
352 4 273 272 271 276
353 5 273 272 271 276
354 6 273 272 271 277
355 7 273 272 271 277
356 6 273 272 271 278
357 7 273 272 271 278
358 1 272 271 276 274
359 2 272 271 276 274
360 6 276 271 272 279
361 7 276 271 272 279
362 6 276 271 272 280
363 7 276 271 272 280
364 9 277 271 272 279
365 9 277 271 272 280
366 9 278 271 272 279
367 9 278 271 272 280
368 1 142 141 146 144
369 2 142 141 146 144
370 6 146 141 142 149
371 7 146 141 142 149
372 6 146 141 142 150
373 7 146 141 142 150
374 9 147 141 142 149
375 9 147 141 142 150
376 9 148 141 142 149
377 9 148 141 142 150
378 3 201 206 204 203
379 3 201 206 204 205
380 8 204 206 201 207
381 8 204 206 201 208
382 3 1 6 4 3
383 3 1 6 4 5
384 8 4 6 1 7
385 8 4 6 1 8
386 1 202 201 206 204
387 2 202 201 206 204
388 6 206 201 202 209
389 7 206 201 202 209
390 6 206 201 202 210
391 7 206 201 202 210
392 9 207 201 202 209
393 9 207 201 202 210
394 9 208 201 202 209
395 9 208 201 202 210
396 1 111 112 113 114
397 2 111 112 113 114
398 4 113 112 111 116
399 5 113 112 111 116
400 6 113 112 111 117
401 7 113 112 111 117
402 6 113 112 111 118
403 7 113 112 111 118
404 1 141 142 143 144
405 2 141 142 143 144
406 4 143 142 141 146
407 5 143 142 141 146
408 6 143 142 141 147
409 7 143 142 141 147
410 6 143 142 141 148
411 7 143 142 141 148
412 3 142 143 144 145
413 3 142 143 144 146
414 8 144 143 142 149
415 8 144 143 142 150
416 12 614 615 617 618
417 10 616 615 617 618
418 11 616 615 617 618
419 13 1017 1018 1019 1036
420 13 1017 1018 1019 1037
421 13 1017 1018 1019 1038
422 13 1017 1018 1020 1039
423 13 1017 1018 1020 1040
424 13 1017 1018 1020 1041
425 14 1017 1018 1021 1022
426 15 1017 1018 1021 1022
427 13 1019 1018 1017 1033
428 13 1019 1018 1017 1034
429 13 1019 1018 1017 1035
430 13 1019 1018 1020 1039
431 13 1019 1018 1020 1040
432 13 1019 1018 1020 1041
433 14 1019 1018 1021 1022
434 15 1019 1018 1021 1022
435 13 1020 1018 1017 1033
436 13 1020 1018 1017 1034
437 13 1020 1018 1017 1035
438 13 1020 1018 1019 1036
439 13 1020 1018 1019 1037
440 13 1020 1018 1019 1038
441 14 1020 1018 1021 1022
442 15 1020 1018 1021 1022
443 19 1021 1018 1017 1033
444 19 1021 1018 1017 1034
445 19 1021 1018 1017 1035
446 19 1021 1018 1019 1036
447 19 1021 1018 1019 1037
448 19 1021 1018 1019 1038
449 19 1021 1018 1020 1039
450 19 1021 1018 1020 1040
451 19 1021 1018 1020 1041
452 10 349 350 351 352
453 11 349 350 351 352
454 12 349 350 351 353
455 8 351 350 349 355
456 8 351 350 349 356
457 8 351 350 349 357
458 12 350 351 353 354
459 10 352 351 353 354
460 11 352 351 353 354
461 8 351 353 354 358
462 8 351 353 354 359
463 8 351 353 354 360
464 16 1018 1021 1022 1023
465 17 1018 1021 1022 1023
466 18 1018 1021 1022 1023
467 16 1018 1021 1022 1028
468 17 1018 1021 1022 1028
469 18 1018 1021 1022 1028
470 19 1028 1029 1030 1051
471 19 1028 1029 1030 1052
472 19 1028 1029 1030 1053
473 19 1028 1029 1031 1054
474 19 1028 1029 1031 1055
475 19 1028 1029 1031 1056
476 19 1028 1029 1032 1057
477 19 1028 1029 1032 1058
478 19 1028 1029 1032 1059
479 13 1030 1029 1031 1054
480 13 1030 1029 1031 1055
481 13 1030 1029 1031 1056
482 13 1030 1029 1032 1057
483 13 1030 1029 1032 1058
484 13 1030 1029 1032 1059
485 13 1031 1029 1030 1051
486 13 1031 1029 1030 1052
487 13 1031 1029 1030 1053
488 13 1031 1029 1032 1057
489 13 1031 1029 1032 1058
490 13 1031 1029 1032 1059
491 13 1032 1029 1030 1051
492 13 1032 1029 1030 1052
493 13 1032 1029 1030 1053
494 13 1032 1029 1031 1054
495 13 1032 1029 1031 1055
496 13 1032 1029 1031 1056
497 1 132 131 136 134
498 2 132 131 136 134
499 6 136 131 132 139
500 7 136 131 132 139
501 6 136 131 132 140
502 7 136 131 132 140
503 9 137 131 132 139
504 9 137 131 132 140
505 9 138 131 132 139
506 9 138 131 132 140
507 16 1021 1022 1023 1024
508 17 1021 1022 1023 1024
509 18 1021 1022 1023 1024
510 16 1021 1022 1028 1029
511 17 1021 1022 1028 1029
512 18 1021 1022 1028 1029
513 16 1023 1022 1028 1029
514 17 1023 1022 1028 1029
515 18 1023 1022 1028 1029
516 3 21 26 24 23
517 3 21 26 24 25
518 8 24 26 21 27
519 8 24 26 21 28
520 12 914 915 917 918
521 10 916 915 917 918
522 11 916 915 917 918
523 8 819 821 822 826
524 8 819 821 822 827
525 8 819 821 822 828
526 8 915 917 918 922
527 8 915 917 918 923
528 8 915 917 918 924
529 10 385 386 387 388
530 11 385 386 387 388
531 12 385 386 387 389
532 8 387 386 385 391
533 8 387 386 385 392
534 8 387 386 385 393
535 1 82 81 86 84
536 2 82 81 86 84
537 6 86 81 82 89
538 7 86 81 82 89
539 6 86 81 82 90
540 7 86 81 82 90
541 9 87 81 82 89
542 9 87 81 82 90
543 9 88 81 82 89
544 9 88 81 82 90
545 10 913 914 915 916
546 11 913 914 915 916
547 12 913 914 915 917
548 8 915 914 913 919
549 8 915 914 913 920
550 8 915 914 913 921
551 1 22 21 26 24
552 2 22 21 26 24
553 6 26 21 22 29
554 7 26 21 22 29
555 6 26 21 22 30
556 7 26 21 22 30
557 9 27 21 22 29
558 9 27 21 22 30
559 9 28 21 22 29
560 9 28 21 22 30
561 8 483 485 486 490
562 8 483 485 486 491
563 8 483 485 486 492
564 12 482 483 485 486
565 10 484 483 485 486
566 11 484 483 485 486
567 1 21 22 23 24
568 2 21 22 23 24
569 4 23 22 21 26
570 5 23 22 21 26
571 6 23 22 21 27
572 7 23 22 21 27
573 6 23 22 21 28
574 7 23 22 21 28
575 3 22 23 24 25
576 3 22 23 24 26
577 8 24 23 22 29
578 8 24 23 22 30
579 10 481 482 483 484
580 11 481 482 483 484
581 12 481 482 483 485
582 8 483 482 481 487
583 8 483 482 481 488
584 8 483 482 481 489
585 8 939 941 942 946
586 8 939 941 942 947
587 8 939 941 942 948
588 10 361 362 363 364
589 11 361 362 363 364
590 12 361 362 363 365
591 8 363 362 361 367
592 8 363 362 361 368
593 8 363 362 361 369
594 12 578 579 581 582
595 10 580 579 581 582
596 11 580 579 581 582
597 10 577 578 579 580
598 11 577 578 579 580
599 12 577 578 579 581
600 8 579 578 577 583
601 8 579 578 577 584
602 8 579 578 577 585
603 12 530 531 533 534
604 10 532 531 533 534
605 11 532 531 533 534
606 1 41 42 43 44
607 2 41 42 43 44
608 4 43 42 41 46
609 5 43 42 41 46
610 6 43 42 41 47
611 7 43 42 41 47
612 6 43 42 41 48
613 7 43 42 41 48
614 8 363 365 366 370
615 8 363 365 366 371
616 8 363 365 366 372
617 12 386 387 389 390
618 10 388 387 389 390
619 11 388 387 389 390
620 8 579 581 582 586
621 8 579 581 582 587
622 8 579 581 582 588
623 8 387 389 390 394
624 8 387 389 390 395
625 8 387 389 390 396
626 3 42 43 44 45
627 3 42 43 44 46
628 8 44 43 42 49
629 8 44 43 42 50
630 8 447 449 450 454
631 8 447 449 450 455
632 8 447 449 450 456
633 10 445 446 447 448
634 11 445 446 447 448
635 12 445 446 447 449
636 8 447 446 445 451
637 8 447 446 445 452
638 8 447 446 445 453
639 3 191 196 194 193
640 3 191 196 194 195
641 8 194 196 191 197
642 8 194 196 191 198
643 12 446 447 449 450
644 10 448 447 449 450
645 11 448 447 449 450
646 12 674 675 677 678
647 10 676 675 677 678
648 11 676 675 677 678
649 8 399 401 402 406
650 8 399 401 402 407
651 8 399 401 402 408
652 10 397 398 399 400
653 11 397 398 399 400
654 12 397 398 399 401
655 8 399 398 397 403
656 8 399 398 397 404
657 8 399 398 397 405
658 12 398 399 401 402
659 10 400 399 401 402
660 11 400 399 401 402
661 10 673 674 675 676
662 11 673 674 675 676
663 12 673 674 675 677
664 8 675 674 673 679
665 8 675 674 673 680
666 8 675 674 673 681
667 8 531 533 534 538
668 8 531 533 534 539
669 8 531 533 534 540
670 1 62 61 66 64
671 2 62 61 66 64
672 6 66 61 62 69
673 7 66 61 62 69
674 6 66 61 62 70
675 7 66 61 62 70
676 9 67 61 62 69
677 9 67 61 62 70
678 9 68 61 62 69
679 9 68 61 62 70
680 1 61 62 63 64
681 2 61 62 63 64
682 4 63 62 61 66
683 5 63 62 61 66
684 6 63 62 61 67
685 7 63 62 61 67
686 6 63 62 61 68
687 7 63 62 61 68
688 8 783 785 786 790
689 8 783 785 786 791
690 8 783 785 786 792
691 3 41 46 44 43
692 3 41 46 44 45
693 8 44 46 41 47
694 8 44 46 41 48
695 3 62 63 64 65
696 3 62 63 64 66
697 8 64 63 62 69
698 8 64 63 62 70
699 1 42 41 46 44
700 2 42 41 46 44
701 6 46 41 42 49
702 7 46 41 42 49
703 6 46 41 42 50
704 7 46 41 42 50
705 9 47 41 42 49
706 9 47 41 42 50
707 9 48 41 42 49
708 9 48 41 42 50
709 8 675 677 678 682
710 8 675 677 678 683
711 8 675 677 678 684
712 3 61 66 64 63
713 3 61 66 64 65
714 8 64 66 61 67
715 8 64 66 61 68
716 8 591 593 594 598
717 8 591 593 594 599
718 8 591 593 594 600
719 10 469 470 471 472
720 11 469 470 471 472
721 12 469 470 471 473
722 8 471 470 469 475
723 8 471 470 469 476
724 8 471 470 469 477
725 8 471 473 474 478
726 8 471 473 474 479
727 8 471 473 474 480
728 10 925 926 927 928
729 11 925 926 927 928
730 12 925 926 927 929
731 8 927 926 925 931
732 8 927 926 925 932
733 8 927 926 925 933
734 12 638 639 641 642
735 10 640 639 641 642
736 11 640 639 641 642
737 12 470 471 473 474
738 10 472 471 473 474
739 11 472 471 473 474
740 8 927 929 930 934
741 8 927 929 930 935
742 8 927 929 930 936
743 10 649 650 651 652
744 11 649 650 651 652
745 12 649 650 651 653
746 8 651 650 649 655
747 8 651 650 649 656
748 8 651 650 649 657
749 12 782 783 785 786
750 10 784 783 785 786
751 11 784 783 785 786
752 10 781 782 783 784
753 11 781 782 783 784
754 12 781 782 783 785
755 8 783 782 781 787
756 8 783 782 781 788
757 8 783 782 781 789
758 12 926 927 929 930
759 10 928 927 929 930
760 11 928 927 929 930
761 10 589 590 591 592
762 11 589 590 591 592
763 12 589 590 591 593
764 8 591 590 589 595
765 8 591 590 589 596
766 8 591 590 589 597
767 10 517 518 519 520
768 11 517 518 519 520
769 12 517 518 519 521
770 8 519 518 517 523
771 8 519 518 517 524
772 8 519 518 517 525
773 12 650 651 653 654
774 10 652 651 653 654
775 11 652 651 653 654
776 12 590 591 593 594
777 10 592 591 593 594
778 11 592 591 593 594
779 12 518 519 521 522
780 10 520 519 521 522
781 11 520 519 521 522
782 8 519 521 522 526
783 8 519 521 522 527
784 8 519 521 522 528
785 8 639 641 642 646
786 8 639 641 642 647
787 8 639 641 642 648
788 10 637 638 639 640
789 11 637 638 639 640
790 12 637 638 639 641
791 8 639 638 637 643
792 8 639 638 637 644
793 8 639 638 637 645
794 14 1022 1028 1029 1030
795 15 1022 1028 1029 1030
796 14 1022 1028 1029 1031
797 15 1022 1028 1029 1031
798 14 1022 1028 1029 1032
799 15 1022 1028 1029 1032
800 1 81 82 83 84
801 2 81 82 83 84
802 4 83 82 81 86
803 5 83 82 81 86
804 6 83 82 81 87
805 7 83 82 81 87
806 6 83 82 81 88
807 7 83 82 81 88
808 10 529 530 531 532
809 11 529 530 531 532
810 12 529 530 531 533
811 8 531 530 529 535
812 8 531 530 529 536
813 8 531 530 529 537
814 8 615 617 618 622
815 8 615 617 618 623
816 8 615 617 618 624
817 12 362 363 365 366
818 10 364 363 365 366
819 11 364 363 365 366
820 14 1022 1023 1024 1025
821 15 1022 1023 1024 1025
822 14 1022 1023 1024 1026
823 15 1022 1023 1024 1026
824 14 1022 1023 1024 1027
825 15 1022 1023 1024 1027
826 16 1024 1023 1022 1028
827 17 1024 1023 1022 1028
828 18 1024 1023 1022 1028
829 3 152 153 154 155
830 3 152 153 154 156
831 8 154 153 152 159
832 8 154 153 152 160
833 1 151 152 153 154
834 2 151 152 153 154
835 4 153 152 151 156
836 5 153 152 151 156
837 6 153 152 151 157
838 7 153 152 151 157
839 6 153 152 151 158
840 7 153 152 151 158
841 1 152 151 156 154
842 2 152 151 156 154
843 6 156 151 152 159
844 7 156 151 152 159
845 6 156 151 152 160
846 7 156 151 152 160
847 9 157 151 152 159
848 9 157 151 152 160
849 9 158 151 152 159
850 9 158 151 152 160
851 8 627 629 630 634
852 8 627 629 630 635
853 8 627 629 630 636
854 3 151 156 154 153
855 3 151 156 154 155
856 8 154 156 151 157
857 8 154 156 151 158
858 3 31 36 34 33
859 3 31 36 34 35
860 8 34 36 31 37
861 8 34 36 31 38
862 1 32 31 36 34
863 2 32 31 36 34
864 6 36 31 32 39
865 7 36 31 32 39
866 6 36 31 32 40
867 7 36 31 32 40
868 9 37 31 32 39
869 9 37 31 32 40
870 9 38 31 32 39
871 9 38 31 32 40
872 3 102 103 104 105
873 3 102 103 104 106
874 8 104 103 102 109
875 8 104 103 102 110
876 1 101 102 103 104
877 2 101 102 103 104
878 4 103 102 101 106
879 5 103 102 101 106
880 6 103 102 101 107
881 7 103 102 101 107
882 6 103 102 101 108
883 7 103 102 101 108
884 10 877 878 879 880
885 11 877 878 879 880
886 12 877 878 879 881
887 8 879 878 877 883
888 8 879 878 877 884
889 8 879 878 877 885
890 3 32 33 34 35
891 3 32 33 34 36
892 8 34 33 32 39
893 8 34 33 32 40
894 1 31 32 33 34
895 2 31 32 33 34
896 4 33 32 31 36
897 5 33 32 31 36
898 6 33 32 31 37
899 7 33 32 31 37
900 6 33 32 31 38
901 7 33 32 31 38
902 8 903 905 906 910
903 8 903 905 906 911
904 8 903 905 906 912
905 8 879 881 882 886
906 8 879 881 882 887
907 8 879 881 882 888
908 1 102 101 106 104
909 2 102 101 106 104
910 6 106 101 102 109
911 7 106 101 102 109
912 6 106 101 102 110
913 7 106 101 102 110
914 9 107 101 102 109
915 9 107 101 102 110
916 9 108 101 102 109
917 9 108 101 102 110
918 3 221 226 224 223
919 3 221 226 224 225
920 8 224 226 221 227
921 8 224 226 221 228
922 12 878 879 881 882
923 10 880 879 881 882
924 11 880 879 881 882
925 1 222 221 226 224
926 2 222 221 226 224
927 6 226 221 222 229
928 7 226 221 222 229
929 6 226 221 222 230
930 7 226 221 222 230
931 9 227 221 222 229
932 9 227 221 222 230
933 9 228 221 222 229
934 9 228 221 222 230
935 12 626 627 629 630
936 10 628 627 629 630
937 11 628 627 629 630
938 10 613 614 615 616
939 11 613 614 615 616
940 12 613 614 615 617
941 8 615 614 613 619
942 8 615 614 613 620
943 8 615 614 613 621
944 3 101 106 104 103
945 3 101 106 104 105
946 8 104 106 101 107
947 8 104 106 101 108
948 3 132 133 134 135
949 3 132 133 134 136
950 8 134 133 132 139
951 8 134 133 132 140
952 8 411 413 414 418
953 8 411 413 414 419
954 8 411 413 414 420
955 10 853 854 855 856
956 11 853 854 855 856
957 12 853 854 855 857
958 8 855 854 853 859
959 8 855 854 853 860
960 8 855 854 853 861
961 3 242 243 244 245
962 3 242 243 244 246
963 8 244 243 242 249
964 8 244 243 242 250
965 12 902 903 905 906
966 10 904 903 905 906
967 11 904 903 905 906
968 10 901 902 903 904
969 11 901 902 903 904
970 12 901 902 903 905
971 8 903 902 901 907
972 8 903 902 901 908
973 8 903 902 901 909
974 3 72 73 74 75
975 3 72 73 74 76
976 8 74 73 72 79
977 8 74 73 72 80
978 3 281 286 284 283
979 3 281 286 284 285
980 8 284 286 281 287
981 8 284 286 281 288
982 1 282 281 286 284
983 2 282 281 286 284
984 6 286 281 282 289
985 7 286 281 282 289
986 6 286 281 282 290
987 7 286 281 282 290
988 9 287 281 282 289
989 9 287 281 282 290
990 9 288 281 282 289
991 9 288 281 282 290
992 12 770 771 773 774
993 10 772 771 773 774
994 11 772 771 773 774
995 3 171 176 174 173
996 3 171 176 174 175
997 8 174 176 171 177
998 8 174 176 171 178
999 1 172 171 176 174
1000 2 172 171 176 174
1001 6 176 171 172 179
1002 7 176 171 172 179
1003 6 176 171 172 180
1004 7 176 171 172 180
1005 9 177 171 172 179
1006 9 177 171 172 180
1007 9 178 171 172 179
1008 9 178 171 172 180
1009 1 171 172 173 174
1010 2 171 172 173 174
1011 4 173 172 171 176
1012 5 173 172 171 176
1013 6 173 172 171 177
1014 7 173 172 171 177
1015 6 173 172 171 178
1016 7 173 172 171 178
1017 3 172 173 174 175
1018 3 172 173 174 176
1019 8 174 173 172 179
1020 8 174 173 172 180
1021 10 769 770 771 772
1022 11 769 770 771 772
1023 12 769 770 771 773
1024 8 771 770 769 775
1025 8 771 770 769 776
1026 8 771 770 769 777
1027 1 281 282 283 284
1028 2 281 282 283 284
1029 4 283 282 281 286
1030 5 283 282 281 286
1031 6 283 282 281 287
1032 7 283 282 281 287
1033 6 283 282 281 288
1034 7 283 282 281 288
1035 8 771 773 774 778
1036 8 771 773 774 779
1037 8 771 773 774 780
1038 8 315 317 318 322
1039 8 315 317 318 323
1040 8 315 317 318 324
1041 10 313 314 315 316
1042 11 313 314 315 316
1043 12 313 314 315 317
1044 8 315 314 313 319
1045 8 315 314 313 320
1046 8 315 314 313 321
1047 1 71 72 73 74
1048 2 71 72 73 74
1049 4 73 72 71 76
1050 5 73 72 71 76
1051 6 73 72 71 77
1052 7 73 72 71 77
1053 6 73 72 71 78
1054 7 73 72 71 78
1055 3 71 76 74 73
1056 3 71 76 74 75
1057 8 74 76 71 77
1058 8 74 76 71 78
1059 3 211 216 214 213
1060 3 211 216 214 215
1061 8 214 216 211 217
1062 8 214 216 211 218
1063 10 421 422 423 424
1064 11 421 422 423 424
1065 12 421 422 423 425
1066 8 423 422 421 427
1067 8 423 422 421 428
1068 8 423 422 421 429
1069 10 337 338 339 340
1070 11 337 338 339 340
1071 12 337 338 339 341
1072 8 339 338 337 343
1073 8 339 338 337 344
1074 8 339 338 337 345
1075 8 339 341 342 346
1076 8 339 341 342 347
1077 8 339 341 342 348
1078 12 830 831 833 834
1079 10 832 831 833 834
1080 11 832 831 833 834
1081 8 567 569 570 574
1082 8 567 569 570 575
1083 8 567 569 570 576
1084 10 745 746 747 748
1085 11 745 746 747 748
1086 12 745 746 747 749
1087 8 747 746 745 751
1088 8 747 746 745 752
1089 8 747 746 745 753
1090 8 747 749 750 754
1091 8 747 749 750 755
1092 8 747 749 750 756
1093 10 409 410 411 412
1094 11 409 410 411 412
1095 12 409 410 411 413
1096 8 411 410 409 415
1097 8 411 410 409 416
1098 8 411 410 409 417
1099 12 410 411 413 414
1100 10 412 411 413 414
1101 11 412 411 413 414
1102 10 301 302 303 304
1103 11 301 302 303 304
1104 12 301 302 303 305
1105 8 303 302 301 307
1106 8 303 302 301 308
1107 8 303 302 301 309
1108 12 314 315 317 318
1109 10 316 315 317 318
1110 11 316 315 317 318
1111 8 303 305 306 310
1112 8 303 305 306 311
1113 8 303 305 306 312
1114 12 542 543 545 546
1115 10 544 543 545 546
1116 11 544 543 545 546
1117 10 541 542 543 544
1118 11 541 542 543 544
1119 12 541 542 543 545
1120 8 543 542 541 547
1121 8 543 542 541 548
1122 8 543 542 541 549
1123 10 829 830 831 832
1124 11 829 830 831 832
1125 12 829 830 831 833
1126 8 831 830 829 835
1127 8 831 830 829 836
1128 8 831 830 829 837
1129 8 543 545 546 550
1130 8 543 545 546 551
1131 8 543 545 546 552
1132 8 831 833 834 838
1133 8 831 833 834 839
1134 8 831 833 834 840
1135 12 338 339 341 342
1136 10 340 339 341 342
1137 11 340 339 341 342
1138 12 302 303 305 306
1139 10 304 303 305 306
1140 11 304 303 305 306
1141 12 746 747 749 750
1142 10 748 747 749 750
1143 11 748 747 749 750
1144 8 459 461 462 466
1145 8 459 461 462 467
1146 8 459 461 462 468
1147 12 458 459 461 462
1148 10 460 459 461 462
1149 11 460 459 461 462
1150 10 457 458 459 460
1151 11 457 458 459 460
1152 12 457 458 459 461
1153 8 459 458 457 463
1154 8 459 458 457 464
1155 8 459 458 457 465
1156 1 51 52 53 54
1157 2 51 52 53 54
1158 4 53 52 51 56
1159 5 53 52 51 56
1160 6 53 52 51 57
1161 7 53 52 51 57
1162 6 53 52 51 58
1163 7 53 52 51 58
1164 1 52 51 56 54
1165 2 52 51 56 54
1166 6 56 51 52 59
1167 7 56 51 52 59
1168 6 56 51 52 60
1169 7 56 51 52 60
1170 9 57 51 52 59
1171 9 57 51 52 60
1172 9 58 51 52 59
1173 9 58 51 52 60
1174 8 555 557 558 562
1175 8 555 557 558 563
1176 8 555 557 558 564
1177 3 52 53 54 55
1178 3 52 53 54 56
1179 8 54 53 52 59
1180 8 54 53 52 60
1181 3 51 56 54 53
1182 3 51 56 54 55
1183 8 54 56 51 57
1184 8 54 56 51 58
1185 3 251 256 254 253
1186 3 251 256 254 255
1187 8 254 256 251 257
1188 8 254 256 251 258
1189 12 842 843 845 846
1190 10 844 843 845 846
1191 11 844 843 845 846
1192 10 553 554 555 556
1193 11 553 554 555 556
1194 12 553 554 555 557
1195 8 555 554 553 559
1196 8 555 554 553 560
1197 8 555 554 553 561
1198 1 252 251 256 254
1199 2 252 251 256 254
1200 6 256 251 252 259
1201 7 256 251 252 259
1202 6 256 251 252 260
1203 7 256 251 252 260
1204 9 257 251 252 259
1205 9 257 251 252 260
1206 9 258 251 252 259
1207 9 258 251 252 260
1208 3 252 253 254 255
1209 3 252 253 254 256
1210 8 254 253 252 259
1211 8 254 253 252 260
1212 1 251 252 253 254
1213 2 251 252 253 254
1214 4 253 252 251 256
1215 5 253 252 251 256
1216 6 253 252 251 257
1217 7 253 252 251 257
1218 6 253 252 251 258
1219 7 253 252 251 258
1220 12 758 759 761 762
1221 10 760 759 761 762
1222 11 760 759 761 762
1223 12 554 555 557 558
1224 10 556 555 557 558
1225 11 556 555 557 558
1226 8 759 761 762 766
1227 8 759 761 762 767
1228 8 759 761 762 768
1229 3 222 223 224 225
1230 3 222 223 224 226
1231 8 224 223 222 229
1232 8 224 223 222 230
1233 12 602 603 605 606
1234 10 604 603 605 606
1235 11 604 603 605 606
1236 3 131 136 134 133
1237 3 131 136 134 135
1238 8 134 136 131 137
1239 8 134 136 131 138
1240 10 601 602 603 604
1241 11 601 602 603 604
1242 12 601 602 603 605
1243 8 603 602 601 607
1244 8 603 602 601 608
1245 8 603 602 601 609
1246 10 757 758 759 760
1247 11 757 758 759 760
1248 12 757 758 759 761
1249 8 759 758 757 763
1250 8 759 758 757 764
1251 8 759 758 757 765
1252 10 685 686 687 688
1253 11 685 686 687 688
1254 12 685 686 687 689
1255 8 687 686 685 691
1256 8 687 686 685 692
1257 8 687 686 685 693
1258 12 686 687 689 690
1259 10 688 687 689 690
1260 11 688 687 689 690
1261 8 603 605 606 610
1262 8 603 605 606 611
1263 8 603 605 606 612
1264 3 192 193 194 195
1265 3 192 193 194 196
1266 8 194 193 192 199
1267 8 194 193 192 200
1268 1 221 222 223 224
1269 2 221 222 223 224
1270 4 223 222 221 226
1271 5 223 222 221 226
1272 6 223 222 221 227
1273 7 223 222 221 227
1274 6 223 222 221 228
1275 7 223 222 221 228
1276 10 325 326 327 328
1277 11 325 326 327 328
1278 12 325 326 327 329
1279 8 327 326 325 331
1280 8 327 326 325 332
1281 8 327 326 325 333
1282 12 566 567 569 570
1283 10 568 567 569 570
1284 11 568 567 569 570
1285 19 1023 1024 1025 1042
1286 19 1023 1024 1025 1043
1287 19 1023 1024 1025 1044
1288 19 1023 1024 1026 1045
1289 19 1023 1024 1026 1046
1290 19 1023 1024 1026 1047
1291 19 1023 1024 1027 1048
1292 19 1023 1024 1027 1049
1293 19 1023 1024 1027 1050
1294 13 1025 1024 1026 1045
1295 13 1025 1024 1026 1046
1296 13 1025 1024 1026 1047
1297 13 1025 1024 1027 1048
1298 13 1025 1024 1027 1049
1299 13 1025 1024 1027 1050
1300 13 1026 1024 1025 1042
1301 13 1026 1024 1025 1043
1302 13 1026 1024 1025 1044
1303 13 1026 1024 1027 1048
1304 13 1026 1024 1027 1049
1305 13 1026 1024 1027 1050
1306 13 1027 1024 1025 1042
1307 13 1027 1024 1025 1043
1308 13 1027 1024 1025 1044
1309 13 1027 1024 1026 1045
1310 13 1027 1024 1026 1046
1311 13 1027 1024 1026 1047
1312 3 212 213 214 215
1313 3 212 213 214 216
1314 8 214 213 212 219
1315 8 214 213 212 220
1316 1 292 291 296 294
1317 2 292 291 296 294
1318 6 296 291 292 299
1319 7 296 291 292 299
1320 6 296 291 292 300
1321 7 296 291 292 300
1322 9 297 291 292 299
1323 9 297 291 292 300
1324 9 298 291 292 299
1325 9 298 291 292 300
1326 1 211 212 213 214
1327 2 211 212 213 214
1328 4 213 212 211 216
1329 5 213 212 211 216
1330 6 213 212 211 217
1331 7 213 212 211 217
1332 6 213 212 211 218
1333 7 213 212 211 218
1334 10 505 506 507 508
1335 11 505 506 507 508
1336 12 505 506 507 509
1337 8 507 506 505 511
1338 8 507 506 505 512
1339 8 507 506 505 513
1340 12 506 507 509 510
1341 10 508 507 509 510
1342 11 508 507 509 510
1343 8 507 509 510 514
1344 8 507 509 510 515
1345 8 507 509 510 516
1346 3 292 293 294 295
1347 3 292 293 294 296
1348 8 294 293 292 299
1349 8 294 293 292 300
1350 3 291 296 294 293
1351 3 291 296 294 295
1352 8 294 296 291 297
1353 8 294 296 291 298
1354 8 807 809 810 814
1355 8 807 809 810 815
1356 8 807 809 810 816
1357 12 806 807 809 810
1358 10 808 807 809 810
1359 11 808 807 809 810
1360 10 805 806 807 808
1361 11 805 806 807 808
1362 12 805 806 807 809
1363 8 807 806 805 811
1364 8 807 806 805 812
1365 8 807 806 805 813
1366 3 182 183 184 185
1367 3 182 183 184 186
1368 8 184 183 182 189
1369 8 184 183 182 190
1370 8 327 329 330 334
1371 8 327 329 330 335
1372 8 327 329 330 336
1373 3 181 186 184 183
1374 3 181 186 184 185
1375 8 184 186 181 187
1376 8 184 186 181 188
1377 3 82 83 84 85
1378 3 82 83 84 86
1379 8 84 83 82 89
1380 8 84 83 82 90
1381 1 212 211 216 214
1382 2 212 211 216 214
1383 6 216 211 212 219
1384 7 216 211 212 219
1385 6 216 211 212 220
1386 7 216 211 212 220
1387 9 217 211 212 219
1388 9 217 211 212 220
1389 9 218 211 212 219
1390 9 218 211 212 220
1391 3 241 246 244 243
1392 3 241 246 244 245
1393 8 244 246 241 247
1394 8 244 246 241 248
1395 3 81 86 84 83
1396 3 81 86 84 85
1397 8 84 86 81 87
1398 8 84 86 81 88
1399 1 242 241 246 244
1400 2 242 241 246 244
1401 6 246 241 242 249
1402 7 246 241 242 249
1403 6 246 241 242 250
1404 7 246 241 242 250
1405 9 247 241 242 249
1406 9 247 241 242 250
1407 9 248 241 242 249
1408 9 248 241 242 250
1409 12 326 327 329 330
1410 10 328 327 329 330
1411 11 328 327 329 330
1412 1 291 292 293 294
1413 2 291 292 293 294
1414 4 293 292 291 296
1415 5 293 292 291 296
1416 6 293 292 291 297
1417 7 293 292 291 297
1418 6 293 292 291 298
1419 7 293 292 291 298
1420 3 91 96 94 93
1421 3 91 96 94 95
1422 8 94 96 91 97
1423 8 94 96 91 98
1424 1 241 242 243 244
1425 2 241 242 243 244
1426 4 243 242 241 246
1427 5 243 242 241 246
1428 6 243 242 241 247
1429 7 243 242 241 247
1430 6 243 242 241 248
1431 7 243 242 241 248
1432 1 92 91 96 94
1433 2 92 91 96 94
1434 6 96 91 92 99
1435 7 96 91 92 99
1436 6 96 91 92 100
1437 7 96 91 92 100
1438 9 97 91 92 99
1439 9 97 91 92 100
1440 9 98 91 92 99
1441 9 98 91 92 100
1442 1 262 261 266 264
1443 2 262 261 266 264
1444 6 266 261 262 269
1445 7 266 261 262 269
1446 6 266 261 262 270
1447 7 266 261 262 270
1448 9 267 261 262 269
1449 9 267 261 262 270
1450 9 268 261 262 269
1451 9 268 261 262 270
1452 8 651 653 654 658
1453 8 651 653 654 659
1454 8 651 653 654 660
1455 8 735 737 738 742
1456 8 735 737 738 743
1457 8 735 737 738 744
1458 1 261 262 263 264
1459 2 261 262 263 264
1460 4 263 262 261 266
1461 5 263 262 261 266
1462 6 263 262 261 267
1463 7 263 262 261 267
1464 6 263 262 261 268
1465 7 263 262 261 268
1466 1 182 181 186 184
1467 2 182 181 186 184
1468 6 186 181 182 189
1469 7 186 181 182 189
1470 6 186 181 182 190
1471 7 186 181 182 190
1472 9 187 181 182 189
1473 9 187 181 182 190
1474 9 188 181 182 189
1475 9 188 181 182 190
1476 1 181 182 183 184
1477 2 181 182 183 184
1478 4 183 182 181 186
1479 5 183 182 181 186
1480 6 183 182 181 187
1481 7 183 182 181 187
1482 6 183 182 181 188
1483 7 183 182 181 188
1484 3 92 93 94 95
1485 3 92 93 94 96
1486 8 94 93 92 99
1487 8 94 93 92 100
1488 8 699 701 702 706
1489 8 699 701 702 707
1490 8 699 701 702 708
1491 1 91 92 93 94
1492 2 91 92 93 94
1493 4 93 92 91 96
1494 5 93 92 91 96
1495 6 93 92 91 97
1496 7 93 92 91 97
1497 6 93 92 91 98
1498 7 93 92 91 98
1499 8 687 689 690 694
1500 8 687 689 690 695
1501 8 687 689 690 696
1502 8 843 845 846 850
1503 8 843 845 846 851
1504 8 843 845 846 852
1505 3 261 266 264 263
1506 3 261 266 264 265
1507 8 264 266 261 267
1508 8 264 266 261 268
1509 12 698 699 701 702
1510 10 700 699 701 702
1511 11 700 699 701 702
1512 10 841 842 843 844
1513 11 841 842 843 844
1514 12 841 842 843 845
1515 8 843 842 841 847
1516 8 843 842 841 848
1517 8 843 842 841 849
1518 8 891 893 894 898
1519 8 891 893 894 899
1520 8 891 893 894 900
1521 3 262 263 264 265
1522 3 262 263 264 266
1523 8 264 263 262 269
1524 8 264 263 262 270
1525 10 889 890 891 892
1526 11 889 890 891 892
1527 12 889 890 891 893
1528 8 891 890 889 895
1529 8 891 890 889 896
1530 8 891 890 889 897
1531 10 865 866 867 868
1532 11 865 866 867 868
1533 12 865 866 867 869
1534 8 867 866 865 871
1535 8 867 866 865 872
1536 8 867 866 865 873
1537 8 867 869 870 874
1538 8 867 869 870 875
1539 8 867 869 870 876
1540 12 890 891 893 894
1541 10 892 891 893 894
1542 11 892 891 893 894
1543 10 697 698 699 700
1544 11 697 698 699 700
1545 12 697 698 699 701
1546 8 699 698 697 703
1547 8 699 698 697 704
1548 8 699 698 697 705
1549 10 565 566 567 568
1550 11 565 566 567 568
1551 12 565 566 567 569
1552 8 567 566 565 571
1553 8 567 566 565 572
1554 8 567 566 565 573
1555 12 866 867 869 870
1556 10 868 867 869 870
1557 11 868 867 869 870

Impropers

1 1 663 662 664 665
2 1 14 16 13 15
3 1 14 13 15 16
4 1 855 857 854 856
5 1 663 664 665 662
6 1 14 15 16 13
7 1 663 665 662 664
8 1 495 494 496 497
9 1 375 377 374 376
10 1 627 626 628 629
11 1 124 123 125 126
12 1 819 818 820 821
13 1 939 940 941 938
14 1 855 856 857 854
15 1 495 497 494 496
16 1 284 283 285 286
17 1 375 374 376 377
18 1 284 285 286 283
19 1 495 496 497 494
20 1 435 436 437 434
21 1 711 712 713 710
22 1 234 233 235 236
23 1 124 126 123 125
24 1 363 364 365 362
25 1 164 165 166 163
26 1 164 163 165 166
27 1 164 166 163 165
28 1 951 953 950 952
29 1 234 236 233 235
30 1 723 724 725 722
31 1 435 437 434 436
32 1 795 796 797 794
33 1 234 235 236 233
34 1 723 722 724 725
35 1 723 725 722 724
36 1 711 710 712 713
37 1 435 434 436 437
38 1 4 3 5 6
39 1 711 713 710 712
40 1 819 820 821 818
41 1 735 734 736 737
42 1 795 797 794 796
43 1 951 950 952 953
44 1 423 425 422 424
45 1 114 113 115 116
46 1 114 116 113 115
47 1 204 203 205 206
48 1 795 794 796 797
49 1 939 938 940 941
50 1 274 276 273 275
51 1 274 273 275 276
52 1 144 146 143 145
53 1 204 206 203 205
54 1 204 205 206 203
55 1 4 6 3 5
56 1 274 275 276 273
57 1 144 145 146 143
58 1 4 5 6 3
59 1 144 143 145 146
60 1 351 350 352 353
61 1 351 353 350 352
62 1 351 352 353 350
63 1 124 125 126 123
64 1 24 26 23 25
65 1 819 821 818 820
66 1 915 917 914 916
67 1 387 386 388 389
68 1 915 916 917 914
69 1 915 914 916 917
70 1 483 485 482 484
71 1 24 23 25 26
72 1 483 482 484 485
73 1 939 941 938 940
74 1 675 676 677 674
75 1 579 580 581 578
76 1 387 388 389 386
77 1 363 362 364 365
78 1 579 578 580 581
79 1 44 45 46 43
80 1 531 532 533 530
81 1 363 365 362 364
82 1 579 581 578 580
83 1 387 389 386 388
84 1 44 43 45 46
85 1 399 400 401 398
86 1 447 449 446 448
87 1 447 448 449 446
88 1 447 446 448 449
89 1 194 196 193 195
90 1 194 195 196 193
91 1 399 401 398 400
92 1 399 398 400 401
93 1 675 674 676 677
94 1 531 533 530 532
95 1 783 785 782 784
96 1 44 46 43 45
97 1 64 63 65 66
98 1 675 677 674 676
99 1 64 66 63 65
100 1 591 593 590 592
101 1 471 470 472 473
102 1 639 640 641 638
103 1 471 473 470 472
104 1 927 926 928 929
105 1 927 929 926 928
106 1 519 520 521 518
107 1 783 784 785 782
108 1 651 650 652 653
109 1 591 592 593 590
110 1 651 652 653 650
111 1 783 782 784 785
112 1 591 590 592 593
113 1 519 518 520 521
114 1 483 484 485 482
115 1 24 25 26 23
116 1 519 521 518 520
117 1 927 928 929 926
118 1 471 472 473 470
119 1 639 641 638 640
120 1 639 638 640 641
121 1 531 530 532 533
122 1 615 617 614 616
123 1 154 153 155 156
124 1 104 105 106 103
125 1 627 629 626 628
126 1 154 155 156 153
127 1 154 156 153 155
128 1 34 36 33 35
129 1 104 103 105 106
130 1 34 35 36 33
131 1 879 878 880 881
132 1 34 33 35 36
133 1 903 905 902 904
134 1 879 881 878 880
135 1 224 226 223 225
136 1 423 424 425 422
137 1 224 225 226 223
138 1 375 376 377 374
139 1 114 115 116 113
140 1 879 880 881 878
141 1 615 614 616 617
142 1 615 616 617 614
143 1 134 135 136 133
144 1 627 628 629 626
145 1 104 106 103 105
146 1 134 133 135 136
147 1 735 736 737 734
148 1 411 413 410 412
149 1 855 854 856 857
150 1 244 243 245 246
151 1 254 255 256 253
152 1 903 904 905 902
153 1 214 215 216 213
154 1 74 75 76 73
155 1 903 902 904 905
156 1 74 73 75 76
157 1 951 952 953 950
158 1 284 286 283 285
159 1 174 175 176 173
160 1 174 176 173 175
161 1 174 173 175 176
162 1 315 316 317 314
163 1 771 770 772 773
164 1 771 773 770 772
165 1 315 317 314 316
166 1 315 314 316 317
167 1 771 772 773 770
168 1 74 76 73 75
169 1 214 216 213 215
170 1 423 422 424 425
171 1 339 338 340 341
172 1 339 341 338 340
173 1 567 568 569 566
174 1 543 544 545 542
175 1 411 412 413 410
176 1 567 569 566 568
177 1 747 746 748 749
178 1 831 832 833 830
179 1 747 749 746 748
180 1 411 410 412 413
181 1 303 302 304 305
182 1 747 748 749 746
183 1 303 305 302 304
184 1 543 542 544 545
185 1 831 830 832 833
186 1 543 545 542 544
187 1 831 833 830 832
188 1 303 304 305 302
189 1 339 340 341 338
190 1 459 461 458 460
191 1 459 458 460 461
192 1 459 460 461 458
193 1 555 557 554 556
194 1 54 53 55 56
195 1 54 56 53 55
196 1 254 256 253 255
197 1 555 554 556 557
198 1 254 253 255 256
199 1 759 760 761 758
200 1 759 761 758 760
201 1 224 223 225 226
202 1 134 136 133 135
203 1 54 55 56 53
204 1 603 602 604 605
205 1 759 758 760 761
206 1 843 844 845 842
207 1 687 686 688 689
208 1 867 868 869 866
209 1 603 605 602 604
210 1 194 193 195 196
211 1 244 245 246 243
212 1 327 326 328 329
213 1 603 604 605 602
214 1 214 213 215 216
215 1 507 506 508 509
216 1 555 556 557 554
217 1 84 85 86 83
218 1 507 508 509 506
219 1 507 509 506 508
220 1 294 293 295 296
221 1 294 296 293 295
222 1 807 809 806 808
223 1 807 808 809 806
224 1 807 806 808 809
225 1 294 295 296 293
226 1 184 183 185 186
227 1 184 185 186 183
228 1 327 329 326 328
229 1 184 186 183 185
230 1 94 95 96 93
231 1 84 83 85 86
232 1 244 246 243 245
233 1 84 86 83 85
234 1 94 96 93 95
235 1 327 328 329 326
236 1 64 65 66 63
237 1 651 653 650 652
238 1 735 737 734 736
239 1 94 93 95 96
240 1 699 701 698 700
241 1 687 689 686 688
242 1 843 845 842 844
243 1 264 266 263 265
244 1 264 265 266 263
245 1 843 842 844 845
246 1 891 893 890 892
247 1 264 263 265 266
248 1 891 890 892 893
249 1 891 892 893 890
250 1 687 688 689 686
251 1 867 866 868 869
252 1 867 869 866 868
253 1 699 698 700 701
254 1 699 700 701 698
255 1 567 566 568 569
