LAMMPS data file via write_data, version 22 Jul 2025, timestep = 16146, units = real

1059 atoms
10 atom types
989 bonds
9 bond types
1628 angles
11 angle types
1557 dihedrals
19 dihedral types
255 impropers
1 improper types

-0.001345751429827402 23.250893681389854 xlo xhi
-0.011345751389834291 23.240893681389686 ylo yhi
0.016654248210850042 23.26889368138908 zlo zhi

Masses

1 12.01078
2 15.99943
3 12.01078
4 15.99943
5 1.007947
6 6.9412
7 18.998403
8 30.973762
9 28.08553
10 1.007947

Pair Coeffs # lj/cut/coul/long

1 0.108841 3.37953
2 0.168465 3.02511
3 0.0868793 3.48065
4 0.210206 3.03981
5 0.0164092 2.58323
6 0.0279896 1.82634
7 0.061 3.11815
8 0.2 3.74177
9 0.1078 3.39771
10 0.0157795 2.64454

Bond Coeffs # harmonic

1 215.301 1.53363
2 227.037 1.43632
3 357.819 1.09421
4 291.342 1.35606
5 762.039 1.225
6 440 1.64
7 114.445 1.535
8 141.135 1.427
9 261.23 1.6281

Angle Coeffs # harmonic

1 91.5186 108.173
2 66.7563 109.938
3 63.31 123.606
4 36.7766 108.354
5 119.896 112.874
6 84.5477 120.105
7 89.8573 108.907
8 29.935 112.63
9 38.72 107.62
10 21.635 109.68
11 27.695 119.9

Dihedral Coeffs # opls

1 1 0.111303 3 0
2 1 0.438911 1 180
3 1 1.76361 2 180
4 1 -0.0153377 3 0
5 1 0.41915 2 0
6 1 0.131135 3 0
7 1 0.436547 1 0
8 1 0.263111 3 0
9 1 0.227995 3 0
10 1 0.302195 2 180
11 1 1.35005 1 180
12 1 3.48187 2 180
13 1 0.13 3 0
14 1 0.383 3 0
15 1 3.95 1 180
16 1 0.434179 3 0
17 1 9.35835 1 0
18 1 -1.88726 2 0
19 1 0.25 1 0

Improper Coeffs # cvff

1 4.30523 -1 2

Atoms # full

31 4 1 0.0955 1.2381318002933401 3.0265283410600423 5.105232667318244 0 0 0
32 4 1 0.0955 1.0363636094009148 4.116577624363472 4.13649752811272 0 0 0
37 4 5 0.0798 1.9803368522370233 3.3381302488733104 5.868989809929138 0 0 0
38 4 5 0.0798 1.5836746591632285 2.113824450608656 4.565296366278467 0 0 0
39 4 5 0.0798 1.7187888142348382 4.9640875444530845 4.266652913567635 0 0 0
40 4 5 0.0798 1.2749948310069232 3.792630136143904 3.138871329523269 0 0 0
84 9 3 0.8478 4.190571757241743 5.01903608953421 7.345743854186031 0 0 0
86 9 2 -0.4048 5.2459348461797 4.196315193521951 7.279024099551069 0 0 0
986 95 7 -0.08276671400000001 4.099379174261216 3.5858916190457237 3.322368699180306 0 0 0
987 95 7 -0.08276671400000001 3.708390480472729 5.560999698217248 3.052597728631383 0 0 0
985 95 7 -0.08276671400000001 5.107938654808493 3.586190071396039 1.24850293135881 0 0 0
983 95 8 -0.5033997099999999 4.986475696684291 4.683235224428339 2.4920901988908835 0 0 0
984 95 7 -0.08276671400000001 6.306974462380042 4.058996352211084 3.2631911640471136 0 0 0
982 95 7 -0.08276671400000001 5.946703309485621 5.896700239669452 3.0250108369850177 0 0 0
88 9 5 0.0798 6.838399959258822 4.461288373009005 5.992381071202749 0 0 0
82 9 1 0.0955 5.858128330988683 6.3105081531006375 6.65124859731146 0 0 0
90 9 5 0.0798 5.77564156642757 6.407748364328916 5.59321077605357 0 0 0
81 9 1 0.0955 6.3473933458793566 4.975569309360813 6.862986713163198 0 0 0
87 9 5 0.0798 7.109919532152963 5.05286215061184 7.702274640532776 0 0 0
140 14 5 0.0798 2.621481900405048 4.715018436531586 0.6156623768496138 1 0 1
132 14 1 0.0955 1.8155715171325424 4.769808570774026 23.134352880832573 1 0 0
988 95 7 -0.08276671400000001 4.872177070944932 5.320760699202561 0.9605767380917951 0 0 0
133 14 2 -0.4048 0.66936455588888 3.960406602552018 0.0968866609280235 1 0 1
769 70 1 0.1266165 0.8512600923240494 0.8385043341905815 0.6892773399036974 1 1 0
138 14 5 0.0798 1.494010285371443 6.696381262451625 0.6875874038113359 1 0 1
267 27 5 0.0798 3.386072876281241 1.545697463926087 7.564146585208259 0 1 0
775 70 5 0.0582835 1.643541566953545 1.3434647300580391 1.2622726269992794 1 1 0
136 14 2 -0.4048 23.11987966613531 6.050058413824236 23.182162646051175 0 0 0
865 78 1 0.1266165 5.817931660075067 0.2651484301948088 3.310109825755219 0 1 0
872 78 5 0.0582835 5.007450465557249 0.9361439293175383 3.6298449264692074 0 1 0
873 78 5 0.0582835 6.635298221494594 0.7680606267663869 3.7043999190317978 0 1 0
871 78 5 0.0582835 5.874182338481362 0.25840290177039843 2.203859460812298 0 1 0
83 9 2 -0.4048 4.456612413264153 6.2734206552415515 6.985840671713503 0 0 0
89 9 5 0.0798 6.520464744394997 7.1306365064733335 6.876764203962313 0 0 0
131 14 1 0.0955 1.274296400152359 6.2086010398488565 23.029130657583465 1 0 0
57 6 5 0.0798 7.977985970733153 0.10123507194993547 0.7825189644583554 0 0 1
380 37 5 0.0582835 8.075315181341887 0.1535730663912359 5.228432530476057 0 0 0
58 6 5 0.0798 7.878684239896885 1.8976563965641717 1.1402767096039201 0 0 1
381 37 5 0.0582835 9.387928168438679 0.9322947979175996 4.323042064227128 0 0 0
919 82 5 0.0582835 15.148751730043221 3.051423241811681 4.49783712936483 0 0 0
920 82 5 0.0582835 13.628925519566264 3.343359793504088 3.6331773988807723 0 0 0
376 37 4 -0.5800835 10.970502008460327 2.6015363294019935 5.700176198955636 0 0 0
913 82 1 0.1266165 14.38236254361712 2.561983954224546 3.9054676455938617 0 0 0
914 82 2 -0.3889835 14.827658215621955 1.9819831725861132 2.616628100009707 0 0 0
921 82 5 0.0582835 13.89383673245824 1.893571606656229 4.617821729373752 0 0 0
61 7 1 0.0955 10.290790260007194 4.334084556776171 2.983825946381456 0 0 0
1003 98 7 -0.08276671400000001 8.7077226192266 6.8242103765850235 4.738436493110335 0 0 0
67 7 5 0.0798 9.232096600686678 4.321602352966538 3.05599073878966 0 0 0
68 7 5 0.0798 10.68060931792343 4.282032216957718 3.969580258729872 0 0 0
62 7 1 0.0955 10.872364171728929 5.532314926368767 2.397028758913489 0 0 0
70 7 5 0.0798 11.31589748638026 6.247991228074602 3.1600058643246243 0 0 0
63 7 2 -0.4048 11.822960761037736 5.008153787995873 1.3764376257851323 0 0 0
66 7 2 -0.4048 10.856330611049383 3.164151195367488 2.330743157679168 0 0 0
379 37 5 0.0582835 9.709883790740047 0.163767530061861 5.945371248105009 0 0 0
64 7 3 0.8478 11.744320611095116 3.6201035915799804 1.404950740819429 0 0 0
382 37 5 0.0582835 11.054400697891925 5.221556537490737 6.07338773589667 0 0 0
375 37 3 0.7551165 9.866432468277619 2.8543663608867655 6.148002803893565 0 0 0
806 73 2 -0.3889835 13.810296696095246 6.733030257855701 3.7905997931674644 0 0 0
373 37 1 0.1266165 9.004443552703044 0.7874216232180536 5.327981224887735 0 0 0
378 37 1 0.1266165 10.623493793222838 5.011373040676086 7.036359151079179 0 0 0
809 73 2 -0.3889835 13.415740447947536 6.604356663512635 6.077995415893776 0 0 0
377 37 2 -0.3889835 9.578895908888956 4.022499365447693 6.833159669351428 0 0 0
374 37 2 -0.3889835 8.776882918845956 2.0061500444894134 6.016891450562398 0 0 0
812 73 5 0.0582835 14.235357887419868 7.047567334905818 1.8063795987443536 0 0 0
611 56 5 0.0582835 11.746441662237729 0.5397160771752919 1.9898084658039024 0 0 0
69 7 5 0.0798 10.091465525269463 5.995282633287624 1.8416426096986414 0 0 0
807 73 3 0.7551165 14.2303302486914 6.197007833704603 5.006680712580081 0 0 0
805 73 1 0.1266165 14.565210228091544 6.350076973112264 2.588446232434989 0 0 0
51 6 1 0.0955 8.158962607540493 1.0900672907695526 0.3876281861902468 0 0 1
56 6 2 -0.4048 9.610332550558782 1.1615502368933575 0.06562368966622541 0 0 1
811 73 5 0.0582835 14.348203015572752 5.347350753020465 2.26201456799359 0 0 0
177 18 5 0.0798 8.36968495847891 7.202709532026833 0.5339788920531295 0 0 1
810 73 1 0.1266165 13.862774630057837 5.996498151502545 7.317494274161193 0 0 0
814 73 5 0.0582835 14.863190985789263 6.200847224313758 7.510161604740256 0 0 0
816 73 5 0.0582835 13.785812323422883 4.92559727816582 7.31741859326708 0 0 0
179 18 5 0.0798 7.895650776145707 5.246200174540044 1.6591843225828453 0 0 1
65 7 4 -0.5484 12.378866257829579 2.829043178952188 0.6824144506502158 0 0 0
36 4 2 -0.4048 23.20085155487298 2.8180098187371305 5.656643370685897 -1 0 0
777 70 5 0.0582835 0.167728512599162 1.5490377398952941 0.2574050406160424 1 1 0
772 70 4 -0.5800835 22.69000774874826 1.520170016040732 2.8354023163617597 0 1 0
915 82 3 0.7551165 15.775683393614962 0.9533169135217907 2.711145320699841 0 0 0
916 82 4 -0.5800835 16.1744134783537 0.5932846782268218 3.8156612738974 0 0 0
33 4 2 -0.4048 22.908969636487925 4.489045842810159 4.162151289286774 -1 0 0
917 82 2 -0.3889835 16.23386471901236 0.36564417210875283 1.5641934694155486 0 0 0
425 41 2 -0.3889835 20.78089767945256 6.949837822910347 5.458276045644326 -1 0 0
34 4 3 0.8478 22.316841816808225 3.7175805772425794 5.04941258522401 -1 0 0
35 4 4 -0.5484 21.141875089426506 3.808898749329271 5.280072760483958 -1 0 0
422 41 2 -0.3889835 18.841686938246852 6.3712813329732105 6.526192094536959 -1 0 0
423 41 3 0.7551165 20.08816175271365 6.895678855124176 6.680647378106196 -1 0 0
428 41 5 0.0582835 17.13206546576245 5.843005020197212 7.498670868515347 -1 0 0
808 73 4 -0.5800835 15.202825716783513 5.432646720601845 5.090040915529154 0 0 0
42 5 1 0.0955 18.104978575149637 4.456277704328812 2.422371936153216 0 0 0
50 5 5 0.0798 17.30397133447172 4.341751244580205 3.0886122368343245 0 0 0
49 5 5 0.0798 18.764456096057238 3.5956310545928787 2.507429310845832 0 0 0
48 5 5 0.0798 18.348273840531032 6.253502751652393 3.5180892171783125 0 0 0
47 5 5 0.0798 19.84540289929013 5.373656444309731 3.255126818692393 0 0 0
41 5 1 0.0955 18.94694063467832 5.671361704456507 2.7771358577372354 0 0 0
46 5 2 -0.4048 19.03792690063304 6.406099022825991 1.5206493882217478 0 0 0
44 5 3 0.8478 18.389647210979202 5.757704339816915 0.5495033245191977 0 0 0
813 73 5 0.0582835 15.60879402076596 6.516971930995528 2.8579339915125814 0 0 0
43 5 2 -0.4048 17.81411294400276 4.618435957757915 0.992144825045012 0 0 0
771 70 3 0.7551165 22.683587738144162 0.3403328813158427 2.5600523027676427 0 1 0
347 34 5 0.0582835 18.443619134523487 1.3893021917842467 5.785301226496023 -1 1 0
348 34 5 0.0582835 17.177160719110386 2.414169580436127 6.462194334801909 -1 1 0
135 14 4 -0.5484 21.683826364135715 4.367718164016304 0.2796584638212002 0 0 1
134 14 3 0.8478 22.818181050644842 4.768287050700244 0.11685086552191912 0 0 1
431 41 5 0.0582835 22.578939438740576 7.320047147755037 4.57317301891644 -1 0 0
426 41 1 0.1266165 22.08675362271136 7.512036496731938 5.460049421298314 -1 0 0
778 70 5 0.0582835 20.563914232356062 0.8503725651188764 4.062015680868426 0 1 0
774 70 1 0.1266165 21.22421328816971 0.012978816994339611 4.423599151589712 0 1 0
780 70 5 0.0582835 21.79650439678928 0.30968298027864877 5.287761623214878 0 1 0
421 41 1 0.1266165 18.10162737321382 6.295116156185399 7.758363494237227 -1 0 0
346 34 5 0.0582835 18.967457092589036 2.8886489902046204 6.519278093687702 -1 1 0
342 34 1 0.1266165 18.215473778077023 2.083969530502876 6.600061869023995 -1 1 0
424 41 4 -0.5800835 20.559457237741807 7.293149412880475 7.751201756858831 -1 0 0
430 41 5 0.0582835 22.67312790793915 7.004426496429831 6.197010529445402 -1 0 0
19 2 5 0.0798 3.97870194087276 7.8783459393601785 2.3905473506119614 0 0 0
720 65 5 0.0582835 2.8588204004302398 9.918873559623764 5.140941696326258 0 0 0
714 65 1 0.1266165 2.075559410411702 9.228911752876432 5.469734279770116 0 0 0
718 65 5 0.0582835 2.693970544167706 8.439936507290064 5.797153238439788 0 0 0
719 65 5 0.0582835 1.4510654073588514 8.969070772076023 4.646959159661291 0 0 0
411 40 3 0.7551165 1.756028204410434 15.654600828620524 6.222459666873851 0 0 0
412 40 4 -0.5800835 0.8569151089721405 14.854008880681516 5.954803756472676 0 0 0
413 40 2 -0.3889835 3.013928815996243 15.280480884573203 6.6607519822446 0 0 0
414 40 1 0.1266165 3.3715312226154297 13.879362544380575 6.831544291045513 0 0 0
420 40 5 0.0582835 2.605132730758004 13.41685643455725 7.46995042975751 0 0 0
713 65 2 -0.3889835 1.2219765499435813 9.72974635462677 6.530018155443171 0 0 0
418 40 5 0.0582835 3.518786785803104 13.322038553671803 5.94365231191249 0 0 0
419 40 5 0.0582835 4.388989563835393 13.836502277940205 7.321487430818674 0 0 0
12 2 1 0.0955 4.247229217025951 8.907642850228527 2.195462491045396 0 0 0
13 2 2 -0.4048 3.2841495787353403 9.157522304558988 1.2030392277125628 0 0 0
16 2 2 -0.4048 5.219054323158297 8.97821929536584 0.04196477628010627 0 0 0
20 2 5 0.0798 4.333267788365086 9.390566261270475 3.1191126321791045 0 0 0
145 15 4 -0.5484 4.891239188155284 13.712870668024832 3.4570441157987974 0 0 0
144 15 3 0.8478 4.399902675022902 14.831840329363605 3.269675455322728 0 0 0
11 2 1 0.0955 5.59691680791554 8.80392451295112 1.436633007341615 0 0 0
17 2 5 0.0798 6.3808376800949524 8.039704479082161 1.6794568996446015 0 0 0
143 15 2 -0.4048 3.129463694308375 15.090516957965521 2.792364566176942 0 0 0
946 84 5 0.0582835 6.425858009913437 14.06984276651249 5.87959347821464 0 0 0
18 2 5 0.0798 6.162622669454693 9.731050852366673 1.6667939926616897 0 0 0
1008 98 7 -0.08276671400000001 7.048082597613277 8.329818054983212 4.32079614895026 0 0 0
947 84 5 0.0582835 7.232641607550318 12.919993555441627 4.715524035247695 0 0 0
942 84 1 0.1266165 7.265097352847736 13.349731033986227 5.759695325498767 0 0 0
948 84 5 0.0582835 7.082926893736058 12.636307126971532 6.54643995858023 0 0 0
725 66 2 -0.3889835 1.3181200466365954 11.057274957238237 2.7428076384507545 0 0 0
711 65 3 0.7551165 1.821172456723494 10.124995580536824 7.702877496252471 0 0 0
731 66 5 0.0582835 2.624138993506067 12.62997554047907 3.101592826515584 0 0 0
726 66 1 0.1266165 1.622341887118011 12.47559231556807 2.625662783326831 0 0 0
712 65 4 -0.5800835 3.017067947904676 10.071565170181003 7.901812680204774 0 0 0
730 66 5 0.0582835 0.923015283329038 13.092233808491397 3.217984873269428 0 0 0
30 3 5 0.0798 6.143659115242998 12.646208784167213 1.5746827092606634 0 0 1
22 3 1 0.0955 5.8804338982184 12.44639153828599 0.5013485432538699 0 0 1
732 66 5 0.0582835 1.574401944520874 12.880853362174204 1.620525139013862 0 0 0
23 3 2 -0.4048 4.514609929816201 12.215819529252306 0.3270228257663335 0 0 1
28 3 5 0.0798 6.950587658584169 14.293955373048668 0.15505025998405786 0 0 1
1005 98 7 -0.08276671400000001 9.579917840250626 7.988012542640229 5.833624224898741 0 0 0
372 36 5 0.0582835 12.670597397510068 9.348841820509874 4.087898020566072 0 0 0
1009 98 7 -0.08276671400000001 7.7780182980788934 9.65819677311261 5.3894845492113665 0 0 0
331 33 5 0.0582835 8.089131677221546 13.662181447540833 2.647047139112886 0 0 0
941 84 2 -0.3889835 8.473159108546866 14.078422333887255 5.973807848922111 0 0 0
938 84 2 -0.3889835 10.799851600014904 14.114173592231278 6.008064120578654 0 0 0
939 84 3 0.7551165 9.622995617092535 13.378836760699897 5.797186279873854 0 0 0
1004 98 8 -0.5033997099999999 8.636100632195957 8.467638040459226 4.574197177981128 0 0 0
1007 98 7 -0.08276671400000001 8.81512983112436 8.306187356616052 2.947279247539661 0 0 0
366 36 1 0.1266165 13.461865359239253 9.992718372412376 4.39104137723472 0 0 0
370 36 5 0.0582835 13.200473092226533 11.065588846472288 4.427455977749006 0 0 0
937 84 1 0.1266165 12.01847510335287 13.341188666678809 5.785079161909667 0 0 0
943 84 5 0.0582835 12.068205213320747 12.960434297696754 4.778097223983097 0 0 0
1006 98 7 -0.08276671400000001 9.702278105727466 9.580989944126365 3.959355497662772 0 0 0
940 84 4 -0.5800835 9.570125158592145 12.166556708482945 5.4679321592467724 0 0 0
335 33 5 0.0582835 10.633669451224268 9.795387348902704 1.3545152109555607 0 0 0
962 87 6 1 9.75462067817857 10.134941747907424 5.852636581260726 0 0 0
365 36 2 -0.3889835 14.000430535881812 9.629131702616542 5.731078661806611 0 0 0
364 36 4 -0.5800835 11.914412237005802 10.02519907286705 6.456392897222385 0 0 0
326 33 2 -0.3889835 10.159077242024486 13.43018318183475 2.9707571078774437 0 0 0
327 33 3 0.7551165 10.365828435912992 12.346204968830325 2.1337539297568853 0 0 0
328 33 4 -0.5800835 9.599539089349605 12.123655714724636 1.2029690282347956 0 0 0
329 33 2 -0.3889835 11.444461125752651 11.51313677580424 2.3520478849886013 0 0 0
330 33 1 0.1266165 11.5625830499636 10.375173489430962 1.3920780934073904 0 0 0
334 33 5 0.0582835 12.394704112846338 9.747311397090286 1.7643861277597808 0 0 0
945 84 5 0.0582835 12.218563521675678 12.535207916909417 6.565630060242525 0 0 0
325 33 1 0.1266165 9.03047246540079 14.253958057389026 2.7016011984834027 0 0 0
944 84 5 0.0582835 12.831130490285217 14.007924316246264 5.869261961021631 0 0 0
363 36 3 0.7551165 13.054843055910718 9.681224261244 6.733152823907824 0 0 0
371 36 5 0.0582835 14.324254285528779 9.871990763709213 3.7021285322190454 0 0 0
362 36 2 -0.3889835 13.453514770382498 9.36878402995852 7.976766609208309 0 0 0
129 13 5 0.0798 13.988973285727923 12.966796261317489 2.0687846072205263 0 0 0
127 13 5 0.0798 14.895361977463581 15.168805048643746 1.487315926492339 0 0 0
333 33 5 0.0582835 9.082601664371753 14.720997139445519 1.7073274767812192 0 0 0
332 33 5 0.0582835 8.949110897865218 14.948322308705734 3.523684820222706 0 0 0
122 13 1 0.0955 15.006263263478761 13.059914847513953 2.3530799733027803 0 0 0
123 13 2 -0.4048 15.005287036777705 12.90088000160302 3.807921070223432 0 0 0
130 13 5 0.0798 15.638506672953719 12.443116461872831 1.6980433264012849 0 0 0
336 33 5 0.0582835 11.821297903844412 10.685279656420773 0.3674169861430912 0 0 0
727 66 5 0.0582835 21.382057755599188 9.282458830520593 0.8842686252722827 -1 0 0
728 66 5 0.0582835 21.335501355370567 8.013713528574522 2.261949136118811 -1 0 0
295 30 4 -0.5484 16.05145311921093 9.17332546760879 1.8159481579404393 0 0 0
121 13 1 0.0955 15.380425932463249 14.634986876854835 2.2760842694175984 0 0 0
432 41 5 0.0582835 22.033104371087365 8.586710277755751 5.662814312235749 -1 0 0
126 13 2 -0.4048 15.517704942290683 15.061135759198113 3.6176478280458286 0 0 0
912 81 5 0.0582835 16.692544347895172 10.040591413783375 5.361935229253152 0 0 0
910 81 5 0.0582835 17.036382726667878 8.428097562367393 4.597988052259339 0 0 0
908 81 5 0.0582835 22.459163999258987 11.882524254399504 5.741206788644528 0 0 0
723 66 3 0.7551165 0.09244358887541883 10.740028609972342 2.3278731867084677 0 0 0
909 81 5 0.0582835 20.913955088423847 12.609114659072057 6.427890935427814 0 0 0
124 13 3 0.8478 15.289479545062788 14.035133651319132 4.4422608875990806 0 0 0
729 66 5 0.0582835 20.905005091621142 9.699442319660223 2.4456580110972452 -1 0 0
722 66 2 -0.3889835 22.972131169684992 9.384185978296037 2.422508675633789 -1 0 0
721 66 1 0.1266165 21.587304520182443 9.080928880969735 1.9760709836468877 -1 0 0
902 81 2 -0.3889835 20.710736640432874 10.808409904773377 5.409906841794858 0 0 0
905 81 2 -0.3889835 18.77118857680307 9.560743806275669 4.9130292089760115 0 0 0
906 81 1 0.1266165 17.40445005157285 9.14140445507487 5.347825637089452 0 0 0
76 8 2 -0.4048 20.203095987549606 13.683589193638774 3.847513104880132 0 0 0
71 8 1 0.0955 21.401832024814336 14.363233560358953 4.218863164361361 0 0 0
72 8 1 0.0955 21.842754393826727 15.207278545665215 3.0468170141770483 0 0 0
128 13 5 0.0798 16.384033894662025 14.668614243677807 1.8769858602068672 0 0 0
903 81 3 0.7551165 19.488655948537453 10.428474010594512 5.791806852584578 0 0 0
904 81 4 -0.5800835 19.005218314623527 10.810732035567447 6.8473021858467416 0 0 0
911 81 5 0.0582835 17.406793027045506 8.676194840608328 6.357193891323883 0 0 0
901 81 1 0.1266165 21.4411480211313 11.645386980752772 6.223913584779457 0 0 0
78 8 5 0.0798 22.16971683413265 13.673617135956611 4.474203714744002 0 0 0
75 8 4 -0.5484 19.00271844533455 13.605677567487072 1.9683524645608899 0 0 0
74 8 3 0.8478 19.947329877965007 14.027479969269523 2.5858586107721515 0 0 0
73 8 2 -0.4048 20.870060144893884 14.932214822729213 1.9802519577570994 0 0 0
293 30 2 -0.4048 18.13306451141852 9.591633990299831 0.8570173199879182 0 0 0
907 81 5 0.0582835 21.54455293836115 11.136368216657704 7.258145962436552 0 0 0
294 30 3 0.8478 16.778658617596797 9.29029703155665 0.8388376224131066 0 0 0
724 66 4 -0.5800835 22.532189898486493 11.540581093487429 1.9183416399586635 -1 0 0
80 8 5 0.0798 22.810502277888848 14.995009865920995 2.72312281230271 0 0 0
125 13 4 -0.5484 15.37900721957539 14.254298705327708 5.672826126083403 0 0 0
77 8 5 0.0798 21.254316188131472 14.96114058472114 5.160360541961639 0 0 0
279 28 5 0.0798 21.40447212316513 13.339610087801516 0.0698372299609061 -1 0 1
188 19 5 0.0798 5.725138871211792 16.401606568018416 6.07197067292367 0 0 0
190 19 5 0.0798 4.1251525946294185 17.89900382578503 6.98846960803262 0 0 0
182 19 1 0.0955 5.037859144991511 17.632773264734332 7.674085376374336 0 0 0
146 15 2 -0.4048 5.134759033410527 15.92643133332778 3.532079029868424 0 0 0
149 15 5 0.0798 2.2529949368443805 16.856719739925367 3.451114506586059 0 0 0
142 15 1 0.0955 2.9776081358118085 16.55602524669363 2.729592898846834 0 0 0
866 78 2 -0.3889835 5.674906199160982 22.1433182782186 3.7840982510278747 0 0 0
395 38 5 0.0582835 2.814793945121323 21.230909995009 2.337682879356671 0 -1 1
410 40 2 -0.3889835 1.616633535682992 16.973939434533477 6.117533468270435 0 0 0
150 15 5 0.0798 2.7928372829525228 16.839586597759656 1.709640955829323 0 0 0
141 15 1 0.0955 4.3391387952831595 17.090444123420113 3.2065863913136554 0 0 0
867 78 3 0.7551165 6.748725975290301 21.36764199342072 3.522062986617329 0 0 0
409 40 1 0.1266165 0.25994024239101327 17.399392361205578 5.6476079234380965 0 0 0
397 39 1 0.1266165 0.9854388050188795 21.49076592445499 4.958667360078805 0 0 0
403 39 5 0.0582835 1.054469796370274 22.558297511947863 4.663442820806393 0 0 0
398 39 2 -0.3889835 2.1833997753765177 20.637124914771086 4.973479495432055 0 0 0
399 39 3 0.7551165 3.190697711582396 21.101283054462492 5.7680502178847535 0 0 0
400 39 4 -0.5800835 3.067549457271814 22.12163217136886 6.396298276450335 0 0 0
401 39 2 -0.3889835 4.384080582930035 20.397061056657414 5.89066537065865 0 0 0
869 78 2 -0.3889835 6.68317826728247 20.09557752710745 3.940623058269479 0 0 0
147 15 5 0.0798 4.339168733411458 17.906785684533126 3.9128304581893767 0 0 0
148 15 5 0.0798 4.821652335459917 17.493484095253486 2.2623756406900895 0 0 0
416 40 5 0.0582835 0.14249916972413812 18.50468348403765 5.70969332566819 0 0 0
402 39 1 0.1266165 5.420058804408277 20.979686959749884 6.7969143331540485 0 0 0
408 39 5 0.0582835 5.73111645517465 21.955585574163948 6.3891498111046925 0 0 0
405 39 5 0.0582835 0.5125020777269587 21.489368991759726 5.87810521617904 0 0 0
406 39 5 0.0582835 5.012361456659385 21.101714676233534 7.842665797566775 0 0 0
407 39 5 0.0582835 6.214692410540648 20.29247546105063 6.720071313453933 0 0 0
417 40 5 0.0582835 0.09018127062678105 17.075298972607293 4.628880405264836 0 0 0
404 39 5 0.0582835 0.28731056998557214 21.06574380583624 4.309666005591926 0 0 0
390 38 1 0.1266165 3.1015571988949913 20.716183663022584 1.41079389307404 0 -1 1
396 38 5 0.0582835 2.8565549690956895 19.614010362169125 1.552565035090577 0 -1 1
394 38 5 0.0582835 4.116936135437591 20.68991157783818 1.1677079780855655 0 -1 1
389 38 2 -0.3889835 2.3333786780543164 21.306977859281858 0.3525514647911682 0 -1 1
189 19 5 0.0798 5.505125627166998 18.5941603679721 8.079449006801735 0 0 0
96 10 2 -0.4048 6.44521063970842 17.45115532051576 0.8079388354793445 0 0 0
868 78 4 -0.5800835 7.740218615236402 21.842189198982027 2.964130641012856 0 0 0
875 78 5 0.0582835 7.783297568047074 18.250966197396806 3.9801529648343683 0 0 0
181 19 1 0.0955 6.120780092371868 16.888213636565595 7.00387682992784 0 0 0
186 19 2 -0.4048 6.383428801583006 15.771465678111458 7.858109378392406 0 0 0
187 19 5 0.0798 7.013449709042138 17.5292935455264 6.826595082186152 0 0 0
94 10 3 0.8478 7.640730477679603 17.248714357754068 0.21383680766915933 0 0 0
515 48 5 0.0582835 13.939027513132443 22.501104087987578 23.187713055612022 0 -1 0
606 56 1 0.1266165 11.653069609247943 22.947119471638793 2.6473741652687757 0 -1 0
605 56 2 -0.3889835 12.033574025966198 0.10518182961645627 3.967420602761131 0 0 0
870 78 1 0.1266165 7.897454487390275 19.288254620740943 3.661590341055088 0 0 0
874 78 5 0.0582835 8.821549595490703 19.598559337429037 4.1649450758944235 0 0 0
876 78 5 0.0582835 8.056847166222196 19.333580169518505 2.5570790488363384 0 0 0
612 56 5 0.0582835 12.260048136825072 22.080797634938016 2.256770325587646 0 -1 0
610 56 5 0.0582835 10.575082033526604 22.70284283425218 2.5975204969727863 0 -1 0
233 24 2 -0.4048 15.34817114909738 17.913511894274528 2.397865412858344 0 -1 0
603 56 3 0.7551165 11.796333619409598 22.36127854724851 4.940493785263957 0 -1 0
232 24 1 0.0955 14.941017927569257 18.611071307018207 3.54173660762008 0 -1 0
604 56 4 -0.5800835 11.325935470286142 21.238771817381576 4.671112831414587 0 -1 0
234 24 3 0.8478 15.146212219342598 18.615322255298075 1.2913930020771525 0 -1 0
231 24 1 0.0955 14.436709097997811 19.960530182606377 3.0256500867873477 0 -1 0
238 24 5 0.0798 13.403326635030233 20.083189211565504 3.4455897984506096 0 -1 0
614 57 2 -0.3889835 14.187326755615157 19.109467079698433 6.655417165683726 0 0 0
673 62 1 0.1266165 11.378885323249925 16.946963568616603 4.8208478756110384 0 0 0
674 62 2 -0.3889835 11.603984860184493 16.0510673672183 3.703636525680976 0 0 0
675 62 3 0.7551165 11.590579960340854 16.624675212461412 2.4061129266365975 0 0 0
676 62 4 -0.5800835 11.406045994494077 17.815041289607365 2.201364523992096 0 0 0
677 62 2 -0.3889835 11.817870477116514 15.746575765298909 1.3710450861214223 0 0 0
679 62 5 0.0582835 10.333705896679517 17.3959254748467 4.66796348333007 0 0 0
680 62 5 0.0582835 11.403134928513653 16.362759506837826 5.731925992987476 0 0 0
681 62 5 0.0582835 12.088549934950308 17.77453511510552 4.843006607450869 0 0 0
236 24 2 -0.4048 14.614287553512412 19.835121375658225 1.5983455893453546 0 -1 0
620 57 5 0.0582835 13.318396902626423 17.217170698897284 6.829669542245209 0 0 0
240 24 5 0.0798 14.098035406305655 18.0661837465725 3.8627262429814535 0 -1 0
239 24 5 0.0798 15.630281113872789 18.68922271089196 4.39848027388352 0 -1 0
682 62 5 0.0582835 12.529181458920744 17.225746631535436 23.188210786292856 0 0 -1
678 62 1 0.1266165 11.800834124213658 16.38169561484675 0.060068001844931856 0 0 0
684 62 5 0.0582835 10.811120683759906 16.73360091002143 23.05808154937813 0 0 -1
602 56 2 -0.3889835 12.151037700263265 22.714874237351417 6.2423662144388015 0 -1 0
607 56 5 0.0582835 12.378914587641885 20.740266369547356 6.952107503290816 0 -1 0
10 1 5 0.0798 10.336750643921913 20.634027139481233 1.4975356971596623 0 -1 1
613 57 1 0.1266165 14.34519267506682 17.669236907776167 6.861620646027286 0 0 0
601 56 1 0.1266165 11.95040654462391 21.744508780037123 7.296819751226653 0 -1 0
609 56 5 0.0582835 10.874263204739867 21.587832323685426 7.447379805202467 0 -1 0
3 1 2 -0.4048 8.64090159153538 20.204741741531336 0.5017262806762428 0 -1 1
2 1 1 0.0955 10.033018089805239 20.148350787003444 0.5657493123096313 0 -1 1
617 57 2 -0.3889835 15.087887621574717 21.204473876891527 6.4825908824691485 0 0 0
237 24 5 0.0798 15.059602373605584 20.751296606500254 3.3999921620709808 0 -1 0
991 96 7 -0.08276671400000001 8.689678060693993 19.122762621045766 7.810226254468191 0 0 0
619 57 5 0.0582835 14.851343499452128 17.41264652405038 7.77977214541613 0 0 0
95 10 4 -0.5484 8.609621169665195 16.777725186971445 0.7705246540480658 0 0 0
770 70 2 -0.3889835 0.10975235531604016 23.07717294255906 1.492174627689621 1 0 0
924 82 5 0.0582835 18.070637682585318 22.887496818333865 2.3967548470182845 0 -1 0
773 70 2 -0.3889835 21.957304101943663 22.6650902966379 3.3020629886102304 0 0 0
623 57 5 0.0582835 15.886415050322189 23.148008445659087 6.2904601178835415 0 0 0
79 8 5 0.0798 21.685407233806476 16.265867885909636 3.3163494918043743 0 0 0
760 69 4 -0.5800835 0.3503129396541327 17.878387753262402 1.4721226223079382 0 0 0
415 40 5 0.0582835 22.706162373858568 16.93077710962322 6.341494228332678 -1 0 0
621 57 5 0.0582835 14.935177121231797 17.2279026891499 5.997739966233653 0 0 0
918 82 1 0.1266165 17.248780627425955 22.54705061735031 1.7641158289022763 0 -1 0
922 82 5 0.0582835 16.809212882640868 21.695414736329965 2.296687638985034 0 -1 0
958 85 5 0.0582835 18.073715820397826 16.41193465093103 7.131959079924093 0 0 0
766 69 5 0.0582835 22.602765683259694 20.317598515697746 1.7083235716147618 -1 0 0
768 69 5 0.0582835 21.481904150178337 19.23486899632399 2.561250074408792 -1 0 0
762 69 1 0.1266165 21.605030175698065 19.810470391874283 1.639948162152473 -1 0 0
767 69 5 0.0582835 20.709355207592242 20.512509264276694 1.4875582747808482 -1 0 0
835 75 5 0.0582835 19.35053769589055 16.960243120496706 1.8175682844271874 0 0 0
836 75 5 0.0582835 18.087106449841272 17.40589978024353 2.914534411532942 0 0 0
831 75 3 0.7551165 18.83948309186874 18.81890614986594 23.24845581270683 0 0 -1
779 70 5 0.0582835 20.395374959286205 22.56836198673244 4.730752704641871 0 0 0
829 75 1 0.1266165 18.382417144098362 17.384052233400844 1.8616436350363084 0 0 0
830 75 2 -0.3889835 18.455941043805986 18.75056047974754 1.3153463557690408 0 0 0
837 75 5 0.0582835 17.655164990874525 16.788574027572658 1.4129074144289338 0 0 0
1012 99 7 -0.08276671400000001 21.076472339636773 19.82329646419427 4.620243760157884 -1 0 0
1013 99 7 -0.08276671400000001 20.387565253614603 18.00003391304123 4.347230542659631 -1 0 0
1010 99 7 -0.08276671400000001 19.104623084747317 20.389111506705845 5.676013163391771 -1 0 0
1011 99 8 -0.5033997099999999 20.040485597661057 19.048624796000432 5.60544002974587 -1 0 0
1015 99 7 -0.08276671400000001 18.445139080454588 18.683374317526642 5.399452605537409 -1 0 0
1016 99 7 -0.08276671400000001 20.16532002710751 17.71088968045745 6.517132214842384 -1 0 0
1014 99 7 -0.08276671400000001 20.842447155614188 19.411244442755745 7.000471385605116 -1 0 0
615 57 3 0.7551165 15.30198252858851 19.919519850325827 6.6686426523263655 0 0 0
618 57 1 0.1266165 16.23159116363775 22.088750276152666 6.5154126398134435 0 0 0
622 57 5 0.0582835 17.023379427126326 21.721945297034466 5.751152869393276 0 0 0
616 57 4 -0.5800835 16.423354990157495 19.4495557879617 6.891106456809719 0 0 0
964 89 6 1 18.54508405676337 19.382380338045202 7.445966267161834 0 0 0
319 32 5 0.0582835 20.330645008689178 22.74671067686677 8.046409146102011 0 0 0
763 69 5 0.0582835 0.4936558111106072 15.335142962267838 0.39201328767209537 0 0 0
759 69 3 0.7551165 22.727410684180636 17.924091321510822 0.6079374461739887 -1 0 0
923 82 5 0.0582835 17.641788602764947 22.215671772873513 0.7937248972482515 0 -1 0
761 69 2 -0.3889835 21.657495470749478 18.852040128817492 0.5860155908912935 -1 0 0
85 9 4 -0.5484 3.119903251644407 4.585849250796896 7.673181477061727 0 0 0
269 27 5 0.0798 1.4458654114751799 2.6673108774873935 8.407645666902791 0 1 0
263 27 2 -0.4048 2.235750031626534 2.4304388269570913 10.332092863201657 0 1 0
261 27 1 0.0955 3.063678420364662 1.1573363973746813 8.498561097575557 0 1 0
262 27 1 0.0955 1.7642114378218825 1.8298753490682682 9.065476586948405 0 1 0
666 61 1 0.1266165 1.4676053477897317 6.710798328640095 9.185017150428383 0 0 0
264 27 3 0.8478 3.4983173780411008 2.171357310861748 10.503619333375585 0 1 0
436 42 4 -0.5800835 4.027885882943812 6.115276292878694 14.561137942932096 0 0 0
437 42 2 -0.3889835 4.865855179849945 6.812790126546804 12.562532626202977 0 0 0
438 42 1 0.1266165 4.058090452046843 5.768977890136687 11.93781151243817 0 0 0
442 42 5 0.0582835 3.0000309173747164 5.808335005484179 12.104541849810012 0 0 0
443 42 5 0.0582835 4.099897402990784 5.867740585114426 10.848966754466778 0 0 0
444 42 5 0.0582835 4.468351379841183 4.773888400130267 12.239932886461023 0 0 0
265 27 4 -0.5484 4.1328323394539 2.562346195685867 11.497583387986154 0 1 0
446 43 2 -0.3889835 7.040009845294811 4.1249780971803585 14.343668479627466 0 0 0
230 23 5 0.0798 3.7675429581997233 3.542769139380687 14.183377841945726 0 0 0
435 42 3 0.7551165 4.7624678136971434 6.905466169837415 13.950451155135767 0 0 0
635 58 5 0.0582835 0.8140116541165924 0.33681677426685475 13.722454952724727 0 0 0
671 61 5 0.0582835 0.8062938168881014 5.980163588646971 8.741567147322526 0 0 0
452 43 5 0.0582835 6.184730758445366 2.535137224970566 13.384611101435846 0 0 0
636 58 5 0.0582835 1.4585629294170623 0.9624155263014088 12.153803281481757 0 0 0
228 23 5 0.0798 4.147448508950009 1.2676692952574213 14.253072652641599 0 0 0
453 43 5 0.0582835 6.765739164816282 3.8777207495997983 12.31669287826321 0 0 0
445 43 1 0.1266165 7.010624460344218 3.2487944044141366 13.218593268867906 0 0 0
434 42 2 -0.3889835 5.502215410400721 7.869800989461781 14.558652832201672 0 0 0
266 27 2 -0.4048 4.084142321990048 1.4588089925764465 9.524663421672415 0 1 0
108 11 5 0.0798 6.537641742392843 1.9466942180781988 8.64079541809711 0 0 0
462 44 1 0.1266165 0.1252280126750948 3.842178879747989 13.26625944616261 0 0 0
467 44 5 0.0582835 0.6778826986062775 3.2373108742825076 13.944868721028012 0 0 0
665 61 2 -0.3889835 1.1969745884257712 7.146813619989994 10.611140227679343 0 0 0
107 11 5 0.0798 6.730539567246644 1.5301067845098495 10.403765870164056 0 0 0
101 11 1 0.0955 7.158121185784142 1.9658915345686356 9.516466449555015 0 0 0
106 11 2 -0.4048 7.572089722832991 3.2402388401107087 10.00761306161648 0 0 0
468 44 5 0.0582835 0.7699629299951166 4.6952448140533845 12.933855143505887 0 0 0
670 61 5 0.0582835 2.412638762244031 6.189591573253923 9.159315238417593 0 0 0
243 25 2 -0.4048 6.753347772204639 7.080266230634523 9.552374423811829 0 0 0
244 25 3 0.8478 7.749091711598741 7.356479765163512 10.389768293853555 0 0 0
630 58 1 0.1266165 1.3184356313523435 0.05247320180300502 12.75464476724889 0 0 0
270 27 5 0.0798 1.052154852468506 1.0121981995028928 9.247269667411718 0 1 0
268 27 5 0.0798 2.9402085573515175 0.12563322842830232 8.412542675921866 0 1 0
229 23 5 0.0798 4.410931667920851 3.7988386069040567 15.67752340740076 0 0 0
222 23 1 0.0955 3.7602754450016653 3.08547052120754 15.166879757178291 0 0 0
851 76 5 0.0582835 12.647856060951 2.9453597687671236 8.144856923330604 0 0 0
852 76 5 0.0582835 14.275680654033522 2.228217141445761 7.7813194590127885 0 0 0
384 37 5 0.0582835 11.442295240110825 4.698356385991367 7.68905782708999 0 0 0
383 37 5 0.0582835 10.154093045471548 5.869194187419544 7.496548527102489 0 0 0
449 43 2 -0.3889835 7.750032618397378 5.97878866122948 15.410636751891182 0 0 0
447 43 3 0.7551165 7.817209702649619 5.21842984288648 14.2399040306056 0 0 0
245 25 4 -0.5484 8.77151689050316 6.656971772954531 10.582563647188755 0 0 0
450 43 1 0.1266165 8.528317710288238 7.180302963103523 15.4680844679624 0 0 0
850 76 5 0.0582835 12.793199171441675 1.164630409926011 8.05384036283698 0 0 0
846 76 1 0.1266165 13.315442725056728 2.114275252111529 8.323329982735878 0 0 0
110 11 5 0.0798 8.777979857087763 0.9357649068633161 8.289385960677444 0 0 0
845 76 2 -0.3889835 13.52250132774039 2.0754807418938945 9.784044765184708 0 0 0
102 11 1 0.0955 8.464086118484156 1.112500986497091 9.351553905257775 0 0 0
448 43 4 -0.5800835 8.495400974989504 5.480131899160994 13.246504543817847 0 0 0
451 43 5 0.0582835 7.968543711454452 2.8394789755028444 13.056064934865622 0 0 0
103 11 2 -0.4048 9.513759174243614 1.9721234283734794 9.765432389641393 0 0 0
104 11 3 0.8478 8.964898135689042 3.1948469556628427 10.139694612256184 0 0 0
105 11 4 -0.5484 9.691552458461974 4.1055245585949365 10.546724136077831 0 0 0
843 76 3 0.7551165 14.531889890730119 1.1476198009099032 10.251567263154683 0 0 0
961 86 6 1 9.945532134554915 5.728020885656427 11.73641056758807 0 0 0
996 97 7 -0.08276671400000001 11.663381548780736 4.982307232490554 12.78804700309279 0 0 0
1001 97 7 -0.08276671400000001 12.275322618972888 5.423773015557654 11.166243077159127 0 0 0
997 97 8 -0.5033997099999999 12.010128935780646 6.493277504786481 12.356179695937895 0 0 0
998 97 7 -0.08276671400000001 12.733061553866516 6.831926788829112 13.787787375909602 0 0 0
815 73 5 0.0582835 13.21149592542771 6.370757423534387 8.106559855397983 0 0 0
842 76 2 -0.3889835 14.66580174025489 1.1121144768364344 11.620551531864269 0 0 0
877 79 1 0.1266165 14.758969448874195 4.360094758849531 13.256660957591341 0 0 0
885 79 5 0.0582835 13.919449057692283 3.6990462600038816 13.012098913951732 0 0 0
455 43 5 0.0582835 9.581064936247019 7.041574733821482 15.275994649980301 0 0 0
883 79 5 0.0582835 14.365375738022127 4.895419639871676 14.160924066339543 0 0 0
1000 97 7 -0.08276671400000001 13.484214727839088 7.024709786503722 12.06804456527995 0 0 0
659 60 5 0.0582835 10.784604531603973 0.060149741559769154 12.154945331771101 0 1 0
926 83 2 -0.3889835 9.955681832108308 1.8163758192713841 14.293859650309145 0 1 0
929 83 2 -0.3889835 8.234544429465917 0.26858913333788853 14.287942333103754 0 1 0
932 83 5 0.0582835 11.686080566623607 3.1642167511252564 14.351797245177417 0 1 0
927 83 3 0.7551165 9.490914692307735 0.6103562844599462 14.70596317179876 0 1 0
925 83 1 0.1266165 11.303616334747293 2.2186317990803244 14.72652507137604 0 1 0
931 83 5 0.0582835 12.084344927219624 1.493935026571491 14.445130520969713 0 1 0
880 79 4 -0.5800835 14.702694140656225 2.5199490637973745 15.17312464964172 0 0 0
109 11 5 0.0798 8.33421586081679 0.12534872087826424 9.8506744555279 0 0 0
848 76 5 0.0582835 15.832033008934356 0.2688353709880115 13.2169817621053 0 0 0
999 97 7 -0.08276671400000001 10.698817643189626 7.186073294611342 13.02146687635234 0 0 0
844 76 4 -0.5800835 15.171434661607467 0.47226317986656685 9.438836583580715 0 0 0
841 76 1 0.1266165 15.669472695645371 0.18520769146653646 12.11599685833503 0 0 0
466 44 5 0.0582835 22.512815441864806 4.292751194498583 13.794412517562868 -1 0 0
458 44 2 -0.3889835 22.078187348076074 3.2686759091013577 9.950454427749422 -1 0 0
461 44 2 -0.3889835 23.00098844568481 3.109305163448529 12.022364870538702 -1 0 0
884 79 5 0.0582835 15.013902983297534 4.870450825380386 12.341436548901449 0 0 0
879 79 3 0.7551165 15.795656567734405 2.676378991504709 14.620016229055494 0 0 0
460 44 4 -0.5800835 22.256961772780915 5.074310836746803 11.301108147128271 -1 0 0
465 44 5 0.0582835 20.539519678111553 4.540956303578683 9.30904648144728 -1 0 0
427 41 5 0.0582835 17.83412080679199 7.264856829867867 8.092421867409357 -1 0 0
341 34 2 -0.3889835 18.442798478365795 1.4287985481263932 7.955100220624505 -1 1 0
878 79 2 -0.3889835 15.968660346236971 3.60871643180582 13.592348640454368 0 0 0
429 41 5 0.0582835 18.656220017920596 5.729073053755458 8.504690191518346 -1 0 0
464 44 5 0.0582835 21.151073346701757 3.509110001342721 8.090183386677523 -1 0 0
457 44 1 0.1266165 21.449646816000627 4.11124194877409 8.954806854947924 -1 0 0
459 44 3 0.7551165 22.439430299869304 3.8693225964720797 11.104068958298974 -1 0 0
463 44 5 0.0582835 22.183547142050806 4.861457662617669 8.612581477028622 -1 0 0
339 34 3 0.7551165 18.3080804119099 2.160673730591476 9.108965582348429 -1 1 0
340 34 4 -0.5800835 18.01134839963529 3.3774412724510388 9.107717276502836 -1 1 0
545 51 2 -0.3889835 18.238032682212506 6.930280259400985 11.591876252989547 0 0 0
552 51 5 0.0582835 19.666033050058 5.599044408942304 10.986699461559267 0 0 0
550 51 5 0.0582835 20.35325105686779 6.898491256653371 12.089703152506024 0 0 0
546 51 1 0.1266165 19.45529924504624 6.238703349934225 11.876295304720689 0 0 0
551 51 5 0.0582835 19.376075962119128 5.469400868081506 12.700095101376986 0 0 0
113 12 2 -0.4048 21.36628843252727 23.213672542732873 13.360402545801241 0 -1 0
345 34 5 0.0582835 19.144952544145724 2.974239984517023 11.60135825381452 -1 1 0
337 34 1 0.1266165 18.34554902396053 2.2841473704671484 11.515362255869647 -1 1 0
343 34 5 0.0582835 17.34016186245239 2.813161867676872 11.529445528793698 -1 1 0
338 34 2 -0.3889835 18.51007477206119 1.4568738601527764 10.309882019021321 -1 1 0
344 34 5 0.0582835 18.54519368474797 1.6722453673644107 12.423678252319018 -1 1 0
114 12 3 0.8478 20.75597324772989 0.5456151248469224 14.471568868593168 0 0 0
881 79 2 -0.3889835 16.972732290882426 1.9834633087962497 14.913459474278781 0 0 0
116 12 2 -0.4048 19.579427478102073 23.23603038182381 14.817531415237932 0 -1 0
847 76 5 0.0582835 16.57889090080271 0.2739898183865656 11.57655653845412 0 0 0
115 12 4 -0.5484 21.29762140603828 1.464888194921793 15.076397478729394 0 0 0
710 65 2 -0.3889835 0.9210708400920182 10.572841039087042 8.611245789968923 0 0 0
715 65 5 0.0582835 2.3349425617149135 11.737866436211279 9.646951343216495 0 0 0
663 61 3 0.7551165 0.11203611095984778 7.930699321009874 10.89706099847864 0 0 0
662 61 2 -0.3889835 0.0550740943424686 8.202242376490052 12.178527709964664 0 0 0
672 61 5 0.0582835 1.6419469501064363 7.594737627573348 8.571810791393101 0 0 0
249 25 5 0.0798 4.78811767710654 7.750011521006795 9.810815716252096 0 0 0
250 25 5 0.0798 5.835949696231751 8.65097093704646 8.604917076065677 0 0 0
242 25 1 0.0955 5.777876822805963 8.125880175914178 9.579306524737941 0 0 0
247 25 5 0.0798 5.634226550016087 9.082990245273939 11.582995867840893 0 0 0
241 25 1 0.0955 6.316905220953727 9.112452760758305 10.628995583305167 0 0 0
248 25 5 0.0798 6.457546968364463 10.148232261143972 10.318966865961675 0 0 0
717 65 5 0.0582835 2.1200807091610114 10.059875655712432 10.32584871438611 0 0 0
709 65 1 0.1266165 1.5706037506652193 10.961158504888774 9.83944730900624 0 0 0
716 65 5 0.0582835 0.9218449128255162 11.333815471110094 10.633630307823724 0 0 0
185 19 4 -0.5484 5.457894404096175 15.086402412441634 9.852710748760652 0 0 0
898 80 5 0.0582835 5.597614272756585 11.431538998936553 14.03045640641886 0 0 0
288 29 5 0.0798 3.579996207067321 14.979441601435887 14.738177014429032 0 0 0
283 29 2 -0.4048 2.361075964353314 12.756359610154586 12.773745361142998 0 0 0
281 29 1 0.0955 2.752752879947396 14.25689942388102 14.501908733169822 0 0 0
282 29 1 0.0955 2.3933490910160486 14.16606228169848 13.075326697929516 0 0 0
892 80 4 -0.5800835 5.826372316554164 13.957517499532957 13.57750586624754 0 0 0
284 29 3 0.8478 2.663216278223103 12.033266912773131 13.882509722304082 0 0 0
285 29 4 -0.5484 2.718630253277487 10.8208109603809 13.86566819686675 0 0 0
286 29 2 -0.4048 2.9192710657009813 12.865893568471565 14.92498046009812 0 0 0
790 71 5 0.0582835 0.991173798029342 9.811362709271268 15.476392160029238 0 0 0
246 25 2 -0.4048 7.527994647255774 8.52664773170888 11.020078198538792 0 0 0
290 29 5 0.0798 3.1998867900507553 14.592805648281464 12.456485300263308 0 0 0
287 29 5 0.0798 1.8443392069879887 14.549796578289222 15.002938780894086 0 0 0
894 80 1 0.1266165 6.5162752504016535 11.676174740780672 14.5762643475868 0 0 0
891 80 3 0.7551165 6.9811502265806915 13.70249923591043 13.334737859839064 0 0 0
893 80 2 -0.3889835 7.454019653699558 12.482536588170044 13.802938954366578 0 0 0
900 80 5 0.0582835 6.228945505239692 12.275137353810267 15.453802774410287 0 0 0
899 80 5 0.0582835 6.982237202961651 10.743843347601294 14.908410254641446 0 0 0
488 46 5 0.0582835 0.9059325645068312 14.186580469674618 9.068023794444507 1 0 0
289 29 5 0.0798 1.5323786992452177 14.758754330101407 12.77656824445062 0 0 0
481 46 1 0.1266165 1.3386953933843748 14.920037180720417 9.75735134994679 1 0 0
487 46 5 0.0582835 0.9249481691512454 14.823447239743768 10.719734801468192 1 0 0
489 46 5 0.0582835 2.4639118795603614 14.682358727441235 9.72461019414222 1 0 0
168 17 5 0.0798 7.379307629377863 12.246407271995567 10.587013446375359 0 0 0
165 17 4 -0.5484 9.4024085411219 10.18023543932542 7.901961101802471 0 0 0
456 43 5 0.0582835 8.160281813039392 7.804480656445982 14.70145348010854 0 0 0
1002 97 7 -0.08276671400000001 11.297348996739728 7.519110762845198 11.273665889620265 0 0 0
752 68 5 0.0582835 11.9802800579308 10.537919234159302 12.201081186182211 0 0 0
504 47 5 0.0582835 9.774461955842419 15.327367259718612 8.190242983650446 0 0 0
890 80 2 -0.3889835 7.895131614316079 14.456556800493468 12.656959702551726 0 0 0
499 47 5 0.0582835 14.098118316571952 12.63309907179205 7.82506343908359 0 0 0
494 47 2 -0.3889835 13.59014296481023 14.493712538100459 8.929278979653658 0 0 0
167 17 5 0.0798 8.221101327236887 13.627170278421426 10.190810760290194 0 0 0
361 36 1 0.1266165 12.523664914044542 9.37097080181574 9.124348539362957 0 0 0
369 36 5 0.0582835 12.332293860052769 10.41684127846503 9.483156573851215 0 0 0
367 36 5 0.0582835 11.547469950038169 8.81358146406897 8.899771960473307 0 0 0
166 17 2 -0.4048 8.235689371574388 11.896627255191481 8.9079753088331 0 0 0
161 17 1 0.0955 8.292929726680413 12.515692281506324 10.126553523488766 0 0 0
162 17 1 0.0955 9.363061734570671 11.859183190798573 10.947385485370841 0 0 0
163 17 2 -0.4048 9.899665319918347 10.83239210451883 10.094601742547908 0 0 0
164 17 3 0.8478 9.185761196681353 10.914626014893487 8.897606523668061 0 0 0
169 17 5 0.0798 10.187219914791593 12.623413927038504 11.088055397402593 0 0 0
170 17 5 0.0798 9.03450698501504 11.712132857847 11.972470990491441 0 0 0
368 36 5 0.0582835 12.953498463533434 8.904872975317575 10.022478891131614 0 0 0
496 47 4 -0.5800835 11.54764679369599 13.37914593931173 8.996203156417222 0 0 0
209 21 5 0.0798 10.713853283257707 14.362000494999172 12.29949791862654 0 0 0
207 21 5 0.0798 12.756332502314313 13.926447146858907 11.756622668592007 0 0 0
202 21 1 0.0955 11.261702476819623 14.39072614860466 13.223441428868012 0 0 0
210 21 5 0.0798 10.824109304655314 13.589607230613117 13.800297617841922 0 0 0
201 21 1 0.0955 12.665281866451975 14.330179954168418 12.771517570345747 0 0 0
495 47 3 0.7551165 12.21412218005839 14.409550087543927 9.014550518093195 0 0 0
753 68 5 0.0582835 12.634499067363423 9.376774480386894 13.36389374528615 0 0 0
745 68 1 0.1266165 12.702588934368034 10.376311478900657 12.968558094137691 0 0 0
746 68 2 -0.3889835 14.036651335853037 10.720971811818996 12.385467401559339 0 0 0
751 68 5 0.0582835 12.485784547667553 10.975447297835666 13.896809808617501 0 0 0
748 68 4 -0.5800835 15.005859054159412 10.392456598582491 14.456064486899479 0 0 0
493 47 1 0.1266165 14.198529521277976 13.138933088327532 8.816115704787544 0 0 0
217 22 5 0.0798 15.328854237390805 14.11660007717004 12.872839891836659 0 0 0
208 21 5 0.0798 13.139008471046337 13.577810555581172 13.423890458690268 0 0 0
501 47 5 0.0582835 13.798653803161885 12.524900622569117 9.670195022784375 0 0 0
747 68 3 0.7551165 15.12526412956903 10.682791034231293 13.269743528582673 0 0 0
500 47 5 0.0582835 15.254726912881772 13.284233509047413 8.87579078423976 0 0 0
206 21 2 -0.4048 13.297217134710227 15.569349964452595 13.089525925665617 0 0 0
959 85 5 0.0582835 17.23511870941431 14.94337831453294 7.500118837155315 0 0 0
664 61 4 -0.5800835 22.5361663079959 8.333360113417234 10.08965897668799 -1 0 0
667 61 5 0.0582835 21.224348333802013 8.606924072263215 12.505584573525471 -1 0 0
661 61 1 0.1266165 22.250142735415523 9.019182392871148 12.679670745940443 -1 0 0
668 61 5 0.0582835 22.2701401959783 9.09084875787323 13.795561486154938 -1 0 0
669 61 5 0.0582835 22.410152945624297 10.120613632469029 12.356020003283378 -1 0 0
543 51 3 0.7551165 18.311716227043465 8.019398671092944 10.75817775078639 0 0 0
544 51 4 -0.5800835 19.36460352775164 8.396726799463785 10.280918367338192 0 0 0
963 88 6 1 20.8612433640468 8.721201021955324 9.138382888054577 0 0 0
542 51 2 -0.3889835 17.15310802488976 8.641978750545558 10.456063558102104 0 0 0
547 51 5 0.0582835 17.35789706312188 9.50960904202441 8.492497541183386 0 0 0
541 51 1 0.1266165 17.14533298050304 9.786374795888111 9.577600836054373 0 0 0
548 51 5 0.0582835 16.182902284131213 10.266042405742796 9.424736438748589 0 0 0
157 16 5 0.0798 21.936088036665804 14.038869219420114 11.67914514630469 0 0 0
549 51 5 0.0582835 17.863227080854045 10.505096101765496 10.04143663604386 0 0 0
749 68 2 -0.3889835 16.334386431737297 11.032476574027816 12.624396779412244 0 0 0
216 22 2 -0.4048 16.048802985965047 15.076876761262993 11.383979957477397 0 0 0
211 22 1 0.0955 16.310808408903327 14.427320134971902 12.582403412101675 0 0 0
155 16 4 -0.5484 20.883854078832616 10.66488757391633 9.494197191255218 0 0 0
156 16 2 -0.4048 21.738765151333656 12.691295821351629 10.094702104241792 0 0 0
154 16 3 0.8478 20.815103773837112 11.75437900546055 10.063762933466696 0 0 0
152 16 1 0.0955 19.88973726846532 13.389126693042417 11.323535284576941 0 0 0
153 16 2 -0.4048 19.711178029821983 12.086375469351795 10.741104804854661 0 0 0
159 16 5 0.0798 19.871237381766978 13.272354222690213 12.385329876958101 0 0 0
151 16 1 0.0955 21.235231804826952 13.802198335410312 10.852730467725097 0 0 0
160 16 5 0.0798 19.103229480740662 14.096478486920073 10.916824657018651 0 0 0
158 16 5 0.0798 21.25645160647567 14.746944962146335 10.335686116650937 0 0 0
972 93 7 -0.08276671400000001 20.657868254802978 11.277598848115117 13.965084945529014 -1 0 0
970 93 7 -0.08276671400000001 20.50221469171568 13.44494629744249 14.958455354507201 -1 0 0
969 93 8 -0.5033997099999999 21.434010571240425 12.148304216100307 15.147561264501633 -1 0 0
750 68 1 0.1266165 17.57301309722343 11.039165734872247 13.45239708553446 0 0 0
968 93 7 -0.08276671400000001 22.460311907882655 12.770992388571885 14.035289741744938 -1 0 0
218 22 5 0.0798 16.860778991120387 13.445851605962744 12.614759485921523 0 0 0
756 68 5 0.0582835 17.64909505943657 11.791130404228596 14.262400660673515 0 0 0
755 68 5 0.0582835 18.52539532652682 11.250117922911098 12.888067302423812 0 0 0
754 68 5 0.0582835 17.64472852245365 10.048029497213447 14.008279923085356 0 0 0
183 19 2 -0.4048 4.702874709757021 16.93884599976233 8.825982062991802 0 0 0
184 19 3 0.8478 5.539500191891997 15.864565435587457 8.903206894888177 0 0 0
629 58 2 -0.3889835 2.7015953087060054 22.81253206515933 13.06887456609225 0 -1 0
897 80 5 0.0582835 6.604809902604243 15.66453939999506 11.60476187414078 0 0 0
632 58 5 0.0582835 6.410102212017113 20.93900457936917 11.76085916484211 0 -1 0
626 58 2 -0.3889835 4.581201498311564 21.8741437396829 12.410269853675308 0 -1 0
627 58 3 0.7551165 3.342028691605504 22.268941288285177 11.985939575187093 0 -1 0
644 59 5 0.0582835 5.234335328975523 17.178782248495025 12.236179725409567 0 0 0
490 46 5 0.0582835 2.8666857436867113 19.69729316419506 9.906847627250785 1 0 0
492 46 5 0.0582835 1.7261667121518438 19.522809544094024 11.171753146331673 1 0 0
625 58 1 0.1266165 5.433273523809664 21.292641426029675 11.372510049844617 0 -1 0
628 58 4 -0.5800835 2.834619486214994 22.196887263290407 10.848297071687103 0 -1 0
631 58 5 0.0582835 5.643038370932936 22.059955440567897 10.5688532733556 0 -1 0
633 58 5 0.0582835 4.980551306820736 20.38538415290345 10.945274081300152 0 -1 0
484 46 4 -0.5800835 2.3230530825138844 17.049418756410738 10.892369540562747 1 0 0
486 46 1 0.1266165 1.8342836667223763 19.596596579805194 10.083124203687927 1 0 0
491 46 5 0.0582835 1.317132320133013 20.469608594597076 9.731332771655415 1 0 0
483 46 3 0.7551165 1.555111411980859 17.225373046963256 9.932653478675642 1 0 0
485 46 2 -0.3889835 1.229512240149109 18.442321210294764 9.453345151158912 1 0 0
634 58 5 0.0582835 0.7479206362693079 22.674776572706406 12.16670303191512 0 -1 0
637 59 1 0.1266165 4.4660916778831075 17.67276151148309 12.782965433363298 0 0 0
643 59 5 0.0582835 3.9303846924982704 18.33966647701805 12.101654244869767 0 0 0
645 59 5 0.0582835 3.8534748345129914 16.974418237571648 13.230778191634522 0 0 0
482 46 2 -0.3889835 1.0197496378658635 16.204244178801382 9.301023336549086 1 0 0
476 45 5 0.0582835 1.0270710718741896 17.135009123003783 13.795159107417449 1 0 0
640 59 4 -0.5800835 3.0894597301590307 19.117018027630962 14.5306507926175 0 0 0
638 59 2 -0.3889835 5.121825919552206 18.54467667503308 13.7165148050418 0 0 0
639 59 3 0.7551165 4.306056205755718 19.22018421278269 14.539112636640038 0 0 0
989 96 7 -0.08276671400000001 7.696827785428835 21.04025138932407 8.854821547693225 0 0 0
889 80 1 0.1266165 7.530744665749214 15.731889087377283 12.156892235653233 0 0 0
992 96 7 -0.08276671400000001 7.362874146964267 18.9605893509896 9.7838352188607 0 0 0
475 45 5 0.0582835 0.49533746230117404 18.64959236349715 14.553592342054115 1 0 0
895 80 5 0.0582835 7.296602959095937 16.416203368471507 12.942528406260315 0 0 0
312 31 5 0.0582835 6.270007440563925 16.665439520039833 15.322340190575854 0 0 0
469 45 1 0.1266165 0.21075077564729036 17.883936443201883 13.829752163527838 1 0 0
477 45 5 0.0582835 23.236331602395634 18.41139509080317 12.880044523840994 0 0 0
934 83 5 0.0582835 6.700595251890612 21.95945856803069 14.481385341983104 0 0 0
936 83 5 0.0582835 7.912936816056483 22.169527598244187 15.882656982174009 0 0 0
930 83 1 0.1266165 7.765216943247945 22.181370585627597 14.768292483101792 0 0 0
497 47 2 -0.3889835 11.622270113068122 15.631186604856714 9.113292434400428 0 0 0
608 56 5 0.0582835 12.469108595645688 22.170639410841808 8.187896159501644 0 -1 0
994 96 7 -0.08276671400000001 9.250246198721511 21.205199074817067 9.889243985778421 0 0 0
896 80 5 0.0582835 8.336425602912591 16.103290804797503 11.51716506862266 0 0 0
498 47 1 0.1266165 10.179263971357312 15.700271062587394 9.189910248596462 0 0 0
502 47 5 0.0582835 9.899476743055349 15.062637687973456 10.003710537664682 0 0 0
993 96 7 -0.08276671400000001 10.170795632834674 19.441314953388336 8.718031204894592 0 0 0
849 76 5 0.0582835 15.427809442076988 22.402092415844805 11.730187398981915 0 -1 0
503 47 5 0.0582835 9.870997754025225 16.733026247839106 9.387298845464535 0 0 0
203 21 2 -0.4048 11.135200362613404 15.635882981793653 13.798355293257156 0 0 0
990 96 8 -0.5033997099999999 8.659030275203644 19.79940637967735 9.281891410795561 0 0 0
995 96 7 -0.08276671400000001 8.999459174082167 19.05913976659938 10.703674251798661 0 0 0
204 21 3 0.8478 12.339840273335845 16.34411795936969 13.688858018192501 0 0 0
654 60 1 0.1266165 11.127707867492767 22.33463182070401 12.405679492125024 0 0 0
660 60 5 0.0582835 10.301104475418942 21.771688718637925 12.825595587902631 0 0 0
586 54 5 0.0582835 9.640533441949385 17.701226377239834 14.072883173655194 0 0 0
588 54 5 0.0582835 8.822889185238006 19.296328926441745 13.596143278013969 0 0 0
580 54 4 -0.5800835 11.028202667483708 19.71359442934026 15.247796698714303 0 0 0
582 54 1 0.1266165 8.865495157323478 18.518305679995017 14.2921338123119 0 0 0
587 54 5 0.0582835 7.876963910021756 18.08472723822345 14.2312920899898 0 0 0
581 54 2 -0.3889835 9.006488296639015 19.043331770962467 15.657285149306075 0 0 0
649 60 1 0.1266165 13.225223713724906 18.422151490512057 10.426860016672338 0 0 0
650 60 2 -0.3889835 12.654683707859819 19.7559408546637 10.209708626921143 0 0 0
651 60 3 0.7551165 12.149072653860092 20.429036112827518 11.351103689938238 0 0 0
652 60 4 -0.5800835 12.230917322015635 19.836940537166335 12.458543767107516 0 0 0
655 60 5 0.0582835 12.507796426220226 17.69328739110214 10.79502273909553 0 0 0
656 60 5 0.0582835 13.598572359015959 17.994905113373093 9.47199075389879 0 0 0
657 60 5 0.0582835 14.025462188669154 18.447391621231702 11.25963248454046 0 0 0
653 60 2 -0.3889835 11.628707224149842 21.701791055218045 11.155677241970084 0 0 0
205 21 4 -0.5484 12.558910722267354 17.47287994016817 14.083038720792523 0 0 0
967 92 6 1 12.771234989603107 19.423448477162033 14.290463807266649 0 0 0
658 60 5 0.0582835 11.936651882084892 22.448272322324613 13.063502673984125 0 0 0
980 94 7 -0.08276671400000001 14.178691968431032 21.189472131747536 13.853741750564346 0 0 0
979 94 7 -0.08276671400000001 14.805746048986812 19.01311254273668 14.303069747537098 0 0 0
976 94 8 -0.5033997099999999 14.610748940113025 20.398888673364375 15.191727071402173 0 0 0
975 94 7 -0.08276671400000001 13.349559064655699 21.410224870473513 15.396364815250573 0 0 0
935 83 5 0.0582835 8.417879470368312 21.40702185952191 14.422219171736966 0 0 0
928 83 4 -0.5800835 10.175499238688865 23.168021678480088 15.388151701204885 0 0 0
953 85 2 -0.3889835 18.5123393402924 15.835924709129065 9.12626810839423 0 0 0
960 85 5 0.0582835 16.71843973616868 16.49609292679201 8.22846265806561 0 0 0
954 85 1 0.1266165 17.58035533784035 15.913152305692421 7.949905670346974 0 0 0
624 57 5 0.0582835 16.595518728508523 22.104617313668626 7.556021559953706 0 0 0
219 22 5 0.0798 16.354317618785306 15.39036359056161 14.562192149318054 0 0 0
214 22 3 0.8478 16.31204290290513 16.418428302970547 11.5726716439616 0 0 0
951 85 3 0.7551165 19.01573057019638 17.104885020016354 9.52903023294497 0 0 0
950 85 2 -0.3889835 19.889417120012805 17.10943660214184 10.609441597541748 0 0 0
212 22 1 0.0955 16.787128015043336 15.388499482283466 13.5541934393256 0 0 0
220 22 5 0.0798 17.88067677282746 15.24977028511019 13.676537198662366 0 0 0
215 22 4 -0.5484 16.15604234634745 17.298605140646686 10.716057161627505 0 0 0
213 22 2 -0.4048 16.73449209203346 16.627596410393387 12.841989852195336 0 0 0
112 12 1 0.0955 20.474644636864948 22.215903114416577 12.967800331986655 0 -1 0
120 12 5 0.0798 20.027761241281887 22.745029668756793 12.199221020245252 0 -1 0
119 12 5 0.0798 20.884594525258873 21.290438039948626 12.598345467960337 0 -1 0
957 85 5 0.0582835 20.92503828344852 18.850908142629947 10.091819052089187 0 0 0
323 32 5 0.0582835 16.22037846859194 20.402987104639102 11.33234726498991 0 0 0
952 85 4 -0.5800835 18.665366635283913 18.12920116698146 8.907065520029787 0 0 0
949 85 1 0.1266165 20.40906405524647 18.371224245945236 11.005686657592754 0 0 0
955 85 5 0.0582835 19.674179696755118 19.09465766478155 11.356539182889525 0 0 0
318 32 1 0.1266165 16.774741144691603 20.48940051191817 10.370289241898973 0 0 0
324 32 5 0.0582835 16.160608609427335 21.01067383804856 9.645962566629885 0 0 0
316 32 4 -0.5800835 18.56639364354081 20.918298399454628 8.56784871037803 0 0 0
321 32 5 0.0582835 21.472776120370437 21.385987824950824 8.596942279398725 0 0 0
322 32 5 0.0582835 16.96554573064883 19.534081957925856 9.970654584945654 0 0 0
313 32 1 0.1266165 20.916088811018376 22.28706066327976 8.849842969377963 0 0 0
314 32 2 -0.3889835 19.970389440480606 22.06433513066846 9.94785794880135 0 0 0
315 32 3 0.7551165 18.85266566155437 21.376452753046372 9.696363753877126 0 0 0
317 32 2 -0.3889835 17.99925028463307 21.214261950475723 10.702318914366966 0 0 0
320 32 5 0.0582835 21.603873371444582 23.077362239409034 9.090098093919861 0 0 0
956 85 5 0.0582835 21.158053573184443 18.296138078141148 11.809151435453844 0 0 0
472 45 4 -0.5800835 21.017347009776486 19.17518032996925 14.080281855108293 0 0 0
981 94 7 -0.08276671400000001 16.236059077340762 20.638691999385706 14.87325336427329 0 0 0
471 45 3 0.7551165 21.104266559976647 18.02846864145139 14.481431945570284 0 0 0
470 45 2 -0.3889835 22.28684471583615 17.274410651692463 14.4107348656954 0 0 0
478 45 5 0.0582835 18.467648718011063 18.488754651728975 14.128301810667214 0 0 0
474 45 1 0.1266165 18.821146100430482 18.21353913712384 15.091481771267599 0 0 0
473 45 2 -0.3889835 20.028970645580262 17.419871969267554 15.01183652884413 0 0 0
111 12 1 0.0955 19.356118998296807 22.227068445784646 13.951036801026893 0 -1 0
118 12 5 0.0798 18.308038589048238 22.14430853672947 13.514268348093307 0 -1 0
117 12 5 0.0798 19.487963952357568 21.322150298714647 14.558231653738638 0 -1 0
479 45 5 0.0582835 17.95515330158719 17.65409824708199 15.52023619560292 0 0 0
52 6 1 0.0955 7.471615203895639 1.3010501248060713 22.28995046420082 0 0 0
60 6 5 0.0798 6.798737196050348 2.159202665484922 22.315355040803446 0 0 0
59 6 5 0.0798 6.853519632785528 0.44548983827131716 21.915825069687443 0 0 0
139 14 5 0.0798 2.167333915134974 4.481280355905282 22.146494770183175 1 0 0
439 42 5 0.0582835 5.854348877632914 7.101095373633289 16.5248914309813 0 0 0
137 14 5 0.0798 1.6915734673132055 6.948289783620266 22.28814995312544 1 0 0
227 23 5 0.0798 5.5469906868926655 1.675224818235067 15.345662136541725 0 0 0
221 23 1 0.0955 4.424074031177089 1.7069651989143313 15.235108031434283 0 0 0
1050 100 10 0.051144 1.2019536162608906 3.349553391857014 18.096181500484803 1 0 0
1044 100 10 0.051144 1.2995239332627186 2.155994354764228 20.128990418861164 1 0 0
226 23 2 -0.4048 3.5447954247524533 0.8615109576276123 15.984274405503639 0 0 0
224 23 3 0.8478 2.474655639763791 1.604583953830637 16.337235202331925 0 0 0
536 50 5 0.0582835 7.147657725344941 2.9193163385552823 18.87248390334861 0 0 0
223 23 2 -0.4048 2.549791205992449 2.917612858989093 15.887716644373079 0 0 0
535 50 5 0.0582835 6.321644949712382 3.2325743447514994 20.25828669486507 0 0 0
225 23 4 -0.5484 1.5615408316516495 1.1397142980969146 17.016006203926196 0 0 0
529 50 1 0.1266165 6.683618340770017 3.6851988581896284 19.398779857487547 0 0 0
180 18 5 0.0798 7.13886123860453 4.720060948319553 0.06962953800803684 0 0 1
1025 100 1 -0.3481 0.3100780930796092 2.674656685866713 20.290774816367524 1 0 0
1043 100 10 0.051144 0.6199972002094967 3.67395495656941 20.544456631952826 1 0 0
537 50 5 0.0582835 7.376280894587159 4.490894861347388 19.54409447550659 0 0 0
530 50 2 -0.3889835 5.56452443633082 4.176246767011196 18.636700128086638 0 0 0
694 63 5 0.0582835 4.2390049445877125 1.198341113572262 19.467168022380733 0 0 0
532 50 4 -0.5800835 4.946050114795076 5.478859670931971 20.379696140757858 0 0 0
531 50 3 0.7551165 4.690330143520184 5.116287196099676 19.230940320418362 0 0 0
776 70 5 0.0582835 1.3678572959309379 0.3524758763144203 23.065501099339695 1 1 -1
533 50 2 -0.3889835 3.656154432083663 5.522429329889909 18.460439968663792 0 0 0
534 50 1 0.1266165 2.7854903340825197 6.468003735811983 19.101005288649205 0 0 0
538 50 5 0.0582835 3.2498301627422372 7.384191687804634 19.489109860947423 0 0 0
1042 100 10 0.051144 23.20451504582424 2.200942799001376 21.21687326610784 0 0 0
1045 100 10 0.051144 0.033757331888356494 0.493120905961663 19.323775678167934 1 0 0
1048 100 10 0.051144 23.148184907253707 4.590595760650868 18.386641745093563 0 0 0
539 50 5 0.0582835 1.9398312023364843 6.70393887310275 18.439616339565085 0 0 0
540 50 5 0.0582835 2.260364291129934 5.961613643518507 19.901800408360877 0 0 0
258 26 5 0.0798 0.041529948046704845 6.880430849215151 19.991163343682466 0 0 0
178 18 5 0.0798 7.219801298680092 6.801966847358429 22.577799491228852 0 0 0
695 63 5 0.0582835 3.0412793157721234 0.5174615887937838 20.62634866698812 0 0 0
690 63 1 0.1266165 4.105090728241639 0.5535481098033256 20.367492868875452 0 0 0
696 63 5 0.0582835 4.700264627306688 0.9204453836145793 21.22915914815654 0 0 0
454 43 5 0.0582835 8.379168919918362 7.621168757218396 16.461607432951688 0 0 0
172 18 1 0.0955 7.975369635901034 5.2072231645816975 0.5198308319836092 0 0 1
860 77 5 0.0582835 8.896447326112584 0.3265335117736347 17.67759644852388 0 0 0
53 6 2 -0.4048 8.468451653860386 1.4516860584505649 21.35460774803125 0 0 0
853 77 1 0.1266165 9.569006559386928 1.0450244305409353 18.197562112844743 0 0 0
859 77 5 0.0582835 9.46318954007374 0.9174222866566488 19.283217185832513 0 0 0
863 77 5 0.0582835 10.152564882640064 6.667676489015953 17.88724876909187 0 0 0
171 18 1 0.0955 8.141549705726467 6.459703224182868 23.03188657667402 0 0 0
864 77 5 0.0582835 10.094093844226359 5.843278923151494 19.541798304127795 0 0 0
858 77 1 0.1266165 10.37269285986255 5.7946610997343395 18.43932853376723 0 0 0
857 77 2 -0.3889835 9.666129626915179 4.625543454469688 17.918386474247335 0 0 0
862 77 5 0.0582835 11.456622691290551 5.568801113739336 18.362543476273082 0 0 0
855 77 3 0.7551165 9.993866936676225 3.3513434652910026 18.355660330084547 0 0 0
173 18 2 -0.4048 8.964099608569386 4.321556873678317 0.11165328903827573 0 0 1
514 48 5 0.0582835 12.901380522984736 0.5931389073950948 22.763176720363788 0 0 0
176 18 2 -0.4048 9.262412019547044 6.2800230456167405 22.199129118073714 0 0 0
854 77 2 -0.3889835 9.276587096569454 2.3799756419420013 17.772614184675902 0 0 0
861 77 5 0.0582835 10.608809126816176 0.772335511405059 17.961093820719412 0 0 0
856 77 4 -0.5800835 10.844080932756441 3.09835567396806 19.183275843437137 0 0 0
561 52 5 0.0582835 13.874218994218278 4.973568550527167 22.381994305262033 0 0 0
54 6 3 0.8478 9.707352814515708 1.3679198022815686 21.96114132848475 0 0 0
55 6 4 -0.5484 10.82764318907447 1.4678054446859266 21.498191045230215 0 0 0
508 48 4 -0.5800835 13.553107861962369 1.50023667545243 20.303538460258565 0 0 0
510 48 1 0.1266165 13.759335456281287 -0.003526456258184603 22.462112148278216 0 0 0
516 48 5 0.0582835 14.539881936918158 0.7247484016933691 22.662121742213316 0 0 0
555 52 3 0.7551165 14.511236081664984 4.89309338027222 19.672290139253043 0 0 0
556 52 4 -0.5800835 13.45671571026694 4.3097284086336245 19.864588561966485 0 0 0
557 52 2 -0.3889835 14.958717445477937 5.4037631630117255 18.477858259634118 0 0 0
558 52 1 0.1266165 14.108731568447757 5.263977568933011 17.273630118956454 0 0 0
563 52 5 0.0582835 13.819080568957684 4.236383677557567 17.087139960823016 0 0 0
564 52 5 0.0582835 13.164972719477614 5.815175348458435 17.34114229618718 0 0 0
966 91 6 1 12.138790532471324 2.9066795845606292 20.677887957672453 0 0 0
562 52 5 0.0582835 14.66265661229595 5.519973763115511 16.37845289829984 0 0 0
553 52 1 0.1266165 14.795305796222332 4.531279283741076 22.00506784290522 0 0 0
559 52 5 0.0582835 14.642804326180608 3.3960730419403764 21.925222306195437 0 0 0
174 18 3 0.8478 9.702569774537315 5.047591181385905 22.401516980199006 0 0 0
175 18 4 -0.5484 10.652773922340982 4.582848765604121 21.841029992862786 0 0 0
507 48 3 0.7551165 13.734259414788179 0.3040218727884338 20.090303786467707 0 0 0
511 48 5 0.0582835 14.484833593618864 1.5176397804486514 18.01861072079606 0 0 0
513 48 5 0.0582835 12.710656181362543 1.2088482227668846 17.932293245905278 0 0 0
505 48 1 0.1266165 13.702536127761082 0.7537625626529658 17.827547528134964 0 0 0
933 83 5 0.0582835 11.25841852944774 2.276949061704199 15.823199577751453 0 1 0
506 48 2 -0.3889835 13.859013635407363 23.01127581143274 18.80535264247674 0 -1 0
707 64 5 0.0582835 12.257952737039338 7.098613146274725 22.008748927498218 0 0 0
708 64 5 0.0582835 13.976303177259371 7.169288789005872 21.51830684861296 0 0 0
512 48 5 0.0582835 13.880726081642106 0.364797456426453 16.800596681908154 0 0 0
560 52 5 0.0582835 15.562899465015038 4.844601182495934 22.71022938264774 0 0 0
45 5 4 -0.5484 18.326626018710588 6.1918129726863125 22.67545458610124 0 0 -1
1041 100 10 0.051144 18.691552145920966 0.8945325729131252 22.517196654568778 0 0 0
554 52 2 -0.3889835 15.266593348549335 5.040913239322646 20.75411556203693 0 0 0
888 79 5 0.0582835 16.04574443081431 0.24837087476374048 15.584258885431318 0 0 0
887 79 5 0.0582835 16.313977562337772 1.4065970304016018 16.8666234290723 0 0 0
1057 100 10 0.051144 18.51154939694041 6.438273275259791 16.373773688656208 0 0 0
882 79 1 0.1266165 16.73875048911066 1.0004706860677202 15.977024763881108 0 0 0
886 79 5 0.0582835 17.696029216151956 0.5654165889110606 16.284950863360194 0 0 0
1058 100 10 0.051144 19.838151768047968 5.326847742842538 16.22733347533326 0 0 0
1027 100 1 -0.3481 0.08722058075467648 3.541109859363829 18.129266052608735 1 0 0
1049 100 10 0.051144 22.855911688155793 3.449606785239809 17.138694529504015 0 0 0
1046 100 10 0.051144 21.786881104470304 0.6786336274254426 19.96327893851589 0 0 0
1024 100 9 1.0437 22.476795200855445 2.5874159258673117 19.069875650564512 0 0 0
1026 100 1 -0.3481 22.372085171128855 1.024447730362511 19.10574146376043 0 0 0
1047 100 10 0.051144 21.92947278410331 0.632571584648985 18.138971541169134 0 0 0
1020 100 1 -0.3481 19.3131178545527 1.440738878034367 21.778914568454 0 0 0
1039 100 10 0.051144 19.496777731262092 2.4319400353522647 22.250576575840327 0 0 0
1040 100 10 0.051144 20.170143700544312 0.8519622789147744 21.64858646643259 0 0 0
1038 100 10 0.051144 16.75089715110974 1.6730925496207032 21.457298346374444 0 0 0
1036 100 10 0.051144 17.672538189039873 3.1474290221448373 21.33129631191518 0 0 0
1018 100 9 1.0437 18.78424201483309 1.5102740643472308 20.248806257525374 0 0 0
1019 100 1 -0.3481 17.36937051300825 2.257443558853395 20.778968579040814 0 0 0
1023 100 2 -0.7108 21.560746883641464 3.290015365006285 20.016125176344126 0 0 0
1059 100 10 0.051144 19.910146026172164 6.789881068677224 17.164601873369897 0 0 0
1056 100 10 0.051144 17.23752101161624 4.614267483183334 16.494045628072307 0 0 0
1031 100 1 -0.3481 17.77381508720369 4.115385914931726 17.259701846833835 0 0 0
1054 100 10 0.051144 18.440725672847616 3.335815673992005 16.762062271628807 0 0 0
1055 100 10 0.051144 17.07233564545506 3.5522094701334086 17.884673767339862 0 0 0
1021 100 2 -0.7108 19.115972351683503 2.5245853113142593 19.35568923210422 0 0 0
1022 100 8 0.753312 19.99770149640162 3.7691432609476183 19.776037293353617 0 0 0
1028 100 2 -0.7108 19.972837128506107 4.7120211596085175 18.48308761404789 0 0 0
1029 100 9 1.0437 18.57636785007307 5.065646522929376 18.144433893108967 0 0 0
1030 100 1 -0.3481 17.996975920299086 6.364019445256854 18.85712689288109 0 0 0
1034 100 10 0.051144 17.37279920862219 0.7804021773219044 18.682341678141142 0 0 0
1037 100 10 0.051144 16.685198587587553 2.524019958756702 19.997007693098972 0 0 0
1051 100 10 0.051144 17.52973303411118 6.122443884906463 19.75915489851377 0 0 0
1032 100 1 -0.3481 19.29172762277824 5.9437280342803795 16.92618132532222 0 0 0
257 26 5 0.0798 21.831803660911593 6.080544622694727 19.357326692630323 -1 0 0
259 26 5 0.0798 20.694587318651845 6.854364441532895 21.347285044663188 -1 0 0
1052 100 10 0.051144 17.301198304020055 7.070658939411084 18.392514909942605 0 0 0
1053 100 10 0.051144 18.883612924007668 6.924826654403321 19.192332975839463 0 0 0
260 26 5 0.0798 22.010297436187525 7.804612794204669 21.669674815376574 -1 0 0
252 26 1 0.0955 21.393807311471573 7.51054233612165 20.806691088839713 -1 0 0
251 26 1 0.0955 22.25171889506881 7.0323475467749414 19.69363076588843 -1 0 0
441 42 5 0.0582835 4.367872300799238 7.952961919696638 16.335157102168793 0 0 0
433 42 1 0.1266165 5.406163930004714 7.9482079028488055 15.991402659831182 0 0 0
440 42 5 0.0582835 5.831037224470107 8.869277566260259 16.3538012848919 0 0 0
791 71 5 0.0582835 1.5424924954325259 8.236985345129819 15.419179727088798 0 0 0
786 71 1 0.1266165 1.1879258762782776 8.932872744868618 16.129799438180846 0 0 0
792 71 5 0.0582835 0.3259746967488707 8.503378929876146 16.645850355334865 0 0 0
14 2 3 0.8478 3.8404413233775636 9.189711541625096 23.250793825361214 0 0 -1
15 2 4 -0.5484 3.1244236635008193 9.357150103410556 22.345277846240528 0 0 -1
29 3 5 0.0798 6.468658423629965 11.60294219060731 0.16654894063145845 0 0 1
825 74 5 0.0582835 6.126321788517157 8.196383943168863 18.599717949749937 0 0 0
824 74 5 0.0582835 6.250270487164946 7.676944325734613 20.231948107881614 0 0 0
27 3 5 0.0798 6.615417820840162 13.360166872895242 22.097521162797378 0 0 0
827 74 5 0.0582835 6.141600920168719 14.088720486878119 18.697347950931082 0 0 0
826 74 5 0.0582835 5.678227709050939 12.8373297186438 17.410848838387714 0 0 0
821 74 2 -0.3889835 6.0742192921327405 12.009466003020929 19.301699056949552 0 0 0
822 74 1 0.1266165 6.340245872411285 13.047960825177409 18.26518133874432 0 0 0
783 71 3 0.7551165 1.821022189014949 10.186779949811935 17.961890490330347 0 0 0
785 71 2 -0.3889835 2.1605973762579787 9.211690301652776 17.138258661367075 0 0 0
819 74 3 0.7551165 6.4061493777365 10.712251739487666 18.991512345274863 0 0 0
820 74 4 -0.5800835 6.895836819965241 10.486236645410075 17.889873187715928 0 0 0
828 74 5 0.0582835 7.368595951275358 12.979444120688314 17.976086933513415 0 0 0
784 71 4 -0.5800835 0.7541775813941313 10.76622269817621 17.86384348778808 0 0 0
21 3 1 0.0955 6.150578507559751 13.672665316028539 23.025767769152992 0 0 0
26 3 2 -0.4048 4.9753328931587655 14.180687590089656 22.455447263323535 0 0 0
782 71 2 -0.3889835 2.755465265577603 10.491800567263383 18.94151521007901 0 0 0
24 3 3 0.8478 4.03797726652891 13.252752814055155 22.824228771387958 0 0 0
789 71 5 0.0582835 2.2015479387429395 12.515130289213523 19.391910551367936 0 0 0
781 71 1 0.1266165 2.485874513361781 11.547402356621097 19.90013305334378 0 0 0
788 71 5 0.0582835 3.4098095902225833 11.751888156438486 20.449531172321983 0 0 0
787 71 5 0.0582835 1.7035609578655098 11.260474435958361 20.606626008899497 0 0 0
818 74 2 -0.3889835 6.174675605868315 9.751071220108475 19.928614016630256 0 0 0
25 3 4 -0.5484 2.8402130163857593 13.377457312662955 22.490437733153286 0 0 0
817 74 1 0.1266165 6.546767186697639 8.429661589440732 19.55197195070636 0 0 0
823 74 5 0.0582835 7.61944760367784 8.452846547822903 19.396781508166995 0 0 0
598 55 5 0.0582835 0.33108627027344545 14.26261767873435 16.82988184188524 0 0 -1
764 69 5 0.0582835 0.5108401067407404 15.423121786387425 21.945661688194107 0 0 -1
704 64 5 0.0582835 13.0775700453485 9.17951211452616 16.090718508091456 0 0 0
524 49 5 0.0582835 9.261532977847734 11.712595897921881 18.355799696032896 0 0 0
525 49 5 0.0582835 9.695006922421513 11.968080001542118 16.732568828560304 0 0 0
523 49 5 0.0582835 10.631349316713399 10.866732258012707 17.83174490574345 0 0 0
517 49 1 0.1266165 10.073952895614287 11.786523385253622 17.71950373777991 0 0 0
703 64 5 0.0582835 14.687041644209174 8.720813652381405 16.853998936833683 0 0 0
697 64 1 0.1266165 13.671139023052685 9.110385197825169 17.011033473894216 0 0 0
705 64 5 0.0582835 13.740037687552329 10.107001512437021 17.340222326280802 0 0 0
520 49 4 -0.5800835 12.157731996769625 12.607936669169826 16.18460236622211 0 0 0
701 64 2 -0.3889835 12.614333846651022 7.737718401455874 20.132407792355764 0 0 0
698 64 2 -0.3889835 12.91078197908787 8.409952777306067 17.983942398361343 0 0 0
356 35 5 0.0582835 9.030558399599007 8.53773363246228 20.85736079459486 0 0 -1
518 49 2 -0.3889835 10.855940247354534 12.973666059671055 17.9969579774758 0 0 0
526 49 5 0.0582835 13.40771170418079 14.988370457220048 15.585109510805715 0 0 0
355 35 5 0.0582835 10.317055396316771 9.182612059842704 22.024247465923445 0 0 -1
702 64 1 0.1266165 13.01128388878208 7.6849380598046455 21.432195488132876 0 0 0
349 35 1 0.1266165 9.74443593341878 9.323614591050438 21.054315340849847 0 0 -1
357 35 5 0.0582835 10.454963563322828 9.36542697924176 20.22457359290634 0 0 -1
350 35 2 -0.3889835 9.031483817840108 10.584393927757239 21.054475097462635 0 0 -1
706 64 5 0.0582835 13.149790958225372 8.676329185176384 21.936193153054475 0 0 0
352 35 4 -0.5800835 11.062813475637313 11.713782592411444 21.334645121293356 0 0 -1
360 35 5 0.0582835 10.265190816920434 14.122683994393373 22.339086547059267 0 0 -1
351 35 3 0.7551165 9.838567862469924 11.733549052277281 21.21394686012252 0 0 -1
353 35 2 -0.3889835 9.07689215334054 12.898128652234996 21.19948698524248 0 0 -1
354 35 1 0.1266165 9.776360119488334 14.173197702073628 21.379319690196574 0 0 -1
358 35 5 0.0582835 10.578367205904655 14.249235968051378 20.608978376550738 0 0 -1
519 49 3 0.7551165 11.875879459341155 13.306669713560622 17.178881396662277 0 0 0
522 49 1 0.1266165 13.788344813774339 14.772074213337175 16.56363948260988 0 0 0
521 49 2 -0.3889835 12.644039772226215 14.467405486520756 17.50861748627014 0 0 0
699 64 3 0.7551165 13.40493728331768 8.45071147062724 19.249632644621258 0 0 0
700 64 4 -0.5800835 14.432671737385116 9.031921112432856 19.587173803695116 0 0 0
528 49 5 0.0582835 14.568906789904647 14.023985500822228 16.52176267538414 0 0 0
573 53 5 0.0582835 13.081078605608242 13.009179104580681 19.852403385580892 0 0 0
571 53 5 0.0582835 14.622332111921887 12.312978921347268 19.18514168336278 0 0 0
565 53 1 0.1266165 13.99275067300089 12.354748702598409 20.01377853758641 0 0 0
359 35 5 0.0582835 9.153362260673358 15.033657736958963 21.1726406790427 0 0 -1
572 53 5 0.0582835 13.657908004619724 11.338524927964842 20.273090606690083 0 0 0
566 53 2 -0.3889835 14.67950087292056 12.853683127854099 21.150784222985223 0 0 0
309 31 5 0.0582835 10.010548322557447 15.794167412315298 18.634684898301266 0 0 0
299 30 5 0.0798 19.074693205135084 8.615287130007669 22.698137788051476 0 0 -1
292 30 1 0.0955 18.596361729883085 9.581775843162031 22.674114081887318 0 0 -1
300 30 5 0.0798 19.350208819348236 10.274501992964835 22.341733047848443 0 0 -1
973 93 7 -0.08276671400000001 22.999744841760137 12.124523999132455 15.57165595161797 -1 0 0
297 30 5 0.0798 17.39674558236694 8.579701579461041 21.040454079605382 0 0 -1
568 53 4 -0.5800835 15.331152414119268 14.608041162761925 19.816146591471806 0 0 0
291 30 1 0.0955 17.34271770046773 9.276384122849365 21.858612701615392 0 0 -1
298 30 5 0.0798 17.048629849421452 10.196087825512054 21.392192361899987 0 0 -1
974 93 7 -0.08276671400000001 21.221508460883648 10.688496527150086 15.748129234284692 -1 0 0
971 93 7 -0.08276671400000001 20.834405125148507 12.665576775911589 16.55530432581883 -1 0 0
797 72 2 -0.3889835 17.63736191504231 13.943300345104422 17.049514891682826 0 0 0
567 53 3 0.7551165 15.323761521904233 14.015481705080147 20.898351639279745 0 0 0
795 72 3 0.7551165 17.75887602500493 12.658992694941768 17.581082107096414 0 0 0
569 53 2 -0.3889835 15.977210971267326 14.529651001077946 21.971518763882102 0 0 0
965 90 6 1 22.28212036377028 11.539940834808824 17.41120354682387 -1 0 0
296 30 2 -0.4048 16.331973244731824 9.131157052997638 22.77334794259434 0 0 -1
796 72 4 -0.5800835 18.41045699886846 12.481805491489771 18.58378119095483 0 0 0
799 72 5 0.0582835 16.66368391910622 10.325228919157727 18.496296284240252 0 0 0
253 26 2 -0.4048 20.802062424739027 8.739528369490479 20.34686130990424 -1 0 0
273 28 2 -0.4048 21.44163999645956 12.331639465292106 21.30281197489755 -1 0 0
275 28 4 -0.5484 21.984791878667764 12.485069313687381 19.035082352354436 -1 0 0
801 72 5 0.0582835 18.239448329959263 9.946344087201638 17.736532582365918 0 0 0
277 28 5 0.0798 21.279937707799533 15.207670905878093 21.94909298885596 -1 0 0
800 72 5 0.0582835 16.69722394954311 9.645515451224997 16.81331672769609 0 0 0
256 26 2 -0.4048 22.09952011266047 8.059508681904113 18.625260627090505 -1 0 0
254 26 3 0.8478 21.271513360494296 8.974940835568788 19.084327493824645 -1 0 0
255 26 4 -0.5484 20.983131083310887 9.970888727429523 18.387472445848047 -1 0 0
793 72 1 0.1266165 17.23613394316669 10.362455015251493 17.54014583886098 0 0 0
794 72 2 -0.3889835 17.129121323764103 11.681630965838963 16.987240625312182 0 0 0
274 28 3 0.8478 21.515090794801942 12.979950290573546 20.048813188933153 -1 0 0
276 28 2 -0.4048 20.980811857767826 14.238909235602641 20.106019099726502 -1 0 0
272 28 1 0.0955 20.822875825547968 13.184619844651673 22.31748060615932 -1 0 0
271 28 1 0.0955 20.5395941134468 14.472245881668904 21.545247102774255 -1 0 0
278 28 5 0.0798 19.593813624077427 14.880409394396532 21.622099534683528 -1 0 0
280 28 5 0.0798 19.868793922602965 12.731006182411116 22.533327297290867 -1 0 0
599 55 5 0.0582835 22.072236642015994 15.107978367190425 16.8615773288142 -1 0 -1
594 55 1 0.1266165 23.153413868822582 15.257393097731669 16.93270242680918 -1 0 -1
798 72 1 0.1266165 18.310872417915498 14.99141604688119 17.7598472645518 0 0 0
804 72 5 0.0582835 17.984140571065854 15.203867126920265 18.78548026695492 0 0 0
802 72 5 0.0582835 19.307642661909085 14.779894991075931 17.834906067743532 0 0 0
575 53 5 0.0582835 17.415773963579642 15.68227607777625 20.99851334749585 0 0 0
570 53 1 0.1266165 16.639454284202206 15.747426432054022 21.76200215913277 0 0 0
98 10 5 0.0798 5.4323775862296575 19.067974587670932 0.18492671478007386 0 0 0
5 1 4 -0.5484 7.07443472783939 21.0944596221716 22.414095284020732 0 -1 0
641 59 2 -0.3889835 5.014103617422493 19.98186982474037 15.36462387282222 0 0 0
311 31 5 0.0582835 4.764899641559926 16.582689067119382 16.27056638778533 0 0 0
688 63 4 -0.5800835 6.507658331374154 23.17457422378282 19.40632956419816 0 -1 0
91 10 1 0.0955 5.532978519650215 18.020784353823657 23.06437631930404 0 0 -1
97 10 5 0.0798 4.490478073336644 17.62015559004687 23.004118435457166 0 0 -1
647 59 5 0.0582835 4.992789872802874 21.685094658525202 16.72579866382881 0 0 0
648 59 5 0.0582835 3.48581892302446 21.33719572564842 15.965017488637171 0 0 0
689 63 2 -0.3889835 4.460891405403146 22.43523769751507 20.027622949382923 0 -1 0
642 59 1 0.1266165 4.346872010700272 20.822078005235113 16.37841187855082 0 0 0
646 59 5 0.0582835 4.070388971328819 20.21653168836228 17.262886797421842 0 0 0
388 38 4 -0.5800835 3.0352170741156423 19.677051432865404 22.194160807147355 0 -1 0
393 38 5 0.0582835 2.610156216794729 20.663638373424185 19.704608249364085 0 -1 0
92 10 1 0.0955 6.280754158022731 18.1501845051204 21.78620553418053 0 0 -1
100 10 5 0.0798 6.135382267224418 19.10193451664177 21.22911438806989 0 0 -1
385 38 1 0.1266165 1.6236329932175415 20.76736340210286 20.17909261359666 0 -1 0
386 38 2 -0.3889835 1.6280758692515913 21.3244791498848 21.44562456894443 0 -1 0
765 69 5 0.0582835 1.6047891537035 16.510977513351193 22.826478836952433 0 0 -1
757 69 1 0.1266165 0.5894305433885605 16.02694642307899 22.80564258562547 0 0 -1
387 38 3 0.7551165 2.3726373133999625 20.693336364573796 22.390146298492702 0 -1 0
596 55 5 0.0582835 3.6551405281364344 17.736937954712793 20.488327572936434 0 0 -1
589 55 1 0.1266165 3.4728956481008884 17.12509338928092 19.570411833266846 0 0 -1
590 55 2 -0.3889835 2.0785936598935026 16.759138093483287 19.447648858249657 0 0 -1
597 55 5 0.0582835 4.015069782877974 16.201054336647502 19.67071071375966 0 0 -1
99 10 5 0.0798 5.89073560044619 17.412678188454755 21.140814124996318 0 0 -1
595 55 5 0.0582835 3.8667258314342834 17.674041663733753 18.754788229299024 0 0 -1
591 55 3 0.7551165 1.6710179015976394 16.16696733778864 18.275826359826553 0 0 -1
687 63 3 0.7551165 5.701851478476954 22.227521114597785 19.558450202508723 0 -1 0
686 63 2 -0.3889835 6.110156670833604 20.968714754553517 19.244661646885163 0 -1 0
692 63 5 0.0582835 7.615498844516331 19.843413325568307 18.42392534100776 0 -1 0
685 63 1 0.1266165 7.50495943498133 20.809687390709215 18.735006891679618 0 -1 0
592 55 4 -0.5800835 2.52395375100991 15.981175553502222 17.458366828894356 0 0 -1
391 38 5 0.0582835 1.1090786844776894 19.820099213303607 20.249864647701664 0 -1 0
392 38 5 0.0582835 1.0369533469325183 21.390324518829885 19.488109327800174 0 -1 0
593 55 2 -0.3889835 0.3255977635538114 15.860313219058238 18.158104102350485 0 0 -1
693 63 5 0.0582835 7.775722742245579 21.517624679782884 17.92661632382947 0 -1 0
306 31 1 0.1266165 5.799326591216012 16.30278232213371 16.26825033603444 0 0 0
310 31 5 0.0582835 5.839491973988502 15.193363143019512 16.283767504993662 0 0 0
305 31 2 -0.3889835 6.5084000595191975 16.890322440761302 17.399861066034518 0 0 0
741 67 5 0.0582835 0.4539069503120893 21.670438170361187 16.62175620399116 1 0 -1
4 1 3 0.8478 8.264227264465445 20.908335969133397 22.67440262856954 0 -1 0
683 62 5 0.0582835 12.145583590191578 15.632189521967886 22.59681567118365 0 0 -1
8 1 5 0.0798 11.181797052181315 21.757937255169296 23.007632881074585 0 -1 0
6 1 2 -0.4048 9.285361693161585 21.363408651390422 21.948537899686173 0 -1 0
1 1 1 0.0955 10.513889147241871 20.917390458873342 22.58993553380472 0 -1 0
509 48 2 -0.3889835 13.878313657604073 22.709035180893068 21.12796270126573 0 -1 0
527 49 5 0.0582835 14.289642852692035 15.747418262994117 16.875578105784292 0 0 0
93 10 2 -0.4048 7.605979622122931 17.640121460458523 22.146117023152435 0 0 -1
235 24 4 -0.5484 15.451784577776186 18.217463092204945 0.19795534812318788 0 -1 0
9 1 5 0.0798 10.466181258869815 19.163607209259254 0.5286578023608285 0 -1 1
304 31 4 -0.5800835 8.447800746480002 15.915106554849602 16.62129629985236 0 0 0
303 31 3 0.7551165 7.843915715797166 16.60084216824803 17.410741201145257 0 0 0
302 31 2 -0.3889835 8.588960635723714 17.18018328092392 18.51756330318935 0 0 0
691 63 5 0.0582835 8.186930755446799 21.062825561573383 19.533107026434116 0 -1 0
579 54 3 0.7551165 10.138590752771078 19.63316844323692 16.016180162810677 0 0 0
308 31 5 0.0582835 10.416046218890694 17.42699680569379 19.303861697953437 0 0 0
307 31 5 0.0582835 10.3283674205799 17.20885318024486 17.5748547289676 0 0 0
301 31 1 0.1266165 9.917772505413675 16.851781862288682 18.509471901536408 0 0 0
977 94 7 -0.08276671400000001 13.819092147623612 19.21301622325511 15.931549487179973 0 0 0
578 54 2 -0.3889835 10.051780947233485 20.049328750125333 17.315165643761993 0 0 0
7 1 5 0.0798 11.064556843804485 20.254381945925545 21.95353516876699 0 -1 0
583 54 5 0.0582835 11.292865476150315 21.70919222342365 17.409189681112032 0 0 0
577 54 1 0.1266165 11.167841015923235 20.705867114073207 17.87631330804909 0 0 0
584 54 5 0.0582835 11.021556359638213 20.802325873688318 18.980133326991727 0 0 0
585 54 5 0.0582835 12.111037132926809 20.194235594215314 17.612346177338544 0 0 0
194 20 3 0.8478 13.806598562481502 18.64914341207829 20.253993904189663 0 0 0
195 20 4 -0.5484 12.723320053863626 18.070650333260062 20.297770067600112 0 0 0
196 20 2 -0.4048 14.158668446722801 19.77983652510119 21.011187708730887 0 0 0
191 20 1 0.0955 15.543165098012508 20.09379092835276 20.632705445071373 0 0 0
197 20 5 0.0798 15.525147672793654 21.11171942350296 20.17647165853588 0 0 0
193 20 2 -0.4048 14.842313308311207 18.217478230938404 19.43717633781096 0 0 0
978 94 7 -0.08276671400000001 15.30327707426096 20.934873728871096 16.595774668938176 0 0 0
1017 100 1 -0.3481 17.981820425471966 0.3929754187589688 19.515524284325686 0 0 0
1035 100 10 0.051144 17.330910841030747 23.062976449573924 20.148335543998556 0 -1 0
1033 100 10 0.051144 18.740017542990444 22.929095685573984 19.165725200948145 0 -1 0
600 55 5 0.0582835 0.1819079232758565 15.81782339334894 16.073575082508015 0 0 -1
758 69 2 -0.3889835 22.734457094493404 17.012448897279803 22.790789896398202 -1 0 -1
576 53 5 0.0582835 15.923145874608865 16.57126934687495 21.4392257356995 0 0 0
198 20 5 0.0798 16.233614559782318 20.102580470688906 21.529328358445852 0 0 0
192 20 1 0.0955 16.015977709155816 19.04388910891481 19.58452587299803 0 0 0
199 20 5 0.0798 16.478998793745266 19.566025434068912 18.692418166382524 0 0 0
832 75 4 -0.5800835 19.111801943274145 17.73105349445234 22.67951621644351 0 0 -1
833 75 2 -0.3889835 18.93654349701863 20.057531384647206 22.63172188353994 0 0 -1
840 75 5 0.0582835 20.405647854402822 19.73853974892777 21.13993140145329 0 0 -1
839 75 5 0.0582835 19.27522923086828 21.0293570943263 20.91900659284517 0 0 -1
834 75 1 0.1266165 19.36111060090044 20.06078279959997 21.26969303349673 0 0 -1
480 45 5 0.0582835 19.031248383570965 19.03174657114912 15.817640286334825 0 0 0
803 72 5 0.0582835 18.222099100615207 15.968882987919091 17.265731134184108 0 0 0
574 53 5 0.0582835 17.149163170096998 16.03879844510216 22.702542173890826 0 0 0
743 67 5 0.0582835 20.257186307097466 17.624815924103764 19.402357770896685 0 0 -1
744 67 5 0.0582835 21.14428161835648 17.262474132201596 17.87444433709151 0 0 -1
200 20 5 0.0798 16.763586333401214 18.409029744276253 20.152350633995887 0 0 0
838 75 5 0.0582835 18.76711908281017 19.35464021608614 20.699720148327508 0 0 -1
740 67 5 0.0582835 22.548566381315016 22.654604420910623 15.858195184111413 0 0 -1
739 67 5 0.0582835 22.96155887069766 21.090019992626658 15.155906818252486 0 0 -1
733 67 1 0.1266165 22.799922001817027 21.66345889363398 16.08850685525526 0 0 -1
734 67 2 -0.3889835 21.804284451453324 21.02132177126164 16.951113052491614 0 0 -1
737 67 2 -0.3889835 20.95238580382753 19.357842757848992 18.21464726943418 0 0 -1
735 67 3 0.7551165 21.993765702530837 19.80839526350499 17.394234477909002 0 0 -1
736 67 4 -0.5800835 22.95011847367558 19.083419742031168 17.129404038501377 0 0 -1
738 67 1 0.1266165 21.10352787773179 17.965570388038152 18.771066911314335 0 0 -1
742 67 5 0.0582835 21.933818839733775 17.90561347964458 19.415143165930623 0 0 -1

Velocities

31 -0.0029644981036535596 -0.0060188619376296965 -0.002308109885504914
32 0.0039401785824865615 0.005959517265594237 0.00222237499344165
37 0.01591927742390561 0.005284749870315099 0.011697192212511497
38 0.016040814476981795 -0.018037499409442038 0.01264938789626291
39 -0.007701190573217258 -0.013942062590710184 0.010405400468240728
40 -0.026515285409370756 0.0008032217177040224 0.004178206480221566
84 0.0008239371775867385 -0.0019274488488645162 -0.005234260799923679
86 0.00196206921198814 0.004000067136123923 0.00037982943834851985
986 2.9021416218416248e-05 -5.469422650356382e-05 -0.0012985098925043994
987 0.0005231469243412496 -0.0008446214805509152 0.0014376485551272102
985 -0.003025685638149675 -0.005749125174123272 -0.008308043028107169
983 -0.005827528684098112 0.00018786878524756402 0.0005779758103287252
984 -0.008795764351971642 0.0023670362584570013 -0.00021739710098903179
982 -0.0029029813085443695 -0.0011767524517129252 -0.004561494340205833
88 0.0019771543204827186 -0.0031991786740145573 0.01174970942753995
82 0.004821719149866566 0.004419994560820936 0.004270547774964366
90 0.013434282791555483 0.021710163235969863 0.011025481682468885
81 -0.00017115744558868996 0.002462928279797151 0.003616954798538978
87 0.015655652093680764 0.02927241651462648 0.0006417422943383154
140 -0.008782316514439057 -0.003542663421497223 -0.01892650577963426
132 0.006571772565290929 0.005500963516101742 0.00024937148923935136
988 0.0010877771505540704 -0.00022150953624670969 -0.002503767587701192
133 0.01045210057133528 -0.007805663193167536 -0.0019605644677461826
769 -0.00843568199106163 0.005148324291790992 0.0023057476452678703
138 -0.006670465274618504 -0.0036529478803577864 0.00799788823033202
267 0.0006238299324160452 -0.0096701753634673 0.029446575012130875
775 0.02126728252179832 -0.004634412055833566 -0.0032773047204691656
136 -0.000321282290260593 -0.0029234231804963996 -0.0025689477713154657
865 -0.000739609867057182 -0.0013497098110065273 -0.007886634828302123
872 -0.0006889369305447784 -0.009831189498033336 0.03323929359528959
873 -0.0009800002636176767 -0.00919866621365069 0.006062297828434657
871 -0.014420621899753478 0.014023941321425917 0.011104832363649618
83 -0.0011899463819209752 -0.0013521438270010038 -0.0019235184801092225
89 -0.023385048719480005 0.02151594364763438 0.020857710618610303
131 -0.0002726270671333897 0.008094791418114445 -0.003936775381016988
57 0.014493217491288526 -0.03190089284919453 0.022833657603685092
380 -0.0008506915164316856 -0.009267823933350445 -0.004792185294023959
58 0.0022866783734544717 -0.0037041750055061377 -0.007437864924790469
381 0.004940636356785786 -0.0067741584802355845 0.020870877243871763
919 0.0021739717462582993 -0.004204404503092325 -0.015188718232403194
920 0.013433558262484038 0.013556155011518255 -0.0067038753370599015
376 -8.996024476643952e-05 -0.004521795607570212 -0.003443880228278074
913 -0.0014991075279359944 -0.0037866847425954125 0.003979049474425905
914 -0.0004027492072506768 0.005654784265254967 -0.0030777220347595583
921 0.015643103249947932 0.02414721112054622 -0.005713894605996795
61 0.0008083675368111379 0.005689826100232382 0.009489446873495
1003 6.7592823609141e-06 -0.004179141919250463 -0.0023195273494732334
67 0.0006638251920771743 -0.006732639545916465 0.010171589334385866
68 -0.021188354797539524 0.027273923405608306 0.019551831535631656
62 0.008804906372277644 -0.003998591311429035 -0.001061921080480152
70 -0.008129765311739834 -0.0018445010691391889 0.00679377704959702
63 0.0006670965921785528 0.0017812397642774874 0.0040479351028771295
66 -0.0011539171065711952 -0.0005944921924939921 0.005093632019662586
379 0.0028410131356067818 -0.007794936819497118 0.012688690751261925
64 0.0012357681216549976 0.0068149661812823125 -0.001143282793033505
382 -0.00757180964311046 -0.004932425246049013 -0.012178269571205777
375 -0.002554328332996937 -0.0007510120369118871 -0.0008620964074387938
806 -0.007826786295647875 0.00046806789350801667 -0.003316694182875848
373 0.0005151010468866036 0.0009987842306568692 -0.0021998048748280196
378 0.005719955736292953 -0.0013111641605692336 0.0008770500974340453
809 -0.001441007740176748 0.0023621297456517592 -0.0035209658932972665
377 0.0013111337076664406 0.0012173686605600966 -0.005860705338856087
374 0.001139161542963099 -0.0016401134678180667 0.008038853006779716
812 0.0010083034438048016 0.012038004092186139 0.009718503241985157
611 0.0148212135924056 0.008185643282301817 0.010727738365882165
69 -0.025714817967739438 -0.02538926806744072 0.007894770471122265
807 -0.0012401465908673565 -0.003601732780585842 0.0019353385023011599
805 0.0038472412340198065 0.0003604218112202873 0.0037161521760942285
51 0.005459662957743718 0.006434989925003153 -0.0048957427946210875
56 0.007389467961855863 -0.0004920068295722078 -0.004524532407494297
811 -0.004782077459612103 -0.023011600789058374 -0.0052492390058546156
177 0.018006270620915508 0.0042960427378816125 0.01198330905393649
810 -0.00016961061588849913 0.0006619973022004423 0.0034401771858478866
814 -0.0194262829466981 0.029003443054854253 -0.026322419816420597
816 -0.002157769607576123 0.001350466000124039 0.003702310180044427
179 0.0072042198031723745 -0.012227847068588824 -0.011710027986941061
65 0.00037714031897366913 -0.0009322631175332703 0.0002584513121663183
36 0.0020599246934610046 -0.001560389526939305 -0.0039406187970499685
777 -0.01344098369443822 0.01993801614269568 0.041475000031284785
772 0.0034222364742641774 0.001831029830884217 0.0005384920899368009
915 -0.004168071122767753 -0.005598654413305166 -0.0033091231911281495
916 0.007910238779676932 0.0027148831763039046 -0.003410481449004552
33 -0.0035070790702193175 0.00030115918610985697 -0.0077626954815045255
917 -0.0012897998452380635 0.003162899816617772 -0.0015693403940423394
425 0.00024692236336836177 -0.006423225148919039 -0.000405267509032465
34 0.0022784194269075335 0.0049784899255627115 0.002456712676865441
35 0.002379472929931276 0.00038545902430494494 0.0023555360662248265
422 0.0015150328410550712 0.0008456584682986831 -0.004189174981460284
423 0.0013835128128514226 -0.004007916250945413 1.576385706831228e-05
428 -0.024172698121785272 -0.017623917793563888 0.014200070526662998
808 -0.0017978022887245098 -0.0027413421179968297 -0.0011566976891254053
42 -0.007630200713962287 0.003283763863597967 -0.009145802533741528
50 -0.01310420536918382 -0.004793893308324171 -0.0006761319073263031
49 -0.02184968143096679 -1.1791016242418202e-05 -0.023757415736748968
48 0.021307599911192004 0.0071318956894926185 -0.0015074761020361187
47 -0.02243043887048955 -0.0038595168983627764 0.009947131660478416
41 0.01376901727049235 0.0029910165333117034 -0.0025043930491347103
46 -0.0012702896998832657 -0.0055676114308220405 -0.004534313362650014
44 0.0035380262833645455 -0.0011719284068006414 -0.001158362593626206
813 0.019688082288338862 0.0006433664484542743 0.0007011521162453359
43 0.00039720631955763094 -0.002021841021381611 -0.00045392783417994384
771 -0.0007833772934321831 -0.005723434548053957 0.0023531409362420297
347 -0.017556816865259693 0.01226426904131989 -0.012159790606634378
348 0.029268299284108568 -0.01221215344487673 -0.004402256316102405
135 -0.006649589705802243 -0.0008289010868005785 0.002544168422294928
134 -0.007532350880896046 0.001032498855654174 -0.0012009059542824197
431 0.0038408023945475187 0.016513022689951105 -0.016402870683627047
426 -0.0005042756948108527 -0.005116320471948942 -0.0017660912073143911
778 -0.010179533593546737 -0.012594073997040881 -0.01607499326882903
774 0.00132667101559844 0.0096305540747967 -0.005313632927659295
780 -0.0047678569954836825 -0.03608837453101022 -0.003775036020506972
421 0.00018206560353473182 -0.0011992236984733182 -0.0013453245520376274
346 0.00836497677361949 0.01800370318643316 -0.0020382649725992053
342 -0.004346355170626592 7.228090398372049e-05 -0.003438507811337466
424 0.002331588744786143 -0.0012958699190043631 0.00567535570370659
430 -0.024545569785223553 0.0031488096519907104 -0.016668929659628653
19 0.010721114428214334 -0.005998979683423234 -0.026635427362986963
720 0.016613149195569287 -0.013427899476802334 -0.010493524462063742
714 0.0067031216842830255 0.007627457453346859 0.0012742680943095717
718 -0.026342528637224787 0.012578690160974083 -0.006151000639930436
719 -0.010065350862140441 0.021262539237752925 -0.0076043770531238454
411 -0.006307358559340443 -0.0025618623660149274 -0.0004135840912989372
412 0.0009693524495056673 -1.4162393058688424e-05 0.004773723481630297
413 -0.0009265224206712783 0.006925587751982926 0.0036802861535889034
414 0.0017702860194649037 0.004775926814425348 -0.0003365118065234992
420 -0.0060236974595316685 -0.0020729654514570583 -0.013010851584735658
713 0.0015530275813881453 0.0030144127111108392 0.005806017800252348
418 -0.017729736851343512 0.00962177799751448 -0.006483689264468344
419 -0.0265040187557618 -0.01743774285272772 -0.012705143738611206
12 0.011260798230583083 0.0012606143882928332 -0.0027172980275471307
13 -0.002976303329379709 -0.0007969084658924411 0.00272066911181084
16 -0.0006050485146614418 0.0003085159785404636 -0.004624166730452024
20 0.018907742106997746 0.01803455460021167 0.03307437235247114
145 0.0025379284148380516 0.00391209491213736 -0.001457018336365613
144 0.0011498103109236532 0.005639321578485737 0.0052592515833428
11 -0.0004458674074218515 -0.0021244491210087937 0.001683327506410121
17 0.007334550711410139 0.012134307170832703 0.018727735402259412
143 0.004137873656006098 -0.005940032704685123 -0.0016366124856090703
946 -0.024639535828449775 0.008218379360903133 -0.00236988085626638
18 -0.017261350920535882 -0.004697240580231447 0.010981623952237214
1008 0.005458622809948175 0.0015012155807570275 0.008447507686531151
947 0.006525410343371285 0.012130186077443737 -0.015107111916377548
942 0.007863835063719583 0.0027499807877056164 0.0009003936825905693
948 -0.006958517146713099 -0.00766402844727501 0.008742815260368481
725 -0.0028861570740104205 -0.007528399094309393 -0.0021538931560217355
711 0.002802725072485233 0.00514815629483089 0.0019758250783889508
731 0.0018141113288096616 0.015790537074668733 0.00788734914407128
726 0.0017440146351489954 -0.005718870023812202 0.0029057719444312564
712 -0.00024130425495299756 -0.001469023541370569 -0.0035361913006064904
730 -0.01606670639680651 -0.013123487634208541 0.003182748145712644
30 0.011372305988318189 -0.009953035871706357 -0.020584184256864584
22 0.0006235504010747521 -0.0036398616873079474 -0.002992305109914875
732 -0.007774565586331992 -0.01800968823344524 0.007896780684320951
23 -0.0022120575439079763 0.0015333788283083277 -0.005084577519818864
28 0.0005203207543222861 0.0004060894893550864 0.006940322484366758
1005 -0.004153344299538275 0.0016988611195589388 0.005342826703949179
372 0.003545530284563175 -0.026768207236858958 0.022801497611138023
1009 0.002071383619544056 -0.0030116290261606956 0.0012048850859266214
331 -0.000707554005511354 0.0068400802926851904 -0.019588021296219515
941 0.0015196697878578013 0.0016250411753014793 -0.0022948226657262434
938 0.0019240037745968089 0.0037972625742490385 0.002926354884108416
939 0.007810095281628088 0.0013604949156964105 0.0008768935655289062
1004 7.0331741492681e-05 0.0010319434677725657 -0.0035943641925834146
1007 -0.0008975641816033448 -0.002254494909140963 -0.0031988334717740147
366 0.009512528054098201 -0.00013179687931221687 -0.005437857844909958
370 -0.01324297877232242 0.028613704836865015 -0.032899226590658324
937 -0.001349965684270454 0.0003276383565993267 0.0008816584604770817
943 0.003253902001900599 0.023828525691908773 3.660489289450779e-05
1006 0.00032979089602167764 1.1110065910620347e-05 -0.0006666032430344448
940 -0.002046514603928177 0.0017634644598587407 0.0006089862929932264
335 -0.005420963987774358 -0.002013098603180944 0.00859228155855261
962 0.012717873729625703 -0.004017746984322767 0.000512999359209611
365 0.002238035078318114 -0.004685391909289379 -0.003728882260840359
364 0.002765678690862506 0.0036104588904399253 -0.0007885505406963891
326 -0.001705788237865487 0.003760281332617984 -0.00012288841786516102
327 -0.0005848810882055406 4.8940934627775085e-05 0.0008727859767631505
328 0.005354295258738016 -0.004549596968214128 -0.0018721753277824269
329 0.0007549200523290756 0.0045866443130190455 0.0026891454558709057
330 0.0002265023866520885 -0.0009809004818262417 -0.01178835028705457
334 0.00015501735013845455 0.003604963760345 -0.010757731928995042
945 -0.013965712360858083 0.002462442115656064 -0.0036388880557036134
325 -0.003230710034998544 -0.0032213221702441994 0.004524530671642113
944 -0.02795333266904231 0.0028025646005411884 0.017235325291290685
363 -0.004953978617469178 0.0037459167603985004 0.0032516215529291314
371 0.001779623565573616 -0.004259970528425639 0.021771995302970925
362 0.004022835341205813 0.0018159695205185525 -0.0005117245485066909
129 0.008030290583308234 -0.019670831312494162 0.017287703322615262
127 -0.018218144436223598 0.025871026074935383 0.029532516332390596
333 -0.02141760651729079 -0.0015058631859021707 0.0025136394767564696
332 -0.0008418049531146659 -0.008042938659670767 0.006278275536989887
122 -0.0037732875924581656 0.002381825539467889 0.0003244273199438302
123 0.00834464331504226 0.008958618425888198 0.004181744465018699
130 0.006493974757972291 0.005303005945531752 0.004638278363921844
336 0.010403085920547023 -0.011625005001439155 0.004440852486251013
727 -0.0052351922291028145 0.029209056787484897 0.011038649931472059
728 0.003219794563117108 0.014497091393554786 0.00684846986572456
295 -0.000517745837024884 0.000131683292402724 0.002015425318178342
121 -0.004921558247845397 0.007126842059557415 0.0011749125760948933
432 0.008029962738061704 -0.023622125954867474 -0.005459314810423784
126 -5.294570624763628e-05 0.001327865694960123 0.0011281472367327956
912 0.027162390886450845 -0.022610932832644485 0.018588428418224907
910 -0.023614400919272083 0.002011173739669457 -0.004857093335177096
908 -0.013992956503454312 0.010581257657457209 -0.0225439579835955
723 -0.004395945505859824 -0.004371080051772238 0.0035096464089042823
909 0.014777362301563885 -0.0023607795191462936 -0.009050924448401602
124 -0.006161112644472868 -0.0015577131399267027 0.008006554865709172
729 -0.01542137207188951 0.02009067582200448 0.005914267785125099
722 -0.001362732260639296 -0.0020412628463429413 -0.006298090513652547
721 0.0048843138539795775 -0.003262965826405111 -0.004749031630870675
902 -0.0017480368346884144 0.0021932911315753725 -0.00394959231126373
905 0.002258866424445567 -1.2156561583812903e-05 -0.0014302447571816824
906 0.0022978429040551402 0.00035097173763816723 -0.008179664698435318
76 -0.0002390463715695364 -0.00827988348445727 0.0007732288366947609
71 0.0003363849840774357 -0.0038613625194985983 0.0015479268727502016
72 -0.0031260410567842006 -0.00040817725820489233 -0.0017788373047864976
128 -0.01416546073858092 0.008643764879727766 0.020457864357463156
903 0.00900536163457604 0.00597217297390048 -0.0037705006739310164
904 0.004479532216172634 0.0025270472183639486 0.008018579744445852
911 0.0047950676376887135 0.02688065904213649 0.0013578629485130288
901 -0.0012316827606985875 -0.0012778464074838 -0.007450530856330024
78 0.00969124619850742 -0.002242587310570031 0.005903068018847946
75 0.0007671285488436009 0.0020735814460041786 0.0007486878237115294
74 0.006353132485527545 0.011875781524417393 -0.004277611269219121
73 -0.0007300683350090293 -0.0056093805534520634 -0.006996757314687282
293 0.0011161957141472977 0.006307698295870421 -0.0008063062189030376
907 -0.0031872302310400665 -0.01327345041438979 -0.013292821289133339
294 0.00039543868183496855 0.008806626055414492 0.007221259541964445
724 -0.0019013545565425625 -0.0010974937598314095 0.005984002899691191
80 -0.0424674594760275 0.03455960655840994 0.011796808932622176
125 -0.0068628113322298885 0.002272671920413926 0.009138764601562951
77 -0.005050018474627999 0.0028063342471945124 0.01324518003089684
279 -0.008636779562714688 0.030922543365187072 -0.021973103513722902
188 -0.023022645699682126 -0.0027009499965500623 0.01854086854905372
190 -0.011351785518142359 0.0008860210755899341 -0.006014910430617268
182 -0.0056665390488602535 -0.004929864735021021 0.006904389627229466
146 -0.004133211589210743 0.00012133293799624153 0.0013426278512334816
149 5.9164997354789906e-05 0.009247975138542891 -0.015022398827803565
142 0.003908178755489308 0.0024537777453627657 -0.0014936927024290078
866 0.00011649780759131781 -0.0025841839036924268 0.00014178487871816144
395 -0.02886100786781008 -0.020166841308547692 0.03825056843727038
410 -0.0018310348103535855 0.0028136320916030953 -0.00290412264415403
150 0.01258434058265633 0.007736439580474012 -0.0054228491137208595
141 -0.00552964710012388 -0.0009049137863845005 -0.0027660179586500334
867 0.0027562102196252917 -0.0051759408567318786 0.00019473675220018404
409 0.0027965938118971628 0.0063085330772352415 0.00671068224607409
397 0.002453954862144592 0.0010525428567217134 -0.00835952374460327
403 0.018199158914647677 0.01427566603855792 0.019004179281740943
398 -0.0020078053165338344 -0.0025420579738113184 -0.0016605385259219408
399 -0.007204619209382504 -0.00467867733180758 -0.002919277227254846
400 -0.004232861051364804 0.007124468755266223 0.002759433296471715
401 -0.002122645738598928 0.0017944459463566922 0.0028893454336914367
869 -0.001498674985614755 0.0021836219258150338 0.005940238986301876
147 0.0017130071377509566 -0.012292088307720982 0.01212952556952981
148 0.03258022903172239 -0.013871595836720613 0.007917700972286201
416 0.008016891040697055 0.0052447772095844366 0.003381339225099743
402 -0.0043181286733865055 -0.005082052451976071 0.0078032965265922094
408 0.015430953032691331 0.033574145605453985 0.0017084631974737716
405 -0.025103942250158467 -0.015415043057860013 0.004341524825525102
406 -0.004403146984505171 -0.012181593396571455 0.022931424943737268
407 -0.014729112753182233 -0.02618961305233879 0.0011738132683081891
417 0.008089141893977417 0.01643173416450877 -0.011742403376932381
404 0.025321582048500085 -0.0068713962048266315 -0.010050019142604328
390 0.0020734506503541214 0.0029152485349617824 -0.004286418699935412
396 0.02095482406903513 -0.012172332218420142 -0.012499334076225395
394 0.011190294093205159 -0.02525294333852982 0.016745714003075864
389 0.0013565833895232066 0.002661607002079825 0.004109074341465634
189 -0.007535965438587002 -0.019951369364570957 -0.003823108250031143
96 0.004365293824439499 -0.0028325641900098886 -0.005668593739413817
868 0.004864872676015748 0.0034348608496348005 -0.0011713734104702278
875 0.02581653590961284 -0.0009762405289109224 -0.02359929254292072
181 0.0019826133337972176 0.003159694678055775 0.0008090933949716231
186 0.0019756908072058343 0.00744909256060274 -0.0003819636132257497
187 -0.005781248521751366 -0.025038874197696827 0.01338585147035524
94 -0.00035862054575785387 0.0038491876903350257 -0.0021640214220164217
515 0.011880027816484263 -0.00897586084332336 -0.014176469920711357
606 -0.0010479968703093951 -0.004224892872191104 0.0063897754285262435
605 0.00023697312625578433 -0.002318255738956644 -0.013548505570309875
870 -0.0011157936207179177 0.004331733013225798 0.0017351636085738344
874 0.02048937837156971 0.02444790595316789 0.023392774877736184
876 0.009669653769842414 0.02173249485660746 0.007540163343848573
612 -0.00033335993239694766 0.0025688758595406756 -0.01888197990158369
610 0.008761338131914492 0.02940417070221326 -0.012423012953494841
233 0.0012492284447279407 -0.0035650577038861472 -0.004592760949865171
603 -0.0032253759196832097 0.0022185874103471887 0.003601450167192555
232 4.688031482745123e-05 0.010955206087849532 0.007127388563725149
604 0.00015721611158254665 0.0048352175013085825 0.0011296042819348316
234 0.001169031984683548 0.0008771401801873916 0.007973840203735606
231 -0.0004367163023783325 -0.008436291039741518 0.003027080508052249
238 -0.014747580041206642 -0.003296439793627102 0.03785803252931833
614 -0.0036237638915117792 0.0030639185454900617 0.0013882057438939185
673 -0.0006737923874789892 -0.0005373503328005524 -0.008247180068960698
674 0.0008809026014768567 -0.0005336783945152522 0.00010607350697288839
675 0.004638717672880289 0.0018879533456682685 -0.00401172350843245
676 -0.002166492983213806 0.006265531341636305 0.001074442669520098
677 -0.00815806067562691 0.0010014145419281752 -0.0057569548243618695
679 0.00669391357355895 -0.020667346601076605 -0.018442438337782693
680 -0.0017358084767906542 0.008341758624155586 0.026083796327638607
681 0.016686621996927945 0.016739010043494783 -0.0034038633767853868
236 -0.0037818945975929587 -0.0058032378637929635 -0.010824926760423178
620 -0.003380782425001233 -0.018731694036440982 0.024662640242409464
240 0.0053535138223384845 0.015544089741012014 0.024018547312285525
239 -0.01888558932341527 -0.048933542538307416 0.005270638331839625
682 -0.0023111729267876486 -0.020230446828753784 0.00026043997174851445
678 0.004978491021997778 -0.005248009141017516 -0.0017382503767413959
684 0.005231259151120954 -0.0026613451290583017 0.012176039177001375
602 0.0005199765856007199 0.005334000928933259 -0.0020688063219692974
607 0.004656260519685701 -0.007881794296618701 0.009630708615604841
10 0.01601559053123025 -0.02738366661775131 0.0011238228839722288
613 -0.003935016961255926 0.0010371706750482179 0.0042456362111797236
601 -0.006256555454942158 0.0022229587334989436 -0.005147514727669176
609 0.0032208871282994734 0.016225816345468963 0.0072353413415469124
3 0.0019202437481472706 0.0009569131778849814 0.003995283674360959
2 -0.0008346125765558738 -0.002620731356826945 -0.008780750113002916
617 -0.0014987168613995242 -0.0013726478728186948 -6.193245949869334e-05
237 -9.808333421776294e-06 -0.0021991709134866655 -0.008181994046072661
991 -0.0004278089302772637 -0.00027699772731760666 -0.0010090661313817445
619 -0.008897875876690617 -0.023006644256242766 0.011637506851342275
95 0.0034581079030215154 -0.0018424380661497815 0.0028146283130633157
770 0.0026029199465224242 -0.004386901119060073 -0.003725969439222983
924 -0.005761202090903884 0.02173014742246477 -0.019657538711053045
773 0.0020968629324900237 -0.0003418124685804053 -0.0052082757221011055
623 -0.015216371730580667 0.006098510037575384 0.016277480502745603
79 0.010248547348057597 -0.003851625364072216 0.004495970854215899
760 0.004887720014903891 -0.00107457051362096 0.006511518011732761
415 -0.0062359104784479496 -0.010605412679875258 -0.0012825199914768923
621 0.01504694885649364 0.009753737306719459 0.006099529252196028
918 -0.0022888468760624216 0.0023093533586487805 0.002305761971213692
922 0.010757454899121907 -0.01513676493513173 0.013829928868212781
958 -0.007456963088197401 0.030585077410811432 0.01599003765595517
766 -0.002189540886002959 -0.02510876578007965 -0.010656164499459216
768 0.020406381753054422 -0.006195820008920863 -0.01917350297063569
762 0.012936445466379528 0.00034170152781364747 -0.004750896368736288
767 0.0013782349444085272 -0.0032749415537316963 -0.011734612299990002
835 -0.002491572521245708 0.015057125498727295 -0.015667581054608797
836 0.029753210697835722 0.018586203287610167 0.022249593577712237
831 0.000648916901544012 0.011727660719702571 -0.004354335415428096
779 -0.01166513536914068 -0.020423125824238456 -0.030720523060508546
829 0.0033442276814286873 -0.0019963207036294704 -0.002023950393134569
830 0.007390447504750019 0.003163935020634089 -0.004033814110977974
837 -0.011923592440004386 0.009985691265988235 0.026525065414350214
1012 -0.0020653268787699315 0.003074269043040658 -0.0019343543030078392
1013 0.004595313036333084 -0.005506988593270018 0.0002402005927690702
1010 0.002413216093082301 0.0031301204111400436 0.0031788203365861077
1011 -0.003818735341026818 -0.00039334273534441587 0.001736793260631409
1015 0.0012937944203863989 0.0024027248230183134 0.0022978565862849945
1016 0.003461215141772162 0.001686102959270665 0.0027156825238401025
1014 0.0014788936495826333 -0.003644182676312902 0.0010997130131515393
615 -0.004753607976668769 0.0014883959773766546 -0.0011863357394266466
618 -0.004849499813880161 -0.0073652566995285875 -0.0011508686926942453
622 0.008479564353070063 0.015236658050052292 -0.00296967254396956
616 0.004750822567639285 0.0029039831215314773 -0.003976320568893311
964 -0.002933903209830351 -0.002054951612421658 -0.01039172726465239
319 0.008909104500510598 0.01866006448479273 0.018649168020744174
763 -0.007884671886361584 0.005185614052294692 -0.020308833970148963
759 0.0015622460710634212 0.002674650403858616 0.0076264468773217416
923 0.010082261409977844 0.02199675012873614 -0.012023285644962535
761 -0.0014860512746377415 -0.006214112364680321 0.0026007006400619805
85 -0.0021535384147589637 0.00345203140113892 -0.006893690491010426
269 0.014655506989931687 -0.001795010637534419 -0.00891843047962067
263 0.0009332519114350056 0.0014687969336496902 -0.002835441651530418
261 0.007356485897192316 -0.0016644923321627403 0.0045314391119174085
262 0.01137400636479989 -0.0008019307315156696 -0.002665475883386233
666 0.0004865877165803961 0.004409395432323321 -0.003593465361126914
264 -0.000599782372806764 0.007560005627279537 0.00297880509088534
436 0.0018406058632490772 -0.0014631648818990016 -0.005163505528475818
437 -0.00043561683996382446 0.0016395617551130724 -0.005228465180856434
438 -0.009927210904626569 0.0037639279457088405 -0.0024623468872609394
442 0.0050970014315334915 -0.016408690463132015 0.015503336345200408
443 -0.005860620851305196 0.012069777551304202 -0.002299872272859782
444 0.011456754941303701 -0.011740847267408771 -0.020343794592669617
265 0.0009668458351834399 -0.0037479539253690163 -0.005411036599693216
446 0.002121551010910757 0.002127931857118128 -0.0022781670700288835
230 -0.01295861988149878 0.006816081011932698 0.003923809325125372
435 0.0017024072905051449 0.00036094622472877645 -0.007152149761867344
635 0.005338800339640047 -0.004556406065766686 0.00843189703111675
671 0.025753732124472472 -0.03773709624977365 0.019084534351464042
452 0.0022183771059509773 0.01400681732252993 0.004252689897364148
636 -0.025617731714193414 -0.00666765134947003 -0.010304654859196575
228 -0.0052844374884368625 0.016224043675917517 -0.018268584504085833
453 0.013303400001840875 0.010090775785967598 -0.007447699745924034
445 -0.00037489883145712524 -0.008571262002680638 -0.0017436102522409664
434 0.0028361931543463394 0.0011756284050027826 -0.006168553821175756
266 0.0076077838852554236 -0.0021423699758125396 0.004898197131123375
108 -0.004557400779779496 0.013710527888786473 0.022238096306324687
462 0.0017143844829188713 -0.007460837082306985 -0.004650368321581985
467 -0.008269324188085417 0.006274770461610136 0.010870119674308594
665 0.005699206036205409 -0.006190871274093012 -0.004848534637884331
107 0.020668014854459238 -0.043509519228337436 0.023629524684107894
101 -0.001934098465313857 0.0015311684912954556 0.00038431364031314686
106 0.0021386423936623107 -0.0029357573343421184 -0.002183751367568326
468 -0.0058448273930016195 -0.007255860192142001 0.033580759607851465
670 0.00871286719452969 -0.0001548414225577974 -0.02162639034991774
243 0.00645024490017727 0.005500705927467208 -0.0008995179433496543
244 -0.005721015719190201 -0.006545605569892834 0.0006813006006502229
630 0.004147863164966725 -3.7936016593985006e-05 -0.0010269537356673523
270 0.012983526589461643 -0.020950208430718598 0.009252906459327248
268 0.0027578603327615935 0.028319429080567435 -0.006804662572410039
229 0.015655181345173387 -0.005972031115062839 0.0269326221075137
222 0.0001499590796291663 0.001938887997301859 0.0032602114048066733
851 0.004819785772388053 -0.01852567083802692 -0.017475748334197353
852 -0.009395953391929905 0.022052172621073732 -0.003122786620464305
384 -0.006534518668819046 -0.0140625407519207 -0.0067289211449282
383 0.009821014902722008 0.007965459397865396 0.001576129761886201
449 -0.005328842250295036 -0.0023201208332315 -0.0015765258678359167
447 0.0028366754058683718 -0.00457112234482053 -0.008834678707966871
245 -0.008996429247405768 0.004198753693784291 -0.0012258691117166948
450 0.0031573244822143227 0.007924287047091604 0.0009983835709299893
850 0.012291952464232711 -0.007333823046900324 -0.0027650368499216303
846 -0.0063678694217655105 -0.003406075091992416 -0.0025465360251248426
110 -0.014688473225051386 0.01166585732090208 0.010947999889783521
845 -0.0008765923720737599 -0.003379560597153515 -0.003077872119074086
102 -0.002569710683999302 -0.00021796802459590693 -0.0016720146906707878
448 0.0008477512869625509 0.0027419990024328124 0.0014416857796898277
451 0.020929545182658448 -0.01859246224899447 -0.010631712851274084
103 0.006589198258191943 -0.0028977949046563776 0.0026276755737971013
104 -0.0018610606163855811 -0.002207898891872363 0.0026189581063918244
105 0.009762550659111862 0.0010727962197679215 0.0039622233416704705
843 -0.004380751215433101 -0.001146117235845471 -0.007696518551235638
961 0.011196880708357681 -0.005582802793891907 0.00558562594357725
996 0.006550622405707643 -0.0012881302615961375 0.0033002940304486107
1001 -0.0009055030457118519 -0.002203723678864082 0.004920284352884781
997 0.00036177059766283993 0.0022951112493679753 -0.0003000643126674102
998 -0.0007238580792419959 0.00284630452443341 -0.0033433849168660983
815 0.018707986323941318 0.0008845733108057093 0.017092724164221095
842 0.008905581005271671 -0.0009129716866926559 -0.00012428938875075273
877 -0.004844703998641987 0.0017367615795262131 0.0035788918421946455
885 0.027638776105756505 0.0056772149159033435 0.012777859593957974
455 -0.03150542273076202 -0.008017445648491061 0.012135252789540113
883 -0.006543837919531813 -0.005364136441009203 0.01762675573053974
1000 0.003556146391008152 -0.0027721893935877097 -0.0022372491602471742
659 -0.004952649970789821 -0.005447055970453294 -0.00985825795564051
926 0.0038193804898881043 0.003832302606371122 0.0012485927875036634
929 -0.0008578566282702668 0.002286031564013126 0.008631720123062908
932 0.027867466228703678 -0.005898961626350226 -0.012704099735960083
927 0.003012793583730189 0.0028812172523326757 -0.0036310352110365436
925 0.002379502443197982 -0.0008929262148231304 -0.002348542202917697
931 -0.0054152455116317525 -0.020046794941397605 -0.0016654027763077879
880 0.0003619254028108563 -0.004532297594873338 0.001281986222942405
109 -0.010532086974052769 -0.0040014591371279945 -0.00833436911427269
848 0.007164609309657728 -0.015830129287572683 -7.38267925878642e-05
999 0.005606825316080605 -0.004076990783995807 0.00896145613973526
844 0.004204495675614224 -0.002640415653633645 0.004720314586338335
841 0.0016700661746835398 0.00208595206854695 0.005430390907973667
466 0.007067862907716405 -0.029068496325511044 -0.023302403071634892
458 -0.005891732484510717 -0.005764048510623901 -0.0015117439656303893
461 -0.004381626952584157 -0.0034644676505553047 -0.0064353101475991
884 -0.020417436830441595 -0.010890291655928992 -0.0017092329865446938
879 0.002360687307491032 -0.0003976953726779245 0.0007904201453540859
460 -0.005323063429449921 -0.0039843161790293225 -0.0036058687613988983
465 0.011462080154361242 -0.004924910834594501 -0.008403925552389236
427 -0.010125579644997877 -0.007151001660365447 -0.010956990168152622
341 0.0021454679085592277 0.00013207711632043357 -0.007524584685092647
878 -0.0028452608411097696 -0.00037342199767575443 -0.0005916050590692922
429 0.014522864521418492 0.009956771532181385 -0.016501537064335072
464 0.024528002772440535 0.0212409860803055 -0.0069742813268293844
457 0.0034109929664920616 -0.005421369249047019 -0.009478196058071053
459 -0.0005732716296288759 -0.0020574550785600974 0.000224674789432359
463 -0.006192581242023598 0.02161567988898135 0.014821505208713726
339 0.002752094163578636 -0.007600569667598306 0.006832143224406633
340 -0.00029851405892784876 -0.0033039614907433837 0.004239278421644144
545 -0.002428500219795539 0.0027258999678701564 0.009238216034232824
552 -0.03674199345829464 -0.003943959397414393 0.014799714810077485
550 -0.004346689055991729 0.0019384884324668745 -0.00741598953767822
546 -0.0006646897740959204 -0.002788915039759052 0.009259193127057327
551 -0.024332681132157797 0.013136213218504441 0.011849333837712937
113 -0.0021156067113170607 -0.003819779827156604 -0.006658680535955007
345 0.03805152528707349 -0.002102918012333962 0.007343530082162394
337 -0.0016250025935617236 0.008143179016890224 0.007052175486821005
343 0.0040910766717243375 0.0071355899477223254 0.004579043765432196
338 -0.0009250290212217611 0.005105217334039084 0.0026261603184866266
344 -0.018641615805224786 -0.01735363691046319 -0.0053917043046566625
114 0.0024981888197289554 -0.00697579500050058 -0.0074184596743609174
881 -0.0017452362630673952 0.0001651487164042015 0.004099751937621867
116 -0.0011210114490919241 -0.0020961955660881173 -0.0042365042276966795
847 -0.004837920894904375 -0.016278190411154254 -0.01614067718254752
115 -0.0005570482295976565 -0.004983036639851974 0.0019116272360710058
710 -0.0024337541586742957 -0.005095516721505703 0.0029400464978953486
715 0.014067871903469824 -0.010772518206508416 -0.019467750702616016
663 -0.004062907286718998 -0.0036612905295179445 -0.0005636554103246682
662 -0.0006069781588752221 0.011051384021560667 -0.003999695124249485
672 -0.010455719862117354 0.005856067516064355 0.02757989495173223
249 0.017237183869483922 -0.000803716905953666 0.0012889581269378589
250 0.007264971246418919 0.006114025792090537 0.008721629122622065
242 -0.00046006913539384735 0.004269671442912704 -0.00034048057931946544
247 -0.01624684987411754 0.011426633103549366 0.005024387586034662
241 -0.0017195721229298093 -0.008312212936993045 -0.0034034984362801596
248 -0.0019475231952475747 0.0003708590594451077 0.0021769711807289693
717 0.006659945452820172 -0.022201634009502494 0.019735298344034535
709 -0.00020584299704050994 -0.007885898973941473 0.005442989119406143
716 0.008684379278539663 0.0024498377793416553 -0.004924443380527415
185 -0.0026343629988655284 -0.00017256310036523834 0.0003648354403485407
898 0.011114022423897446 -0.014343429751042929 -0.014550293943727323
288 -0.03693736705649989 0.0014410380635932467 0.002349487494675922
283 -0.003346616698844469 0.007974664518260116 0.0036544879718662534
281 -0.0031664029237476105 0.003605465368370936 0.0011856895435516498
282 0.0060524748989014224 0.003118516696922754 0.0020711419697768845
892 0.001974337625330079 -0.0021452353522129295 -0.0026865963191474848
284 0.0065015051621050545 -0.0023335825681436314 -0.007514377757909811
285 0.004403110646257933 -0.0030755101891976754 0.004526299835574066
286 0.005711133222838657 0.0015340832072286185 -0.004658738708770787
790 -0.011953905081424606 0.024512890767298998 0.013687794825396447
246 -0.006904504478638144 -0.002493942908084111 0.0013628250130687145
290 0.006988437215998667 -0.0001256660015455694 0.026911620830896037
287 0.006593400460657491 0.01509066851438916 0.02744938562375977
894 0.0006427645217395704 0.0071469022387347396 -0.0034849445862934337
891 0.0006494443737864045 -0.004605086899343651 0.009511320099361145
893 -8.8372562782582e-05 0.002467757284012304 0.0014916175890988229
900 -0.01682752478978327 -0.010062952684133798 -0.010340130620031964
899 -0.012174043096299325 0.0038506682792637534 0.014102237587082917
488 0.018486776136864856 -0.013093435980790106 -0.016672903111592297
289 -0.0005265214510388705 -0.0008729707892337498 -0.0015835852365324145
481 -0.00029481657933797906 0.00046800102182141274 -0.009553682795745819
487 0.004258443931622427 0.010363298279922169 0.0027239181026878045
489 -0.008183548223719946 0.0074187581530529715 0.03983978437032398
168 -0.009006528549861352 0.019037185032112356 0.00729841037143152
165 0.002257667630692037 -0.00061298925622401 -4.589276335879646e-06
456 0.011931625618143694 -0.024941433784522037 -0.002580821937910875
1002 0.0012272992755210325 0.0019549157177639514 -0.0002526961214424737
752 0.007630887121012582 -0.03311178094959435 0.019880044634702835
504 -0.022422558857505496 -0.0036199115747533434 0.01256573724952373
890 -0.0017693671157391912 -0.011050157545556402 -0.006728502820725941
499 0.01404865547430049 -0.0006738440616157171 -0.008539371989682576
494 0.0009365608134891843 -0.004825698421592282 -0.0052519851512354025
167 -0.011524950740191985 -0.006582854487961612 -0.009344521651475314
361 0.00187963532672438 0.006504120316564699 0.00534308541739231
369 0.004505819259818408 -0.0012876720949050273 0.013314285673700466
367 0.005250960524518604 -0.011474418929577925 -0.0008286888279444651
166 -0.007910471258138214 0.0006944688939195334 0.0032353866546464024
161 -0.009412208855583326 -0.0020712986605192257 0.00034426052184657375
162 -0.0009399773937490168 -0.0015268213029165465 0.007329865829333883
163 -0.00018306410301294914 0.006949058196820948 -4.989224125994657e-05
164 -0.011481962876765983 -0.0004330619566864326 0.0018426500799952593
169 0.014493530210584445 0.004743576889277474 -0.01328504401729035
170 0.03464257326952663 0.027706893144919073 0.006277073222518795
368 0.0037867865190344676 0.0007832221510194143 0.006238111859047621
496 0.00325410714578574 -0.0008163377970777143 0.0006600715531497083
209 0.01046780553554993 -0.012327489691035646 -0.012071867179716231
207 -0.017088747109250922 0.024081954272506746 0.005096261815915092
202 0.005192677505276212 -0.004476507972919269 -0.004385798697391098
210 0.015887352605820443 -0.007108227318391772 0.009304284243939944
201 -0.0015342004034207212 0.002033740156507928 -0.0038765674498935743
495 -0.012116276860094363 0.006398634276916862 -0.0015635829036840347
753 -0.03253435680149831 -0.002889489782920787 -0.0012947505898463537
745 -0.008571199901556185 -0.003443421853970391 0.011453225165129696
746 0.0006961260386911601 -0.001315346428266106 -0.0017613955707562684
751 -0.0023621860672848366 0.0007631972463921076 -0.006425683543357173
748 -0.002164451302254616 -8.130573079430796e-05 0.0021450953323286495
493 0.004696306566279036 -0.0009367822532860905 -0.0017964117879216046
217 0.02004873787909798 0.013218594760479737 -0.009272312598389844
208 0.04459970854218283 0.035651483374132716 -0.016665139425519785
501 0.00923635388892786 -0.003829098303550867 0.001010734798539453
747 0.0028139903905748487 -0.0015618296198870538 0.00016048492106132318
500 0.003712501973751732 -0.009384647565276088 -0.018037243941130113
206 0.0021819905121879825 -0.00017349027515582826 0.005255158736164514
959 0.038155457207500944 -0.014089142734116844 -0.007258104147674862
664 0.0017562102960089648 -0.004842002757340672 -0.003887485603224312
667 -0.007667600630156561 -0.005801463844010036 0.0039416745165138795
661 0.003519821941441673 0.0010746050081580898 -0.0013677705855012234
668 -0.01305973166341571 -0.006353884209475075 0.0007164958262417455
669 -0.0011355587309967053 -0.018334106013046386 0.0007557241414318051
543 0.005385862458013332 0.0039167503593647126 0.003864326254409221
544 0.007256793039384679 0.003927156220512448 0.0006243816874695449
963 -0.0021122495291772954 -0.0019930313005678325 0.0044788911569309435
542 -0.0007172024300365362 0.0013418729897818375 0.0009989983982698974
547 -0.0034968062948028044 0.018498954411068896 0.02052919906276754
541 0.0039270836662928 0.0013730759273040958 -0.005522925113892911
548 -0.012868084893516282 -0.0012040922177350038 -0.029933838781337443
157 -0.008141947037787743 0.021410893181954983 0.020571376847358328
549 0.009095667369690814 -0.0008360606719479759 -0.027386613888620653
749 -0.0020280137125014788 0.002083844105010096 0.003261933872526698
216 0.0072210370097103745 0.0017931965112529054 -0.00618980896776167
211 -0.0022773537344473083 0.006187952178852713 0.00755733192662356
155 -0.003585419733687995 0.0014684181418074284 0.004494082665320002
156 0.00037092885333395723 0.003024891945825255 0.001631330469666356
154 -0.00217782629884806 -9.134485065416833e-05 -0.012067319545294471
152 0.008764044795750986 -0.000853905280549086 0.0028852079878751644
153 -0.0019069186026836207 0.007942329140903339 0.0060577367242629025
159 0.03270668042611527 -0.0031549225986712685 0.0033261959567827343
151 0.003407382662364132 0.010586219256613802 0.005194925756167265
160 -0.010886097686764714 -0.00649452267307746 -0.028266975682194887
158 -0.002473336813728371 -0.018326840513480852 0.011562440788268902
972 0.0032302512615574263 -0.004828184114940301 0.0022941329003729883
970 0.005287304735811016 -0.0017088295963688892 0.000548412510417453
969 -0.0012236403371261744 -0.0006641142867714464 -0.0017038928015596082
750 -0.006862395502031878 -0.006065350725094784 0.0011967926892813344
968 0.002447039231165427 0.006745555503769906 0.0015545468647655781
218 0.0007605661467387229 -0.008737079088889224 -0.013550376919160898
756 -0.00561219533146531 0.005490626730191434 0.008206925862897875
755 0.008287342806949316 -0.0031046071915858107 -0.010276956671875908
754 0.0031147303340950264 -0.004272592602658067 0.019727820341754947
183 -0.0017018161900935202 -0.004417511399533991 -0.0022039705693989624
184 -0.0026320000568972614 -0.0030442647278515643 0.0011206349418309205
629 0.0028026905040015745 -0.0058086657448923025 -0.000473306135013019
897 -0.005714787918044916 0.008295437568515626 -0.009040496020952525
632 0.0038367660746784727 -0.013360231333907822 0.0021683213993472536
626 -0.003675489823731092 0.0017822603885077398 0.0036064295719327112
627 0.0007104138028266353 -0.006304616999574776 -0.014464945639677002
644 -0.024256996656654928 -0.00932209983363069 0.005877904924217182
490 -0.019929349650539163 -0.014280639792451066 0.016309523462781368
492 0.014094806364679843 -0.010400767844000685 -0.010115026549018262
625 -0.003704556115108248 -0.003931185716481288 0.0010968912311178668
628 -1.095512782080758e-05 -0.005832243167443334 -0.004107896273935424
631 0.015077363261053576 -0.014384638135397428 0.001460698451272021
633 0.001957660221283351 -0.005582751845409614 0.004830605908308433
484 0.0042233557397281865 0.005784690963532231 0.0017896523418837866
486 0.00302988859048763 -0.008157960991207936 0.00774744440923554
491 -0.013519313299217217 -0.004273077563710717 -0.005631672741856845
483 -0.004264306665652936 0.0011941721333588412 -0.0033021735987625454
485 -0.002312520735126705 0.005955686784793061 0.003384596340092068
634 0.010935370645993437 -0.02537228682030494 0.002148179887905797
637 -4.478595090237663e-05 -0.008576933849765619 -0.0009848917478755615
643 0.009012693995251238 0.0195238409470293 0.005669729019009804
645 -0.01850918882131827 0.018331481367659382 0.01186740809259133
482 0.00042543789505665615 -0.002152559541178036 0.0015924931954223057
476 0.008395368352227452 0.010563556599804834 0.00988227154876278
640 0.002293745521849946 -0.00026520656932796344 0.006546869691520331
638 -0.003566106353532467 -0.0008857785726967167 -0.002243836050405687
639 -0.0020464130422347317 -0.007023819076668224 -0.004502950571455736
989 -0.0017388177863558256 0.003720443899178806 0.00038540362777700354
889 0.0045623908593557215 -0.005049949279460616 0.008349842668298923
992 -0.0019316805572588205 -0.00037437456728382155 0.002314048633945729
475 0.011698245324667013 0.015558473524071711 -0.014662711548705458
895 0.03156813770059589 -0.00789624411094791 0.0004627173383683142
312 0.014361514089720131 -0.013277930658203348 -0.0062701633295507014
469 0.001448373314547763 -0.00024296270816605092 -0.00917971255584015
477 -0.023240857729338017 -0.014139155025304584 0.0028641973296417017
934 -0.0028344928350237074 0.033839887573952954 0.012290716133861
936 -0.004568097602871167 0.008847169221097921 0.013258651261740946
930 -0.0007582642454722118 -0.004384944166076978 0.00014517651370811845
497 -0.006501061549147907 0.0016216913251247132 -0.005435161949608871
608 -0.008314311770895037 0.003810010551875399 0.04946632917068594
994 -0.0049796456491894795 -0.002654215780236468 0.00035234378594921085
896 -0.004078196057714982 -0.022014702712267242 0.006914665802171699
498 0.0005012669923262312 -0.0031887452665883514 0.0023518233865623436
502 0.01567037576896703 0.013376653647743795 -0.01927135908046749
993 -0.0024955722421541736 0.004303464350156706 -0.0033473536878364826
849 -0.008551977883861755 0.01464165335427158 0.007932301070952724
503 -0.0017600244160686142 -0.008486694491658155 -0.008887965778011056
203 -0.0057875228639572346 -0.0070541663401554175 -0.001000268716120268
990 -2.344652266812866e-05 0.0011118505444662702 0.000619535803111326
995 0.0028399144534375317 0.0029227950544375215 0.002472850990733151
204 -0.004406925130015123 -0.015312516682907331 -0.00026192288869901525
654 -0.0011805705805762686 0.0028744774111771417 -0.0009802095902112459
660 0.015757628223602174 -0.0014673238700040011 -0.02018632831260458
586 0.010527185576624768 -0.020966643068053906 -0.01227905432450809
588 0.0034535664820894833 0.012161040109472394 0.0033822533557229246
580 0.00575381263647717 -0.00442175206883625 0.004859578931066722
582 0.0005239748853827485 0.005665941125212509 0.0039128447924146915
587 -0.026084716532711612 0.01261201497607568 0.005394349155464555
581 -0.001298928036692135 0.005019713985855705 0.0008352513184527484
649 0.0004934131768967218 -0.005343939517089792 0.004974089059171154
650 0.002959372639616342 0.002583264231894848 0.0034722032270398566
651 0.0006285844770700481 0.005650737358937349 0.0035955947156112557
652 0.00436007661225692 -0.0003030351113255052 -0.002493124617508622
655 -0.017029808187299454 -0.0013128353552273313 0.013789246057674566
656 0.021868062895147544 0.008472555450260275 0.007584935611779465
657 0.005849162337909938 0.015024993582227386 0.0036880136011327187
653 0.0006492407840405748 0.006662587603228608 9.603600523020852e-05
205 -0.00490491990392675 4.53683497429589e-05 0.0009269254124114921
967 -0.009700738446898227 -0.003707627788616076 4.421736935322037e-05
658 -0.010654036895483637 -0.005010980416188267 -0.0027279992432773337
980 -0.003768303971310729 -0.0026291157865329855 0.0038052574072531225
979 0.00018978730429681227 0.0005359464133469385 0.003446052377467015
976 -0.0008164907867605071 0.0007024801497785651 -0.003382333936709577
975 -0.002873779134987809 -0.0001973391621944623 0.002060815434582959
935 -0.0005266799176585073 -0.022673238262680657 -0.0152567200063347
928 -0.005857575601200312 0.0026281765725780113 0.004217070636213307
953 -0.0003573677213882161 0.0036357056114144403 -0.0021183431035881883
960 0.011190010848045072 0.0173995445688659 0.024296325483866007
954 4.897334384702777e-05 -0.00477699305055085 -0.0018103278327210356
624 0.025353334046997186 -0.00030364007637678206 -0.01165482474744167
219 -0.01031234368565674 -0.023698019630361597 0.028022582789731618
214 0.0026392478213523294 -0.002775017044372242 0.003449263125648934
951 0.005443926990160451 0.0018129590422473396 0.005639833624706276
950 0.0007883336391372918 0.0034112385633841757 -0.0005101358970423207
212 0.0038066341185198417 -0.012600677591154798 -0.0037650386122373134
220 -0.017108211306278796 -0.00878682462092519 0.0075064287208503645
215 0.0015986921398883237 -0.0011264850968055106 0.003796914653153225
213 0.0025554035044464568 -0.002542519110838643 0.00658306187218341
112 -0.0017675140004781648 -0.000575892101490963 0.002859322398252653
120 -0.014213304950668195 0.04210305989793056 0.01261667112640658
119 -0.043392422503703114 -0.005787988928983434 0.0013643495276735834
957 -0.03217265397541132 0.006036453704410685 0.013804819653198751
323 -0.02455708581080764 -0.032742740004605905 -0.006537086355577099
952 -0.004777955317461581 -4.481592228629369e-05 -0.005657225000564827
949 -0.00032233355090585897 -0.0015454992773769527 -0.010373394745114192
955 0.024625303520050046 0.0016982343943647686 0.010798685221870127
318 -0.002305346574025396 -0.001651304039585904 0.0017753073175378164
324 -0.01545484958780494 -0.00642526755600365 -0.012053378911341952
316 0.00108442136551023 -0.0028082490832540383 0.0059921043178905
321 0.014802818209109796 0.03594873432834314 0.011737971341972036
322 0.0025140819285054358 -0.01729118986541865 -0.007989352588636162
313 -0.001154588750392357 -0.004725872406341629 0.0058296011291294305
314 0.0011906631346064516 0.0033708928245808757 0.004051739018931199
315 0.0006492844819350664 -0.014966778890923071 -0.009857236896249613
317 -0.0021764556523091922 -0.0008705370841809851 -0.0014426585286989582
320 0.03026703461345235 -0.02110908255957987 0.010026295061463866
956 -0.010695393685100382 0.01373956902632314 -0.01054152447595445
472 -0.001537207202865503 -0.0014333096857585882 -0.0069096723142661265
981 0.005720334650496869 0.0036123302698390747 0.0006874122988151462
471 -0.0012929606776328271 -0.003779633532348972 -0.007019903315965526
470 -0.0016093340956928029 -0.002371843876539527 -0.009509064390313276
478 -0.002018493254869402 -0.018450818024146578 0.006055999464069114
474 0.0018575155108315313 0.007802869152611102 -0.00027223913175528633
473 3.9369147560532283e-05 0.0015799894151248047 0.0015157345219414704
111 0.0011054695571669512 -0.005660337305920296 0.0029692426271532013
118 0.01258461012378942 0.0035562524387601534 -0.005727855488391525
117 0.001057775963112097 0.013558990975198632 0.013955338774070144
479 0.014709706846946988 -0.011488296956825184 0.007092134544803498
52 0.0038621893715357412 0.0016658305870069186 0.005124502312960656
60 -0.00166697348730493 -0.018616159873004953 -0.0033784702385167916
59 -0.014926785531444386 0.013958356170434474 -0.010378130738292888
139 0.009288606097981834 -0.0076879869920267446 -0.0008094107883466243
439 0.007416050364574604 8.099781431646776e-05 0.004610746351723222
137 0.005557195268412441 0.03403113174748373 -0.002040229784397902
227 -0.0070184620381594474 -0.009282908741399493 0.027519241772221245
221 0.0027190469765744955 -0.0009238724857547448 0.0015319439809388178
1050 -0.014325096568534599 -0.02637084650823268 -0.004825287426102768
1044 -0.005194216160764986 0.008488754110965231 -0.019976019774740967
226 0.002172297946323962 -0.003617606383396886 -0.005696773768086144
224 -0.00040018106050942147 0.0017908854656047601 -0.007045317700767397
536 -0.002620874776522692 0.009263906835728067 -0.034568380588799304
223 0.004373755769391737 -0.0013078996913857678 0.0015888631938156487
535 -0.006337394186642099 -0.005560459818706689 0.0027202146762697384
225 0.0006044429139974854 0.0026319033466891445 -0.0010518049376139105
529 -0.0025175150933998314 -0.005193473950677696 -0.0014361163269692057
180 -0.013977929386364609 0.007316226255150504 0.04292452857459814
1025 -7.688290290915172e-05 -0.004622903680862008 0.0028507755928851783
1043 0.018389812497359475 -0.016031582507880605 -0.016499830586172808
537 -0.012006633134020006 0.014021556727313264 0.019048258625680426
530 -0.001900604936932435 -0.003210754801249467 -0.004275589511841528
694 -0.005112437197566945 0.014359671027862184 -0.009404547969548791
532 0.0010624044771760676 -0.006478749545946295 0.0016369773781563827
531 -0.002561019681704444 0.00017422449760580176 0.000610827440333092
776 -0.01172164633388245 -0.0042239988647536355 -0.006399945889996996
533 0.0014282996307280024 -0.004300441497727442 9.602960757322392e-05
534 0.004464944086812286 0.004218927485401964 -0.0006896772176472584
538 -0.011224850599139722 0.004327490517076953 0.02195689771312839
1042 -0.008082224918099706 -0.024267154336740232 -0.005500150746676124
1045 -0.008072476397608882 0.0164822485820857 0.007166402186662964
1048 0.029231978403952114 0.022438208271759647 -0.020459295940555438
539 -0.017360681993743098 -0.01740073505431173 -0.010887886302998258
540 -0.004234306631622183 -0.020527385706377837 -0.03164026651831679
258 0.014037819887428346 0.021464157667509826 -0.0028327541119069185
178 -0.008923476320484312 0.008067626250598755 0.005492735080652009
695 -0.00010586403125774776 -0.01813626440871225 0.01053610532940132
690 0.0026118888230454414 0.0020854091021273425 0.006610282927634954
696 -0.010138544693116282 0.008822983057875638 -0.016054935042725184
454 0.03369075350572679 0.0010751355557316372 0.012738857884195934
172 -0.0034394967292086433 0.0008861337036230687 0.002425345019801871
860 -0.012357611811768655 0.004881095428920209 0.020877335604537587
53 -0.001873729782382935 -0.004716501087963046 0.00492123408924815
853 0.008376899705080397 0.0031123557108832557 0.005115071402380327
859 -0.016385545424935026 0.0001415722132240103 0.019272662007915876
863 -0.009862346649932572 -0.01915742825448808 0.011806022346610757
171 -0.0064607831302504965 -0.0005863116385911162 -0.005694791644572185
864 -0.0025555247108389376 0.008192391948440859 -0.000247164175317902
858 -0.002890296667783844 -0.00809337445157838 0.005372626122233791
857 0.005028232744425912 0.001788899377031092 0.004429785030463432
862 -0.0009950134495848508 -0.007049434623964524 0.01396434033252095
855 0.0020873046396814978 0.0067579425801721745 -0.008028220804412334
173 -0.0022615674607705536 -0.002012735895527069 0.00016984626324647749
514 -0.001956620273817136 0.01140921953086689 -0.009469187172859066
176 -0.0032720710827956775 -0.003956471461626464 0.0037020238802842214
854 -0.0033618772728536187 0.0050485041479329945 -0.0050032780829584915
861 0.0017570879499539263 -0.014556016362985777 0.00921918287608924
856 -0.006432364139812232 -0.0031949251124007414 0.0018576428852730103
561 -0.04290487207460503 -0.011070246434294573 -0.027197807537938403
54 -0.002513952729197484 0.00181290611523683 0.006187397561523146
55 -0.0008001307439090098 -0.0018246752797047225 0.0013789278536595593
508 0.00320982503957196 -0.0019234571821512322 0.0004653257384033307
510 -2.8296192949516128e-05 -0.0023757284954318432 0.004197064447685909
516 0.0056068747163998305 0.003640669848644766 7.635051902026096e-05
555 -0.0029294639090437363 -0.00017899329954347264 -0.0032524276240093143
556 0.004255425619106805 -0.005199176281962123 3.75869354016166e-05
557 -0.00331956906013126 0.0012399211150007738 -0.005272108686431415
558 -0.0022487277285758644 0.003067582651621737 -0.009508020429731041
563 -0.00254712769680597 0.006214728073266549 -0.01075212853037454
564 -0.02220694856920177 -0.013703316699326267 -0.020496755828006995
966 -0.002171687507328295 0.00024363011684413224 -0.00137918735616429
562 0.0009822094538208754 0.009212411923862344 0.0030256412556744086
553 0.003110230184183713 -2.3457281672640554e-05 -0.0026351132627319656
559 0.010450793014923016 0.003972302793758342 -0.020068789061633542
174 -0.0004750215179131862 0.003270637251490448 0.002269799010741117
175 0.002925496993552331 -0.00572231594549136 -0.0065482307720035465
507 0.0013746428930320519 0.0035105755311033 -0.0021787780191591245
511 0.01632644758665457 -0.0017226600085503067 -0.0004501356732551085
513 -0.0012466931588800143 -0.012339380594694081 -0.011733488192643539
505 -0.00214071515590942 -0.0023873476958822396 0.002887701060466449
933 -0.04229498921769454 0.02334677880326971 -0.013759115402785082
506 -0.001375685547258683 -0.0010543600865317482 0.00474887767079947
707 -0.005407063098782648 0.0172776866050598 0.0015658075741869447
708 0.012378283594494739 -0.012844659033573451 0.007417620994141553
512 -0.01028749019128468 -0.012325611467431415 -0.00941993228361672
560 -0.0053707815169186015 -0.027793368989134606 -0.03806837744426482
45 0.0034010317381423464 -0.0017777313153430265 -5.178047525492113e-05
1041 0.003419571197002291 0.009528987033785043 -0.021082639804509834
554 -0.0035335005105923242 -0.0008078036714038928 0.00019996770042139005
888 -0.0029246616432457677 0.03480318590690233 0.007725746665623451
887 -0.02241483772121068 -0.01162903268602219 0.0057587684914206265
1057 -0.0008025705978566607 -0.0011641982585497855 -0.020403711021961406
882 -0.001880076521109696 0.007154180843584134 -0.00018220812507082148
886 -0.0032489356465184526 0.014276528542725774 0.0026355316645438214
1058 0.002948236675205037 -0.006941243376182395 0.004378398930691937
1027 -0.0010036615256269698 0.002446179809401257 -0.000796793596492765
1049 -0.0072415248976780856 0.0034527536441648684 -0.004797118313113318
1046 0.0106667189982488 0.011585023072561842 -0.008266597848546995
1024 -0.004492677744652718 -0.0015426279551966156 0.004329674233537002
1026 4.070103556744413e-06 -0.0007182206159764559 -0.0033266504412182932
1047 0.013044016574318846 -0.0084625141922966 -0.005947325360076165
1020 -0.0036052531723048302 -0.0006038599826529808 0.0011193336771056375
1039 -0.012280026783122984 -4.389069188207279e-05 -0.013836912981142613
1040 -0.024412750578388136 0.006191050103461468 -0.014508379661445563
1038 0.002256859551607801 1.3806008924885526e-05 -0.023621284197577044
1036 0.01767997289455473 0.019750453401394773 0.007886116281843264
1018 0.005252325907042221 0.0047748096881418305 -0.0033716592738809053
1019 0.00010597041838532175 -0.0008867717569177271 0.004450201116153194
1023 -0.0014091712198775182 0.0016627665869423573 0.0033392155770690535
1059 0.011610158151403037 0.009807163197528177 -0.006316242249355653
1056 -0.01180832831020741 0.0008368069569228594 -0.0005617988068625777
1031 0.004040105472098504 -0.0016309893661401627 0.00180541040727106
1054 0.0010897151772123403 0.01543985128795822 0.02048561704460279
1055 0.0009923202585687906 0.009954014984808031 -0.017300298599675107
1021 -0.0007781297647724603 -0.0010957958212830584 -0.0027821528975595796
1022 0.003720265614286139 0.0012836772907896387 -0.0022768544426477566
1028 0.004141578282655827 -0.00047565253748740405 0.005130393509755329
1029 -0.0030353755827922223 0.001439667128646441 -0.0006074627838535629
1030 -7.702947536239078e-05 -0.0018918874031299572 -0.0006353935910989895
1034 0.005475318911530526 0.00046289062355699595 0.0016662083284079256
1037 -0.009810043494979936 0.022101393017451277 0.005083771542084074
1051 -0.0027856937046015196 -0.0022191296850787635 -0.018596474338465795
1032 -0.0017151113864792968 -0.0063792545341645026 0.0007487059334355374
257 0.01435476231580089 0.014847406406117793 0.01996592542638301
259 -0.006473751649132345 0.03236641396966217 -0.0012431913323721828
1052 -0.013949723005822786 -0.010218355540780339 -0.013123659046581608
1053 0.0003784848022492151 -0.020282397212315267 -0.0184204580213655
260 -0.016600805291292247 -0.009117336231649885 0.016133831758519485
252 -0.004282616578976928 0.007383422883530234 0.0017331876874069991
251 -0.001773806701328277 0.011800206274995412 -0.004214380692970973
441 0.011928511613766912 0.018677965750291303 0.01001349809769497
433 0.003439568310393137 0.00467119568597723 0.0021092186825186045
440 -0.01169023101851252 0.00788976354720296 0.008763134440241996
791 0.0009448015825216726 0.001962073457231018 -0.0242083152065893
786 -0.0007947128790719327 -0.0020283321969690065 0.0015994164070418711
792 0.0023348259013877266 -0.003107133289597715 -0.011566091837681102
14 -0.003175905793449424 0.010077587729383629 0.00421336835021739
15 -0.001671305687633413 0.002230473059966404 -0.002021507083291522
29 -0.00766651592419621 -0.009806069300672642 -0.00955110053085477
825 -0.020972000302010893 0.0022655322934194482 0.012848113912778007
824 -0.01883042277808302 -0.012603909779160061 -0.038489641375785394
27 -0.002104599636755137 -0.018975533716788676 -0.0008345875591977115
827 -0.02883206424301098 0.02331086696367752 -0.0038711148785269957
826 0.014920718337656604 -0.029146344592779663 0.004773657288007455
821 0.0024119822588544583 0.0030449823702971062 0.0066008446043902365
822 0.0012198143708416734 -0.004682729015654635 0.007934656258969403
783 -0.004323780732713324 -0.006159784142034217 0.004961081227818626
785 0.005159181621817244 0.0038039062355048887 0.010598499429512711
819 0.00197957303657095 0.0027276686681094653 -0.003688215464212973
820 0.00018576932214306105 0.0005681889238128071 0.0009379407151707056
828 0.017608588308494398 0.006474301977490764 0.011938686747696286
784 -3.4739754899366203e-06 -0.0018584419896482687 0.005949528982014304
21 0.0012367410404801943 -0.0069501972311538755 0.001505595275611876
26 -0.003008445395711245 -0.0017956776459299073 -0.0022134235385418005
782 -0.004502574997977566 -0.0064647278073600625 -0.0022686057112619048
24 0.002531242197779831 -0.0009266033511329092 -0.008928806907751462
789 -0.015958257315208658 -0.024337983103953457 0.03357002956103807
781 -0.006020452937496776 -0.005829774090885327 0.0015384492497142967
788 0.03489343964945677 -0.014884782915206847 -0.014916141079800221
787 -0.009992271201396462 0.00973795910905338 0.010041065087767472
818 -0.00581886506059252 -0.0018938855461130867 0.0011561599712038946
25 0.004460481129140693 -0.005300330933347497 0.00016218898613675284
817 -0.005612213350795183 -0.005161134878042215 -0.002727361173153755
823 0.008634282181688168 -0.003221060886211196 -0.0032912600203709925
598 0.0076072437381316926 0.013464053172617492 -0.012715469466844197
764 -0.0012664535751555853 0.00884566148188187 -0.005793224561874637
704 -0.012498053927283112 -0.017276369622347163 -0.006373491975615709
524 -0.010374788508248033 -0.003628905616926001 -0.009310122293003506
525 -0.000588890915827319 -0.006691585345081589 -7.620279169460183e-06
523 -0.00886976526317747 -0.006179912416248698 0.029159532899271774
517 0.005850007644982774 0.007365991323381617 0.004857348360443248
703 0.0007242049539597972 -0.017394021861506154 0.0341759119734747
697 0.0029169003444752015 -0.00013622580055597537 -0.0023095143217279355
705 0.014509394738313336 -0.010062852219360426 -0.0003914114941187365
520 0.005068609830299253 -0.007013300746101714 0.006669812053396539
701 0.00027582377713013847 0.0037630644640532333 -0.004513894375222639
698 -0.003090541601756257 0.005373206592500595 -0.00286029497074586
356 -0.009503761232787514 -0.005924804694015393 0.015630657066479446
518 -5.053903762832855e-05 0.0025037638643700248 0.009963645716987645
526 0.00022359398726675157 -0.001363962721882655 0.023295301169289434
355 -0.027614824611199656 0.03223572842404389 0.022370759008874887
702 0.003408461165083771 -0.0010652395551838884 0.0007140028685441881
349 -0.0007729478020422246 0.0011066775452690135 0.004408162293361467
357 -0.007642576908621409 -0.016703348828583882 -0.024788366983395614
350 0.0025303432601112303 -0.0006651971480384378 -0.005781149221283672
706 -0.007205479548028718 -0.01314962163726722 -0.006586519901801611
352 -0.00320807031336332 0.0024330834812615145 0.0010784361000070134
360 -0.013269103601126537 0.022516853778040524 0.004974930739351951
351 -0.002367532353312165 0.009209853347151995 -0.0018576273921880363
353 -0.004598627316260795 -0.0038169678185642117 -0.001163618144600981
354 -0.005060041949550296 -0.0030691906383321873 -0.003456739513506198
358 -0.02382931415740669 -0.03479697878747296 0.016569814486763413
519 0.0073199644444964275 0.00243748141803274 -0.0017299715595078813
522 0.0007338889076099334 -0.00429420764805078 -0.003869317730783103
521 -0.0019464977449321157 0.008994706283859621 0.0002395347747675754
699 -0.006186961049188177 0.0003056267850400474 -0.001334673666562676
700 -0.0036382105279560337 0.003497686111622844 -0.00038258379022717973
528 -0.0037769193162327567 -0.014548236572743461 -0.011566102239455924
573 -0.004817206876996741 0.01704806544376673 -0.0040735950159132
571 -0.026660255090108848 0.008102067625454783 -0.02436532170065907
565 -0.00519085445648727 0.0039228761441588 -0.0004190658575006515
359 -0.01738920211857548 -0.0019154096610263737 -0.017243599000261952
572 0.003836227364536331 -0.0352299244506342 -0.024209200724478568
566 -0.0006435548844195174 0.006075756026094717 0.010443972820476488
309 -0.0034440316623707157 0.02306860208978725 -0.0064783535694450875
299 0.02668195006357577 0.012365137636858241 0.005564727010226614
292 -0.0046702626049816235 0.0004833822036839069 0.0076391215957945
300 -0.01134444076120505 -0.006460932805857208 -0.004348694698954733
973 0.001686742578772696 0.00025686297889362166 -0.0027816626966251025
297 -0.018768043778452176 -0.005568296385158494 0.012151187289451144
568 -0.005737349322362106 0.0013057320700557914 -0.0036359768776708322
291 -0.0005215739939232965 -0.0011319504590814526 0.0027629074811230912
298 0.007191961997698649 -0.022230253554079517 0.0008576743268033073
974 -0.0031176891190862325 -0.0001598498464259229 -0.0026078025972285966
971 0.003995714259380089 -0.0013932782576198295 -0.000711409992220805
797 -0.0015304410948840466 -0.010595381776792348 0.0062121473523304716
567 -0.004709095351611084 0.0020346841761863495 0.0022863408732263155
795 -0.010562531120133827 -0.0039102166337440444 0.0036445642525214936
569 0.00010517599709209545 0.003115460264674647 0.0008495774732822543
965 -0.0017989588501577175 0.007191572154018221 -0.004916097880422077
296 -0.004325745699928385 -0.00023491294415332214 0.006212492381779045
796 0.0008205447009735486 -0.006074570417266437 -0.00215693096372245
799 0.002507327283173695 0.024963058371077644 -0.0009302600302578754
253 0.002877124032351107 -0.0034179120340860586 -0.007331494125987372
273 0.00392560041849503 0.013509365280598533 -0.01283537215355734
275 0.006180140479055553 0.005045003506789724 -0.003199708766870679
801 -0.020126179459001404 -0.00893041557410683 0.0061745276747295075
277 0.027638235042468887 0.01630858431688802 0.001056978279695393
800 -0.005812367873054796 0.022817947497651984 -0.03411415695455815
256 0.005100776485253036 0.0011886456732037266 -0.00032278996043989263
254 -0.0027429934321659332 -0.0016533894567340626 0.00595571447852934
255 -0.00022332879727050907 -0.00843092868037159 -0.004884784444146211
793 -0.0002673316150599162 0.0028144927351624726 0.005990680688987671
794 0.002587450837001581 0.003284273992994042 0.008821476329061334
274 -0.0018929338831317332 -0.0018843676800858152 0.0026179913704022693
276 0.000289176102843767 -0.0004915950590237742 -0.0020008221894658434
272 -0.0028599503498437095 -0.0010774938497737797 -0.002507454116076614
271 0.001298155951521816 0.010185906316169968 -0.0016274346620712287
278 -0.02683770901030842 0.010563590799609774 -0.0009974543841196584
280 -0.017274840505608822 -0.007091362607167156 0.019207472890172793
599 0.011199253112189469 -0.013752612688188254 -0.020206400960360478
594 0.0016659660958203597 0.003588917557297448 -0.006874626344794655
798 0.0025613483968857896 0.007064670970784836 0.00999128452466435
804 0.028153023406081418 0.03647405996898571 -0.03139520838884494
802 -0.0027546505083235863 -0.01584014221210303 0.008944688135548993
575 -0.0031943670748367545 -0.007201634827772396 0.028682719110833726
570 -0.006197431179489212 0.009327649618911842 -0.0026140275522728283
98 0.0029256574975633875 -0.0011099698091723848 0.002882736716560008
5 0.006304606545531719 0.00218751528611639 0.0010064158910300716
641 -0.006118753804387203 -0.0030502208881672027 -0.009010651504779843
311 -0.02613735281649855 0.0009836892117269093 -0.02344115981226263
688 -0.009037299425126589 -0.002760831112789997 0.002505118199636469
91 -0.0058265373161175416 0.0020297084576770194 0.00794825110535469
97 0.004965037392103966 0.012165762838350016 -0.003758910859023412
647 -0.0016443753265377838 0.031652945881321164 -0.0070959913395348805
648 0.005703608610588666 0.0001138248797063299 0.009611720807197598
689 -0.00793547149740096 -0.008279963134796165 -0.0009414418782080268
642 -0.004063479563719998 0.00042685642140120173 0.009470322188137809
646 -0.009343824402992142 0.009587016886924099 -0.015174851682726814
388 -0.0028581508988836874 0.002644191298909547 0.001251147468052821
393 0.014670509359608341 0.02100141499342168 0.013614968875082898
92 0.0006396666554020073 0.0029425070498328965 0.004086990501624369
100 -0.0015018416654800058 0.011308250096763315 0.01015541246248136
385 -0.0010507283366286413 0.0007517348631246566 0.005037741674781321
386 -0.001339228835016503 -0.0033666835777335013 0.00656065473570149
765 -0.004335151079499829 0.012023130503906998 -0.010533169217596132
757 0.0022360745025414948 -0.00153248886091654 -0.0026320186283202494
387 -0.005573084538436899 0.005539716905789635 -0.007003201256459402
596 -0.008658026920615026 0.021388160269523122 -0.01253789619364037
589 0.005260486663018495 0.002210304492397039 0.005536709432560485
590 -0.005451056203702705 -0.001547748048759421 0.003768325015990159
597 -0.02552920291795646 -0.009767008452825408 0.016098724856201056
99 0.012727610591395057 0.013882718835727306 0.009296367414218238
595 -0.003745854172946765 -0.004718500513138066 -0.012075260471984981
591 0.0017294098786391399 -0.006247202480215622 -0.004445108578933586
687 -0.008514218870253339 0.0013652795039617873 -0.0058745645796279165
686 -0.0014973917482805261 0.003027078460587233 -0.007463051721956114
692 0.0015173087363895908 -0.01906268156341473 0.012192644170257108
685 0.001371008334444406 0.004187333477945022 0.004394429532447575
592 -0.004596900805382071 -0.0025853947796921025 -0.0060266052153608845
391 0.011926326680383549 -0.031849045298509945 -0.028021445726371094
392 -0.014926230046617915 -0.006714582400584547 0.013276332683113257
593 0.002317951901877329 0.002820381781688803 -0.0038693845978695547
693 -0.0014875729235362984 0.003558350829470726 -0.014064422622422008
306 0.0005245256855037883 -0.004204904705620359 0.011294132780077477
310 -0.016189013523531394 -0.020280622601892728 -0.008323943229850252
305 -0.00022300771989428316 -0.0060427703529642275 -0.006355851972672548
741 0.008168636543144623 0.01222511586449958 0.0065754688487718845
4 0.0029511699841175388 -0.0013434848189411773 0.0019826814011906215
683 0.0073886293736443185 0.0019622176388162855 0.0062933376636809145
8 0.014914742170483932 -0.011362945911267833 -0.010503784671963782
6 -0.0018557357840255663 -0.006539075822012281 0.002105553069071483
1 0.009570442544161005 -0.003779765107287837 0.0013273452118890369
509 0.0013103839234713558 -0.0044919316455594455 -0.0011905147681996737
527 0.03204320890729569 0.0035118687005887537 0.008569737829166821
93 -0.0009796603485741015 -0.0004901271528757206 -0.0032714724503014525
235 0.0015871156815844268 -0.0013848524523966976 0.002308950893921707
9 -0.0027697629692538437 -0.024973676091246205 0.010639324535001365
304 -0.0030098773857015594 0.0040091098524136295 0.0009081220968958998
303 -0.0013955138207152518 0.0025425718834755262 0.00933817970439008
302 -0.0021352541841665267 0.006060705029302788 0.0054712911118728665
691 0.01924896088334011 0.015395736238146806 0.014056542772118529
579 -0.0022815404774002707 -0.002551763468165424 -0.00012863524333664474
308 0.01044204654815349 0.005495421067147838 0.010545358314248254
307 -0.00035929898617736766 0.009322342697333917 0.0013669843406212193
301 -0.004352485464347587 0.00716444325419844 0.0027825491738967855
977 0.005770933243443545 0.00436231452997845 -0.0005710983445213887
578 -0.0009856353168201082 0.002961084548343511 0.0009493232885345078
7 0.004354272859424577 0.001611471048662207 0.037471261448752485
583 -0.01717125505734841 0.0046268439617028955 -0.008208601982511854
577 -0.004508186740863077 0.0064566194322686985 -0.002424453823854323
584 0.01580628785257335 0.018120365543557327 -0.0012663844668106825
585 -0.02604851439456321 -0.01287068532758266 0.023362888026350954
194 -0.00010276824142817598 0.0014183053548291447 -0.004489180143580568
195 -0.005967203290142989 0.0016336446045802017 -0.005856227993847543
196 0.0006430057938282308 -0.002988692828332056 0.005863815971825376
191 -0.0012266036445566027 -0.0045527708258081365 -0.012343469871986765
197 -0.0001855041685054995 0.030592976379858618 -0.010559799078091988
193 -0.0038939137760846893 -0.00033369873608399156 -0.005142546612504782
978 -8.70243158616117e-05 -0.00442186882942249 0.00285926373109255
1017 -0.002401567468381646 -0.0006775961807828944 0.007245772548953935
1035 -0.014849114862653699 -0.0073269837113964205 0.023876805847647238
1033 -0.010225055178912756 0.0006218288139377575 -0.020732486515723205
600 0.013399649823085915 0.0021308454881295226 0.002359962723246027
758 0.005661591519266059 -0.0014354827639204597 0.0017403727991911206
576 0.007981840635028596 -0.01316457580242841 0.02069767961078753
198 -0.004400068045098781 -0.005761510833525037 0.02318416087859831
192 0.00026830899190967504 0.005263482388246467 -0.007769325883682153
199 0.014815180098295994 0.008799633574507975 0.016367231053278506
832 0.0038588059791638584 0.0016928480322721867 -0.0032952945364152207
833 0.00011239072647621527 0.0008314951240090605 -0.0028773490346443087
840 -0.00493604827970469 -0.01476912066766375 0.005256336048197593
839 0.0026635707995630413 -0.016120318328664215 -0.009051490086557066
834 0.0010965182701536274 0.0053399529242935334 0.0025756846927912176
480 0.02486639025996613 0.0015706476743985484 0.025516539385015604
803 0.0022344314221653676 0.017645372265350505 0.01639181490178504
574 -0.0036065500220648274 0.016967543823691658 0.022226797985369622
743 -0.03068165201323935 -0.0006772340232074871 0.009538724858556977
744 0.016173170811599503 -0.00041540367446084883 -0.01174265300161427
200 0.0033659256256016153 0.009049545256039872 0.0302502437134397
838 -0.036689329656819855 0.026096837270730557 -0.01981431897736994
740 -0.009213331544596033 -0.009180116422956673 -0.01149738630784795
739 -0.01864832312054153 -0.010567872770186155 0.008503656232035285
733 0.005623635314991904 -0.004661904108288067 0.008076582018887984
734 -0.003062338549656419 -0.00012809111050240716 8.446887438612101e-05
737 -0.003063609241137467 -0.010557209327727655 -0.008107410089656727
735 0.01022816351593846 0.0026979580662812802 -9.272996634497476e-05
736 -0.0007667203785293572 0.0012963407626230094 -0.0024391994034697567
738 0.006150931850998615 0.004122111165294325 0.0028312556519703713
742 0.0010614001556215442 -0.011193370047893059 -0.008041555673741752

Bonds

1 1 31 32
2 2 31 36
3 3 31 37
4 3 31 38
5 2 32 33
6 3 32 39
7 3 32 40
8 5 84 85
9 4 84 86
10 6 983 984
11 6 983 985
12 6 983 986
13 6 983 987
14 6 983 988
15 6 982 983
16 2 82 83
17 3 82 89
18 3 82 90
19 1 81 82
20 2 81 86
21 3 81 87
22 3 81 88
23 2 132 133
24 3 132 139
25 3 132 140
26 4 133 134
27 2 769 770
28 3 769 775
29 3 769 776
30 3 769 777
31 2 865 866
32 3 865 871
33 3 865 872
34 3 865 873
35 4 83 84
36 1 131 132
37 2 131 136
38 3 131 137
39 3 131 138
40 2 913 914
41 3 913 919
42 3 913 920
43 3 913 921
44 4 914 915
45 1 61 62
46 2 61 66
47 3 61 67
48 3 61 68
49 6 1003 1004
50 2 62 63
51 3 62 69
52 3 62 70
53 4 63 64
54 5 64 65
55 4 64 66
56 5 375 376
57 4 375 377
58 4 806 807
59 2 373 374
60 3 373 379
61 3 373 380
62 3 373 381
63 3 378 382
64 3 378 383
65 3 378 384
66 2 809 810
67 2 377 378
68 4 374 375
69 5 807 808
70 4 807 809
71 2 805 806
72 3 805 811
73 3 805 812
74 3 805 813
75 1 51 52
76 2 51 56
77 3 51 57
78 3 51 58
79 3 810 814
80 3 810 815
81 3 810 816
82 5 915 916
83 4 915 917
84 4 33 34
85 2 917 918
86 2 425 426
87 5 34 35
88 4 34 36
89 4 422 423
90 5 423 424
91 4 423 425
92 2 42 43
93 3 42 49
94 3 42 50
95 1 41 42
96 2 41 46
97 3 41 47
98 3 41 48
99 5 44 45
100 4 44 46
101 4 43 44
102 5 771 772
103 4 771 773
104 5 134 135
105 4 134 136
106 3 426 430
107 3 426 431
108 3 426 432
109 3 774 778
110 3 774 779
111 3 774 780
112 2 421 422
113 3 421 427
114 3 421 428
115 3 421 429
116 3 342 346
117 3 342 347
118 3 342 348
119 3 714 718
120 3 714 719
121 3 714 720
122 5 411 412
123 4 411 413
124 2 413 414
125 3 414 418
126 3 414 419
127 3 414 420
128 2 713 714
129 2 12 13
130 3 12 19
131 3 12 20
132 4 13 14
133 5 144 145
134 4 144 146
135 1 11 12
136 2 11 16
137 3 11 17
138 3 11 18
139 4 143 144
140 3 942 946
141 3 942 947
142 3 942 948
143 2 725 726
144 5 711 712
145 4 711 713
146 3 726 730
147 3 726 731
148 3 726 732
149 2 22 23
150 3 22 29
151 3 22 30
152 4 23 24
153 2 941 942
154 4 938 939
155 5 939 940
156 4 939 941
157 6 1004 1005
158 6 1004 1006
159 6 1004 1007
160 6 1004 1008
161 6 1004 1009
162 3 366 370
163 3 366 371
164 3 366 372
165 2 937 938
166 3 937 943
167 3 937 944
168 3 937 945
169 2 365 366
170 4 326 327
171 5 327 328
172 4 327 329
173 2 329 330
174 3 330 334
175 3 330 335
176 3 330 336
177 2 325 326
178 3 325 331
179 3 325 332
180 3 325 333
181 5 363 364
182 4 363 365
183 4 362 363
184 2 122 123
185 3 122 129
186 3 122 130
187 4 123 124
188 1 121 122
189 2 121 126
190 3 121 127
191 3 121 128
192 5 723 724
193 4 723 725
194 5 124 125
195 4 124 126
196 4 722 723
197 2 721 722
198 3 721 727
199 3 721 728
200 3 721 729
201 4 902 903
202 2 905 906
203 3 906 910
204 3 906 911
205 3 906 912
206 1 71 72
207 2 71 76
208 3 71 77
209 3 71 78
210 2 72 73
211 3 72 79
212 3 72 80
213 5 903 904
214 4 903 905
215 2 901 902
216 3 901 907
217 3 901 908
218 3 901 909
219 5 74 75
220 4 74 76
221 4 73 74
222 4 293 294
223 5 294 295
224 4 294 296
225 2 182 183
226 3 182 189
227 3 182 190
228 2 142 143
229 3 142 149
230 3 142 150
231 4 866 867
232 4 410 411
233 1 141 142
234 2 141 146
235 3 141 147
236 3 141 148
237 5 867 868
238 4 867 869
239 2 409 410
240 3 409 415
241 3 409 416
242 3 409 417
243 2 397 398
244 3 397 403
245 3 397 404
246 3 397 405
247 4 398 399
248 5 399 400
249 4 399 401
250 2 401 402
251 2 869 870
252 3 402 406
253 3 402 407
254 3 402 408
255 3 390 394
256 3 390 395
257 3 390 396
258 2 389 390
259 1 181 182
260 2 181 186
261 3 181 187
262 3 181 188
263 5 94 95
264 4 94 96
265 3 606 610
266 3 606 611
267 3 606 612
268 2 605 606
269 3 870 874
270 3 870 875
271 3 870 876
272 4 233 234
273 5 603 604
274 4 603 605
275 2 232 233
276 3 232 239
277 3 232 240
278 5 234 235
279 4 234 236
280 1 231 232
281 2 231 236
282 3 231 237
283 3 231 238
284 4 614 615
285 2 673 674
286 3 673 679
287 3 673 680
288 3 673 681
289 4 674 675
290 5 675 676
291 4 675 677
292 2 677 678
293 3 678 682
294 3 678 683
295 3 678 684
296 4 602 603
297 2 613 614
298 3 613 619
299 3 613 620
300 3 613 621
301 2 601 602
302 3 601 607
303 3 601 608
304 3 601 609
305 4 3 4
306 2 2 3
307 3 2 9
308 3 2 10
309 2 617 618
310 4 770 771
311 2 773 774
312 3 918 922
313 3 918 923
314 3 918 924
315 3 762 766
316 3 762 767
317 3 762 768
318 5 831 832
319 4 831 833
320 2 829 830
321 3 829 835
322 3 829 836
323 3 829 837
324 4 830 831
325 6 1010 1011
326 6 1011 1012
327 6 1011 1013
328 6 1011 1014
329 6 1011 1015
330 6 1011 1016
331 5 615 616
332 4 615 617
333 3 618 622
334 3 618 623
335 3 618 624
336 5 759 760
337 4 759 761
338 2 761 762
339 4 263 264
340 1 261 262
341 2 261 266
342 3 261 267
343 3 261 268
344 2 262 263
345 3 262 269
346 3 262 270
347 3 666 670
348 3 666 671
349 3 666 672
350 5 264 265
351 4 264 266
352 2 437 438
353 3 438 442
354 3 438 443
355 3 438 444
356 4 446 447
357 5 435 436
358 4 435 437
359 2 445 446
360 3 445 451
361 3 445 452
362 3 445 453
363 4 434 435
364 3 462 466
365 3 462 467
366 3 462 468
367 2 665 666
368 1 101 102
369 2 101 106
370 3 101 107
371 3 101 108
372 4 243 244
373 5 244 245
374 4 244 246
375 3 630 634
376 3 630 635
377 3 630 636
378 2 222 223
379 3 222 229
380 3 222 230
381 2 449 450
382 5 447 448
383 4 447 449
384 3 450 454
385 3 450 455
386 3 450 456
387 3 846 850
388 3 846 851
389 3 846 852
390 2 845 846
391 2 102 103
392 3 102 109
393 3 102 110
394 4 103 104
395 5 104 105
396 4 104 106
397 5 843 844
398 4 843 845
399 6 996 997
400 6 997 998
401 6 997 999
402 6 997 1000
403 6 997 1001
404 6 997 1002
405 4 842 843
406 2 877 878
407 3 877 883
408 3 877 884
409 3 877 885
410 4 926 927
411 2 929 930
412 5 927 928
413 4 927 929
414 2 925 926
415 3 925 931
416 3 925 932
417 3 925 933
418 2 841 842
419 3 841 847
420 3 841 848
421 3 841 849
422 4 458 459
423 2 461 462
424 5 879 880
425 4 879 881
426 2 341 342
427 4 878 879
428 2 457 458
429 3 457 463
430 3 457 464
431 3 457 465
432 5 459 460
433 4 459 461
434 5 339 340
435 4 339 341
436 2 545 546
437 3 546 550
438 3 546 551
439 3 546 552
440 4 113 114
441 2 337 338
442 3 337 343
443 3 337 344
444 3 337 345
445 4 338 339
446 5 114 115
447 4 114 116
448 2 881 882
449 4 710 711
450 5 663 664
451 4 663 665
452 4 662 663
453 2 242 243
454 3 242 249
455 3 242 250
456 1 241 242
457 2 241 246
458 3 241 247
459 3 241 248
460 2 709 710
461 3 709 715
462 3 709 716
463 3 709 717
464 4 283 284
465 1 281 282
466 2 281 286
467 3 281 287
468 3 281 288
469 2 282 283
470 3 282 289
471 3 282 290
472 5 284 285
473 4 284 286
474 3 894 898
475 3 894 899
476 3 894 900
477 5 891 892
478 4 891 893
479 2 893 894
480 2 481 482
481 3 481 487
482 3 481 488
483 3 481 489
484 4 890 891
485 4 494 495
486 2 361 362
487 3 361 367
488 3 361 368
489 3 361 369
490 1 161 162
491 2 161 166
492 3 161 167
493 3 161 168
494 2 162 163
495 3 162 169
496 3 162 170
497 4 163 164
498 5 164 165
499 4 164 166
500 2 202 203
501 3 202 209
502 3 202 210
503 1 201 202
504 2 201 206
505 3 201 207
506 3 201 208
507 5 495 496
508 4 495 497
509 2 745 746
510 3 745 751
511 3 745 752
512 3 745 753
513 4 746 747
514 2 493 494
515 3 493 499
516 3 493 500
517 3 493 501
518 5 747 748
519 4 747 749
520 2 661 662
521 3 661 667
522 3 661 668
523 3 661 669
524 5 543 544
525 4 543 545
526 4 542 543
527 2 541 542
528 3 541 547
529 3 541 548
530 3 541 549
531 2 749 750
532 1 211 212
533 2 211 216
534 3 211 217
535 3 211 218
536 5 154 155
537 4 154 156
538 2 152 153
539 3 152 159
540 3 152 160
541 4 153 154
542 1 151 152
543 2 151 156
544 3 151 157
545 3 151 158
546 6 969 970
547 6 969 971
548 6 969 972
549 6 969 973
550 6 969 974
551 3 750 754
552 3 750 755
553 3 750 756
554 6 968 969
555 4 183 184
556 5 184 185
557 4 184 186
558 2 629 630
559 4 626 627
560 5 627 628
561 4 627 629
562 2 625 626
563 3 625 631
564 3 625 632
565 3 625 633
566 3 486 490
567 3 486 491
568 3 486 492
569 5 483 484
570 4 483 485
571 2 485 486
572 2 637 638
573 3 637 643
574 3 637 644
575 3 637 645
576 4 482 483
577 4 638 639
578 5 639 640
579 4 639 641
580 6 989 990
581 2 889 890
582 3 889 895
583 3 889 896
584 3 889 897
585 2 469 470
586 3 469 475
587 3 469 476
588 3 469 477
589 3 930 934
590 3 930 935
591 3 930 936
592 2 497 498
593 3 498 502
594 3 498 503
595 3 498 504
596 4 203 204
597 6 990 991
598 6 990 992
599 6 990 993
600 6 990 994
601 6 990 995
602 5 204 205
603 4 204 206
604 3 654 658
605 3 654 659
606 3 654 660
607 3 582 586
608 3 582 587
609 3 582 588
610 2 581 582
611 2 649 650
612 3 649 655
613 3 649 656
614 3 649 657
615 4 650 651
616 5 651 652
617 4 651 653
618 2 653 654
619 6 976 977
620 6 976 978
621 6 976 979
622 6 976 980
623 6 976 981
624 6 975 976
625 2 953 954
626 3 954 958
627 3 954 959
628 3 954 960
629 5 214 215
630 4 214 216
631 5 951 952
632 4 951 953
633 4 950 951
634 2 212 213
635 3 212 219
636 3 212 220
637 4 213 214
638 2 112 113
639 3 112 119
640 3 112 120
641 2 949 950
642 3 949 955
643 3 949 956
644 3 949 957
645 3 318 322
646 3 318 323
647 3 318 324
648 2 313 314
649 3 313 319
650 3 313 320
651 3 313 321
652 4 314 315
653 5 315 316
654 4 315 317
655 2 317 318
656 5 471 472
657 4 471 473
658 4 470 471
659 3 474 478
660 3 474 479
661 3 474 480
662 2 473 474
663 1 111 112
664 2 111 116
665 3 111 117
666 3 111 118
667 2 52 53
668 3 52 59
669 3 52 60
670 1 221 222
671 2 221 226
672 3 221 227
673 3 221 228
674 5 224 225
675 4 224 226
676 4 223 224
677 2 529 530
678 3 529 535
679 3 529 536
680 3 529 537
681 3 1025 1042
682 3 1025 1043
683 3 1025 1044
684 4 530 531
685 5 531 532
686 4 531 533
687 2 533 534
688 3 534 538
689 3 534 539
690 3 534 540
691 3 690 694
692 3 690 695
693 3 690 696
694 2 172 173
695 3 172 179
696 3 172 180
697 4 53 54
698 2 853 854
699 3 853 859
700 3 853 860
701 3 853 861
702 1 171 172
703 2 171 176
704 3 171 177
705 3 171 178
706 3 858 862
707 3 858 863
708 3 858 864
709 2 857 858
710 5 855 856
711 4 855 857
712 4 173 174
713 4 854 855
714 5 54 55
715 4 54 56
716 3 510 514
717 3 510 515
718 3 510 516
719 5 555 556
720 4 555 557
721 2 557 558
722 3 558 562
723 3 558 563
724 3 558 564
725 2 553 554
726 3 553 559
727 3 553 560
728 3 553 561
729 5 174 175
730 4 174 176
731 5 507 508
732 4 507 509
733 2 505 506
734 3 505 511
735 3 505 512
736 3 505 513
737 4 506 507
738 4 554 555
739 3 882 886
740 3 882 887
741 3 882 888
742 3 1027 1048
743 3 1027 1049
744 3 1027 1050
745 7 1024 1025
746 7 1024 1026
747 7 1024 1027
748 3 1026 1045
749 3 1026 1046
750 3 1026 1047
751 3 1020 1039
752 3 1020 1040
753 3 1020 1041
754 7 1018 1019
755 7 1018 1020
756 8 1018 1021
757 3 1019 1036
758 3 1019 1037
759 3 1019 1038
760 8 1023 1024
761 3 1031 1054
762 3 1031 1055
763 3 1031 1056
764 9 1021 1022
765 9 1022 1023
766 9 1022 1028
767 8 1028 1029
768 7 1029 1030
769 7 1029 1031
770 7 1029 1032
771 3 1030 1051
772 3 1030 1052
773 3 1030 1053
774 3 1032 1057
775 3 1032 1058
776 3 1032 1059
777 2 252 253
778 3 252 259
779 3 252 260
780 1 251 252
781 2 251 256
782 3 251 257
783 3 251 258
784 2 433 434
785 3 433 439
786 3 433 440
787 3 433 441
788 3 786 790
789 3 786 791
790 3 786 792
791 5 14 15
792 4 14 16
793 2 821 822
794 3 822 826
795 3 822 827
796 3 822 828
797 5 783 784
798 4 783 785
799 2 785 786
800 5 819 820
801 4 819 821
802 1 21 22
803 2 21 26
804 3 21 27
805 3 21 28
806 4 782 783
807 5 24 25
808 4 24 26
809 2 781 782
810 3 781 787
811 3 781 788
812 3 781 789
813 4 818 819
814 2 817 818
815 3 817 823
816 3 817 824
817 3 817 825
818 2 517 518
819 3 517 523
820 3 517 524
821 3 517 525
822 2 697 698
823 3 697 703
824 3 697 704
825 3 697 705
826 2 701 702
827 4 698 699
828 4 518 519
829 3 702 706
830 3 702 707
831 3 702 708
832 2 349 350
833 3 349 355
834 3 349 356
835 3 349 357
836 4 350 351
837 5 351 352
838 4 351 353
839 2 353 354
840 3 354 358
841 3 354 359
842 3 354 360
843 5 519 520
844 4 519 521
845 3 522 526
846 3 522 527
847 3 522 528
848 2 521 522
849 5 699 700
850 4 699 701
851 2 565 566
852 3 565 571
853 3 565 572
854 3 565 573
855 4 566 567
856 2 292 293
857 3 292 299
858 3 292 300
859 1 291 292
860 2 291 296
861 3 291 297
862 3 291 298
863 2 797 798
864 5 567 568
865 4 567 569
866 5 795 796
867 4 795 797
868 2 569 570
869 4 253 254
870 4 273 274
871 5 254 255
872 4 254 256
873 2 793 794
874 3 793 799
875 3 793 800
876 3 793 801
877 4 794 795
878 5 274 275
879 4 274 276
880 2 272 273
881 3 272 279
882 3 272 280
883 1 271 272
884 2 271 276
885 3 271 277
886 3 271 278
887 3 594 598
888 3 594 599
889 3 594 600
890 3 798 802
891 3 798 803
892 3 798 804
893 3 570 574
894 3 570 575
895 3 570 576
896 2 641 642
897 1 91 92
898 2 91 96
899 3 91 97
900 3 91 98
901 2 689 690
902 3 642 646
903 3 642 647
904 3 642 648
905 2 92 93
906 3 92 99
907 3 92 100
908 2 385 386
909 3 385 391
910 3 385 392
911 3 385 393
912 4 386 387
913 2 757 758
914 3 757 763
915 3 757 764
916 3 757 765
917 5 387 388
918 4 387 389
919 2 589 590
920 3 589 595
921 3 589 596
922 3 589 597
923 4 590 591
924 5 591 592
925 4 591 593
926 5 687 688
927 4 687 689
928 4 686 687
929 2 685 686
930 3 685 691
931 3 685 692
932 3 685 693
933 2 593 594
934 3 306 310
935 3 306 311
936 3 306 312
937 2 305 306
938 5 4 5
939 4 4 6
940 1 1 2
941 2 1 6
942 3 1 7
943 3 1 8
944 2 509 510
945 4 93 94
946 5 303 304
947 4 303 305
948 4 302 303
949 5 579 580
950 4 579 581
951 2 301 302
952 3 301 307
953 3 301 308
954 3 301 309
955 4 578 579
956 2 577 578
957 3 577 583
958 3 577 584
959 3 577 585
960 5 194 195
961 4 194 196
962 1 191 192
963 2 191 196
964 3 191 197
965 3 191 198
966 4 193 194
967 7 1017 1018
968 3 1017 1033
969 3 1017 1034
970 3 1017 1035
971 4 758 759
972 2 192 193
973 3 192 199
974 3 192 200
975 2 833 834
976 3 834 838
977 3 834 839
978 3 834 840
979 2 733 734
980 3 733 739
981 3 733 740
982 3 733 741
983 4 734 735
984 2 737 738
985 5 735 736
986 4 735 737
987 3 738 742
988 3 738 743
989 3 738 744

Angles

1 1 32 31 36
2 2 32 31 37
3 2 32 31 38
4 2 36 31 37
5 2 36 31 38
6 4 37 31 38
7 1 31 32 33
8 2 31 32 39
9 2 31 32 40
10 2 33 32 39
11 2 33 32 40
12 4 39 32 40
13 3 83 84 85
14 1 83 84 86
15 3 85 84 86
16 1 81 86 84
17 7 982 983 984
18 7 982 983 985
19 7 982 983 986
20 7 982 983 987
21 7 982 983 988
22 7 984 983 985
23 7 984 983 986
24 7 984 983 987
25 7 984 983 988
26 7 985 983 986
27 7 985 983 987
28 7 985 983 988
29 7 986 983 987
30 7 986 983 988
31 7 987 983 988
32 1 81 82 83
33 2 81 82 89
34 2 81 82 90
35 2 83 82 89
36 2 83 82 90
37 4 89 82 90
38 1 82 81 86
39 2 82 81 87
40 2 82 81 88
41 2 86 81 87
42 2 86 81 88
43 4 87 81 88
44 1 131 132 133
45 2 131 132 139
46 2 131 132 140
47 2 133 132 139
48 2 133 132 140
49 4 139 132 140
50 1 132 133 134
51 2 770 769 775
52 2 770 769 776
53 2 770 769 777
54 4 775 769 776
55 4 775 769 777
56 4 776 769 777
57 1 131 136 134
58 2 866 865 871
59 2 866 865 872
60 2 866 865 873
61 4 871 865 872
62 4 871 865 873
63 4 872 865 873
64 1 82 83 84
65 1 132 131 136
66 2 132 131 137
67 2 132 131 138
68 2 136 131 137
69 2 136 131 138
70 4 137 131 138
71 2 914 913 919
72 2 914 913 920
73 2 914 913 921
74 4 919 913 920
75 4 919 913 921
76 4 920 913 921
77 5 913 914 915
78 1 62 61 66
79 2 62 61 67
80 2 62 61 68
81 2 66 61 67
82 2 66 61 68
83 4 67 61 68
84 1 61 62 63
85 2 61 62 69
86 2 61 62 70
87 2 63 62 69
88 2 63 62 70
89 4 69 62 70
90 1 62 63 64
91 1 61 66 64
92 3 63 64 65
93 1 63 64 66
94 3 65 64 66
95 3 374 375 376
96 6 374 375 377
97 3 376 375 377
98 5 805 806 807
99 2 374 373 379
100 2 374 373 380
101 2 374 373 381
102 4 379 373 380
103 4 379 373 381
104 4 380 373 381
105 2 377 378 382
106 2 377 378 383
107 2 377 378 384
108 4 382 378 383
109 4 382 378 384
110 4 383 378 384
111 5 807 809 810
112 5 375 377 378
113 5 373 374 375
114 3 806 807 808
115 6 806 807 809
116 3 808 807 809
117 2 806 805 811
118 2 806 805 812
119 2 806 805 813
120 4 811 805 812
121 4 811 805 813
122 4 812 805 813
123 1 52 51 56
124 2 52 51 57
125 2 52 51 58
126 2 56 51 57
127 2 56 51 58
128 4 57 51 58
129 1 51 56 54
130 2 809 810 814
131 2 809 810 815
132 2 809 810 816
133 4 814 810 815
134 4 814 810 816
135 4 815 810 816
136 1 31 36 34
137 3 914 915 916
138 6 914 915 917
139 3 916 915 917
140 1 32 33 34
141 5 915 917 918
142 5 423 425 426
143 3 33 34 35
144 1 33 34 36
145 3 35 34 36
146 5 421 422 423
147 3 422 423 424
148 6 422 423 425
149 3 424 423 425
150 1 41 42 43
151 2 41 42 49
152 2 41 42 50
153 2 43 42 49
154 2 43 42 50
155 4 49 42 50
156 1 42 41 46
157 2 42 41 47
158 2 42 41 48
159 2 46 41 47
160 2 46 41 48
161 4 47 41 48
162 1 41 46 44
163 3 43 44 45
164 1 43 44 46
165 3 45 44 46
166 1 42 43 44
167 3 770 771 772
168 6 770 771 773
169 3 772 771 773
170 3 133 134 135
171 1 133 134 136
172 3 135 134 136
173 2 425 426 430
174 2 425 426 431
175 2 425 426 432
176 4 430 426 431
177 4 430 426 432
178 4 431 426 432
179 2 773 774 778
180 2 773 774 779
181 2 773 774 780
182 4 778 774 779
183 4 778 774 780
184 4 779 774 780
185 2 422 421 427
186 2 422 421 428
187 2 422 421 429
188 4 427 421 428
189 4 427 421 429
190 4 428 421 429
191 2 341 342 346
192 2 341 342 347
193 2 341 342 348
194 4 346 342 347
195 4 346 342 348
196 4 347 342 348
197 2 713 714 718
198 2 713 714 719
199 2 713 714 720
200 4 718 714 719
201 4 718 714 720
202 4 719 714 720
203 3 410 411 412
204 6 410 411 413
205 3 412 411 413
206 5 411 413 414
207 2 413 414 418
208 2 413 414 419
209 2 413 414 420
210 4 418 414 419
211 4 418 414 420
212 4 419 414 420
213 5 711 713 714
214 1 11 12 13
215 2 11 12 19
216 2 11 12 20
217 2 13 12 19
218 2 13 12 20
219 4 19 12 20
220 1 12 13 14
221 1 11 16 14
222 3 143 144 145
223 1 143 144 146
224 3 145 144 146
225 1 12 11 16
226 2 12 11 17
227 2 12 11 18
228 2 16 11 17
229 2 16 11 18
230 4 17 11 18
231 1 142 143 144
232 2 941 942 946
233 2 941 942 947
234 2 941 942 948
235 4 946 942 947
236 4 946 942 948
237 4 947 942 948
238 5 723 725 726
239 3 710 711 712
240 6 710 711 713
241 3 712 711 713
242 2 725 726 730
243 2 725 726 731
244 2 725 726 732
245 4 730 726 731
246 4 730 726 732
247 4 731 726 732
248 1 21 22 23
249 2 21 22 29
250 2 21 22 30
251 2 23 22 29
252 2 23 22 30
253 4 29 22 30
254 1 22 23 24
255 5 939 941 942
256 5 937 938 939
257 3 938 939 940
258 6 938 939 941
259 3 940 939 941
260 7 1003 1004 1005
261 7 1003 1004 1006
262 7 1003 1004 1007
263 7 1003 1004 1008
264 7 1003 1004 1009
265 7 1005 1004 1006
266 7 1005 1004 1007
267 7 1005 1004 1008
268 7 1005 1004 1009
269 7 1006 1004 1007
270 7 1006 1004 1008
271 7 1006 1004 1009
272 7 1007 1004 1008
273 7 1007 1004 1009
274 7 1008 1004 1009
275 2 365 366 370
276 2 365 366 371
277 2 365 366 372
278 4 370 366 371
279 4 370 366 372
280 4 371 366 372
281 2 938 937 943
282 2 938 937 944
283 2 938 937 945
284 4 943 937 944
285 4 943 937 945
286 4 944 937 945
287 5 363 365 366
288 5 325 326 327
289 3 326 327 328
290 6 326 327 329
291 3 328 327 329
292 5 327 329 330
293 2 329 330 334
294 2 329 330 335
295 2 329 330 336
296 4 334 330 335
297 4 334 330 336
298 4 335 330 336
299 2 326 325 331
300 2 326 325 332
301 2 326 325 333
302 4 331 325 332
303 4 331 325 333
304 4 332 325 333
305 3 362 363 364
306 6 362 363 365
307 3 364 363 365
308 5 361 362 363
309 1 121 122 123
310 2 121 122 129
311 2 121 122 130
312 2 123 122 129
313 2 123 122 130
314 4 129 122 130
315 1 122 123 124
316 1 122 121 126
317 2 122 121 127
318 2 122 121 128
319 2 126 121 127
320 2 126 121 128
321 4 127 121 128
322 1 121 126 124
323 3 722 723 724
324 6 722 723 725
325 3 724 723 725
326 3 123 124 125
327 1 123 124 126
328 3 125 124 126
329 5 721 722 723
330 2 722 721 727
331 2 722 721 728
332 2 722 721 729
333 4 727 721 728
334 4 727 721 729
335 4 728 721 729
336 5 901 902 903
337 5 903 905 906
338 2 905 906 910
339 2 905 906 911
340 2 905 906 912
341 4 910 906 911
342 4 910 906 912
343 4 911 906 912
344 1 71 76 74
345 1 72 71 76
346 2 72 71 77
347 2 72 71 78
348 2 76 71 77
349 2 76 71 78
350 4 77 71 78
351 1 71 72 73
352 2 71 72 79
353 2 71 72 80
354 2 73 72 79
355 2 73 72 80
356 4 79 72 80
357 3 902 903 904
358 6 902 903 905
359 3 904 903 905
360 2 902 901 907
361 2 902 901 908
362 2 902 901 909
363 4 907 901 908
364 4 907 901 909
365 4 908 901 909
366 3 73 74 75
367 1 73 74 76
368 3 75 74 76
369 1 72 73 74
370 1 292 293 294
371 3 293 294 295
372 1 293 294 296
373 3 295 294 296
374 1 181 182 183
375 2 181 182 189
376 2 181 182 190
377 2 183 182 189
378 2 183 182 190
379 4 189 182 190
380 1 141 146 144
381 1 141 142 143
382 2 141 142 149
383 2 141 142 150
384 2 143 142 149
385 2 143 142 150
386 4 149 142 150
387 5 865 866 867
388 5 409 410 411
389 1 142 141 146
390 2 142 141 147
391 2 142 141 148
392 2 146 141 147
393 2 146 141 148
394 4 147 141 148
395 3 866 867 868
396 6 866 867 869
397 3 868 867 869
398 2 410 409 415
399 2 410 409 416
400 2 410 409 417
401 4 415 409 416
402 4 415 409 417
403 4 416 409 417
404 2 398 397 403
405 2 398 397 404
406 2 398 397 405
407 4 403 397 404
408 4 403 397 405
409 4 404 397 405
410 5 397 398 399
411 3 398 399 400
412 6 398 399 401
413 3 400 399 401
414 5 399 401 402
415 5 867 869 870
416 2 401 402 406
417 2 401 402 407
418 2 401 402 408
419 4 406 402 407
420 4 406 402 408
421 4 407 402 408
422 2 389 390 394
423 2 389 390 395
424 2 389 390 396
425 4 394 390 395
426 4 394 390 396
427 4 395 390 396
428 5 387 389 390
429 1 91 96 94
430 1 182 181 186
431 2 182 181 187
432 2 182 181 188
433 2 186 181 187
434 2 186 181 188
435 4 187 181 188
436 1 181 186 184
437 3 93 94 95
438 1 93 94 96
439 3 95 94 96
440 2 605 606 610
441 2 605 606 611
442 2 605 606 612
443 4 610 606 611
444 4 610 606 612
445 4 611 606 612
446 5 603 605 606
447 2 869 870 874
448 2 869 870 875
449 2 869 870 876
450 4 874 870 875
451 4 874 870 876
452 4 875 870 876
453 1 232 233 234
454 3 602 603 604
455 6 602 603 605
456 3 604 603 605
457 1 231 232 233
458 2 231 232 239
459 2 231 232 240
460 2 233 232 239
461 2 233 232 240
462 4 239 232 240
463 3 233 234 235
464 1 233 234 236
465 3 235 234 236
466 1 232 231 236
467 2 232 231 237
468 2 232 231 238
469 2 236 231 237
470 2 236 231 238
471 4 237 231 238
472 5 613 614 615
473 2 674 673 679
474 2 674 673 680
475 2 674 673 681
476 4 679 673 680
477 4 679 673 681
478 4 680 673 681
479 5 673 674 675
480 3 674 675 676
481 6 674 675 677
482 3 676 675 677
483 5 675 677 678
484 1 231 236 234
485 2 677 678 682
486 2 677 678 683
487 2 677 678 684
488 4 682 678 683
489 4 682 678 684
490 4 683 678 684
491 5 601 602 603
492 2 614 613 619
493 2 614 613 620
494 2 614 613 621
495 4 619 613 620
496 4 619 613 621
497 4 620 613 621
498 2 602 601 607
499 2 602 601 608
500 2 602 601 609
501 4 607 601 608
502 4 607 601 609
503 4 608 601 609
504 1 2 3 4
505 1 1 2 3
506 2 1 2 9
507 2 1 2 10
508 2 3 2 9
509 2 3 2 10
510 4 9 2 10
511 5 615 617 618
512 5 769 770 771
513 5 771 773 774
514 2 917 918 922
515 2 917 918 923
516 2 917 918 924
517 4 922 918 923
518 4 922 918 924
519 4 923 918 924
520 2 761 762 766
521 2 761 762 767
522 2 761 762 768
523 4 766 762 767
524 4 766 762 768
525 4 767 762 768
526 3 830 831 832
527 6 830 831 833
528 3 832 831 833
529 2 830 829 835
530 2 830 829 836
531 2 830 829 837
532 4 835 829 836
533 4 835 829 837
534 4 836 829 837
535 5 829 830 831
536 7 1010 1011 1012
537 7 1010 1011 1013
538 7 1010 1011 1014
539 7 1010 1011 1015
540 7 1010 1011 1016
541 7 1012 1011 1013
542 7 1012 1011 1014
543 7 1012 1011 1015
544 7 1012 1011 1016
545 7 1013 1011 1014
546 7 1013 1011 1015
547 7 1013 1011 1016
548 7 1014 1011 1015
549 7 1014 1011 1016
550 7 1015 1011 1016
551 3 614 615 616
552 6 614 615 617
553 3 616 615 617
554 2 617 618 622
555 2 617 618 623
556 2 617 618 624
557 4 622 618 623
558 4 622 618 624
559 4 623 618 624
560 3 758 759 760
561 6 758 759 761
562 3 760 759 761
563 5 759 761 762
564 1 262 263 264
565 1 262 261 266
566 2 262 261 267
567 2 262 261 268
568 2 266 261 267
569 2 266 261 268
570 4 267 261 268
571 1 261 262 263
572 2 261 262 269
573 2 261 262 270
574 2 263 262 269
575 2 263 262 270
576 4 269 262 270
577 2 665 666 670
578 2 665 666 671
579 2 665 666 672
580 4 670 666 671
581 4 670 666 672
582 4 671 666 672
583 3 263 264 265
584 1 263 264 266
585 3 265 264 266
586 5 435 437 438
587 2 437 438 442
588 2 437 438 443
589 2 437 438 444
590 4 442 438 443
591 4 442 438 444
592 4 443 438 444
593 5 445 446 447
594 3 434 435 436
595 6 434 435 437
596 3 436 435 437
597 2 446 445 451
598 2 446 445 452
599 2 446 445 453
600 4 451 445 452
601 4 451 445 453
602 4 452 445 453
603 5 433 434 435
604 1 261 266 264
605 2 461 462 466
606 2 461 462 467
607 2 461 462 468
608 4 466 462 467
609 4 466 462 468
610 4 467 462 468
611 5 663 665 666
612 1 102 101 106
613 2 102 101 107
614 2 102 101 108
615 2 106 101 107
616 2 106 101 108
617 4 107 101 108
618 1 101 106 104
619 1 242 243 244
620 3 243 244 245
621 1 243 244 246
622 3 245 244 246
623 2 629 630 634
624 2 629 630 635
625 2 629 630 636
626 4 634 630 635
627 4 634 630 636
628 4 635 630 636
629 1 221 222 223
630 2 221 222 229
631 2 221 222 230
632 2 223 222 229
633 2 223 222 230
634 4 229 222 230
635 5 447 449 450
636 3 446 447 448
637 6 446 447 449
638 3 448 447 449
639 2 449 450 454
640 2 449 450 455
641 2 449 450 456
642 4 454 450 455
643 4 454 450 456
644 4 455 450 456
645 2 845 846 850
646 2 845 846 851
647 2 845 846 852
648 4 850 846 851
649 4 850 846 852
650 4 851 846 852
651 5 843 845 846
652 1 101 102 103
653 2 101 102 109
654 2 101 102 110
655 2 103 102 109
656 2 103 102 110
657 4 109 102 110
658 1 102 103 104
659 3 103 104 105
660 1 103 104 106
661 3 105 104 106
662 3 842 843 844
663 6 842 843 845
664 3 844 843 845
665 7 996 997 998
666 7 996 997 999
667 7 996 997 1000
668 7 996 997 1001
669 7 996 997 1002
670 7 998 997 999
671 7 998 997 1000
672 7 998 997 1001
673 7 998 997 1002
674 7 999 997 1000
675 7 999 997 1001
676 7 999 997 1002
677 7 1000 997 1001
678 7 1000 997 1002
679 7 1001 997 1002
680 5 841 842 843
681 2 878 877 883
682 2 878 877 884
683 2 878 877 885
684 4 883 877 884
685 4 883 877 885
686 4 884 877 885
687 5 925 926 927
688 5 927 929 930
689 3 926 927 928
690 6 926 927 929
691 3 928 927 929
692 2 926 925 931
693 2 926 925 932
694 2 926 925 933
695 4 931 925 932
696 4 931 925 933
697 4 932 925 933
698 2 842 841 847
699 2 842 841 848
700 2 842 841 849
701 4 847 841 848
702 4 847 841 849
703 4 848 841 849
704 5 457 458 459
705 5 459 461 462
706 3 878 879 880
707 6 878 879 881
708 3 880 879 881
709 5 339 341 342
710 5 877 878 879
711 2 458 457 463
712 2 458 457 464
713 2 458 457 465
714 4 463 457 464
715 4 463 457 465
716 4 464 457 465
717 3 458 459 460
718 6 458 459 461
719 3 460 459 461
720 3 338 339 340
721 6 338 339 341
722 3 340 339 341
723 5 543 545 546
724 2 545 546 550
725 2 545 546 551
726 2 545 546 552
727 4 550 546 551
728 4 550 546 552
729 4 551 546 552
730 1 112 113 114
731 2 338 337 343
732 2 338 337 344
733 2 338 337 345
734 4 343 337 344
735 4 343 337 345
736 4 344 337 345
737 5 337 338 339
738 3 113 114 115
739 1 113 114 116
740 3 115 114 116
741 5 879 881 882
742 1 111 116 114
743 5 709 710 711
744 3 662 663 664
745 6 662 663 665
746 3 664 663 665
747 5 661 662 663
748 1 241 242 243
749 2 241 242 249
750 2 241 242 250
751 2 243 242 249
752 2 243 242 250
753 4 249 242 250
754 1 242 241 246
755 2 242 241 247
756 2 242 241 248
757 2 246 241 247
758 2 246 241 248
759 4 247 241 248
760 2 710 709 715
761 2 710 709 716
762 2 710 709 717
763 4 715 709 716
764 4 715 709 717
765 4 716 709 717
766 1 282 283 284
767 1 282 281 286
768 2 282 281 287
769 2 282 281 288
770 2 286 281 287
771 2 286 281 288
772 4 287 281 288
773 1 281 282 283
774 2 281 282 289
775 2 281 282 290
776 2 283 282 289
777 2 283 282 290
778 4 289 282 290
779 3 283 284 285
780 1 283 284 286
781 3 285 284 286
782 1 281 286 284
783 1 241 246 244
784 2 893 894 898
785 2 893 894 899
786 2 893 894 900
787 4 898 894 899
788 4 898 894 900
789 4 899 894 900
790 3 890 891 892
791 6 890 891 893
792 3 892 891 893
793 5 891 893 894
794 2 482 481 487
795 2 482 481 488
796 2 482 481 489
797 4 487 481 488
798 4 487 481 489
799 4 488 481 489
800 5 889 890 891
801 5 493 494 495
802 2 362 361 367
803 2 362 361 368
804 2 362 361 369
805 4 367 361 368
806 4 367 361 369
807 4 368 361 369
808 1 161 166 164
809 1 162 161 166
810 2 162 161 167
811 2 162 161 168
812 2 166 161 167
813 2 166 161 168
814 4 167 161 168
815 1 161 162 163
816 2 161 162 169
817 2 161 162 170
818 2 163 162 169
819 2 163 162 170
820 4 169 162 170
821 1 162 163 164
822 3 163 164 165
823 1 163 164 166
824 3 165 164 166
825 1 201 202 203
826 2 201 202 209
827 2 201 202 210
828 2 203 202 209
829 2 203 202 210
830 4 209 202 210
831 1 202 201 206
832 2 202 201 207
833 2 202 201 208
834 2 206 201 207
835 2 206 201 208
836 4 207 201 208
837 3 494 495 496
838 6 494 495 497
839 3 496 495 497
840 2 746 745 751
841 2 746 745 752
842 2 746 745 753
843 4 751 745 752
844 4 751 745 753
845 4 752 745 753
846 5 745 746 747
847 2 494 493 499
848 2 494 493 500
849 2 494 493 501
850 4 499 493 500
851 4 499 493 501
852 4 500 493 501
853 3 746 747 748
854 6 746 747 749
855 3 748 747 749
856 1 201 206 204
857 2 662 661 667
858 2 662 661 668
859 2 662 661 669
860 4 667 661 668
861 4 667 661 669
862 4 668 661 669
863 3 542 543 544
864 6 542 543 545
865 3 544 543 545
866 5 541 542 543
867 2 542 541 547
868 2 542 541 548
869 2 542 541 549
870 4 547 541 548
871 4 547 541 549
872 4 548 541 549
873 5 747 749 750
874 1 211 216 214
875 1 212 211 216
876 2 212 211 217
877 2 212 211 218
878 2 216 211 217
879 2 216 211 218
880 4 217 211 218
881 1 151 156 154
882 3 153 154 155
883 1 153 154 156
884 3 155 154 156
885 1 151 152 153
886 2 151 152 159
887 2 151 152 160
888 2 153 152 159
889 2 153 152 160
890 4 159 152 160
891 1 152 153 154
892 1 152 151 156
893 2 152 151 157
894 2 152 151 158
895 2 156 151 157
896 2 156 151 158
897 4 157 151 158
898 7 968 969 970
899 7 968 969 971
900 7 968 969 972
901 7 968 969 973
902 7 968 969 974
903 7 970 969 971
904 7 970 969 972
905 7 970 969 973
906 7 970 969 974
907 7 971 969 972
908 7 971 969 973
909 7 971 969 974
910 7 972 969 973
911 7 972 969 974
912 7 973 969 974
913 2 749 750 754
914 2 749 750 755
915 2 749 750 756
916 4 754 750 755
917 4 754 750 756
918 4 755 750 756
919 1 182 183 184
920 3 183 184 185
921 1 183 184 186
922 3 185 184 186
923 5 627 629 630
924 5 625 626 627
925 3 626 627 628
926 6 626 627 629
927 3 628 627 629
928 2 626 625 631
929 2 626 625 632
930 2 626 625 633
931 4 631 625 632
932 4 631 625 633
933 4 632 625 633
934 2 485 486 490
935 2 485 486 491
936 2 485 486 492
937 4 490 486 491
938 4 490 486 492
939 4 491 486 492
940 3 482 483 484
941 6 482 483 485
942 3 484 483 485
943 5 483 485 486
944 2 638 637 643
945 2 638 637 644
946 2 638 637 645
947 4 643 637 644
948 4 643 637 645
949 4 644 637 645
950 5 481 482 483
951 5 637 638 639
952 3 638 639 640
953 6 638 639 641
954 3 640 639 641
955 2 890 889 895
956 2 890 889 896
957 2 890 889 897
958 4 895 889 896
959 4 895 889 897
960 4 896 889 897
961 2 470 469 475
962 2 470 469 476
963 2 470 469 477
964 4 475 469 476
965 4 475 469 477
966 4 476 469 477
967 2 929 930 934
968 2 929 930 935
969 2 929 930 936
970 4 934 930 935
971 4 934 930 936
972 4 935 930 936
973 5 495 497 498
974 2 497 498 502
975 2 497 498 503
976 2 497 498 504
977 4 502 498 503
978 4 502 498 504
979 4 503 498 504
980 1 202 203 204
981 7 989 990 991
982 7 989 990 992
983 7 989 990 993
984 7 989 990 994
985 7 989 990 995
986 7 991 990 992
987 7 991 990 993
988 7 991 990 994
989 7 991 990 995
990 7 992 990 993
991 7 992 990 994
992 7 992 990 995
993 7 993 990 994
994 7 993 990 995
995 7 994 990 995
996 3 203 204 205
997 1 203 204 206
998 3 205 204 206
999 2 653 654 658
1000 2 653 654 659
1001 2 653 654 660
1002 4 658 654 659
1003 4 658 654 660
1004 4 659 654 660
1005 2 581 582 586
1006 2 581 582 587
1007 2 581 582 588
1008 4 586 582 587
1009 4 586 582 588
1010 4 587 582 588
1011 5 579 581 582
1012 2 650 649 655
1013 2 650 649 656
1014 2 650 649 657
1015 4 655 649 656
1016 4 655 649 657
1017 4 656 649 657
1018 5 649 650 651
1019 3 650 651 652
1020 6 650 651 653
1021 3 652 651 653
1022 5 651 653 654
1023 7 975 976 977
1024 7 975 976 978
1025 7 975 976 979
1026 7 975 976 980
1027 7 975 976 981
1028 7 977 976 978
1029 7 977 976 979
1030 7 977 976 980
1031 7 977 976 981
1032 7 978 976 979
1033 7 978 976 980
1034 7 978 976 981
1035 7 979 976 980
1036 7 979 976 981
1037 7 980 976 981
1038 5 951 953 954
1039 2 953 954 958
1040 2 953 954 959
1041 2 953 954 960
1042 4 958 954 959
1043 4 958 954 960
1044 4 959 954 960
1045 3 213 214 215
1046 1 213 214 216
1047 3 215 214 216
1048 3 950 951 952
1049 6 950 951 953
1050 3 952 951 953
1051 5 949 950 951
1052 1 211 212 213
1053 2 211 212 219
1054 2 211 212 220
1055 2 213 212 219
1056 2 213 212 220
1057 4 219 212 220
1058 1 212 213 214
1059 1 111 112 113
1060 2 111 112 119
1061 2 111 112 120
1062 2 113 112 119
1063 2 113 112 120
1064 4 119 112 120
1065 2 950 949 955
1066 2 950 949 956
1067 2 950 949 957
1068 4 955 949 956
1069 4 955 949 957
1070 4 956 949 957
1071 2 317 318 322
1072 2 317 318 323
1073 2 317 318 324
1074 4 322 318 323
1075 4 322 318 324
1076 4 323 318 324
1077 2 314 313 319
1078 2 314 313 320
1079 2 314 313 321
1080 4 319 313 320
1081 4 319 313 321
1082 4 320 313 321
1083 5 313 314 315
1084 3 314 315 316
1085 6 314 315 317
1086 3 316 315 317
1087 5 315 317 318
1088 3 470 471 472
1089 6 470 471 473
1090 3 472 471 473
1091 5 469 470 471
1092 2 473 474 478
1093 2 473 474 479
1094 2 473 474 480
1095 4 478 474 479
1096 4 478 474 480
1097 4 479 474 480
1098 5 471 473 474
1099 1 112 111 116
1100 2 112 111 117
1101 2 112 111 118
1102 2 116 111 117
1103 2 116 111 118
1104 4 117 111 118
1105 1 51 52 53
1106 2 51 52 59
1107 2 51 52 60
1108 2 53 52 59
1109 2 53 52 60
1110 4 59 52 60
1111 1 222 221 226
1112 2 222 221 227
1113 2 222 221 228
1114 2 226 221 227
1115 2 226 221 228
1116 4 227 221 228
1117 1 221 226 224
1118 3 223 224 225
1119 1 223 224 226
1120 3 225 224 226
1121 1 222 223 224
1122 2 530 529 535
1123 2 530 529 536
1124 2 530 529 537
1125 4 535 529 536
1126 4 535 529 537
1127 4 536 529 537
1128 10 1024 1025 1042
1129 10 1024 1025 1043
1130 10 1024 1025 1044
1131 4 1042 1025 1043
1132 4 1042 1025 1044
1133 4 1043 1025 1044
1134 5 529 530 531
1135 3 530 531 532
1136 6 530 531 533
1137 3 532 531 533
1138 5 531 533 534
1139 2 533 534 538
1140 2 533 534 539
1141 2 533 534 540
1142 4 538 534 539
1143 4 538 534 540
1144 4 539 534 540
1145 2 689 690 694
1146 2 689 690 695
1147 2 689 690 696
1148 4 694 690 695
1149 4 694 690 696
1150 4 695 690 696
1151 1 171 172 173
1152 2 171 172 179
1153 2 171 172 180
1154 2 173 172 179
1155 2 173 172 180
1156 4 179 172 180
1157 1 52 53 54
1158 2 854 853 859
1159 2 854 853 860
1160 2 854 853 861
1161 4 859 853 860
1162 4 859 853 861
1163 4 860 853 861
1164 1 172 171 176
1165 2 172 171 177
1166 2 172 171 178
1167 2 176 171 177
1168 2 176 171 178
1169 4 177 171 178
1170 2 857 858 862
1171 2 857 858 863
1172 2 857 858 864
1173 4 862 858 863
1174 4 862 858 864
1175 4 863 858 864
1176 5 855 857 858
1177 3 854 855 856
1178 6 854 855 857
1179 3 856 855 857
1180 1 172 173 174
1181 1 171 176 174
1182 5 853 854 855
1183 3 53 54 55
1184 1 53 54 56
1185 3 55 54 56
1186 2 509 510 514
1187 2 509 510 515
1188 2 509 510 516
1189 4 514 510 515
1190 4 514 510 516
1191 4 515 510 516
1192 3 554 555 556
1193 6 554 555 557
1194 3 556 555 557
1195 5 555 557 558
1196 2 557 558 562
1197 2 557 558 563
1198 2 557 558 564
1199 4 562 558 563
1200 4 562 558 564
1201 4 563 558 564
1202 2 554 553 559
1203 2 554 553 560
1204 2 554 553 561
1205 4 559 553 560
1206 4 559 553 561
1207 4 560 553 561
1208 3 173 174 175
1209 1 173 174 176
1210 3 175 174 176
1211 3 506 507 508
1212 6 506 507 509
1213 3 508 507 509
1214 2 506 505 511
1215 2 506 505 512
1216 2 506 505 513
1217 4 511 505 512
1218 4 511 505 513
1219 4 512 505 513
1220 5 505 506 507
1221 5 553 554 555
1222 2 881 882 886
1223 2 881 882 887
1224 2 881 882 888
1225 4 886 882 887
1226 4 886 882 888
1227 4 887 882 888
1228 10 1024 1027 1048
1229 10 1024 1027 1049
1230 10 1024 1027 1050
1231 4 1048 1027 1049
1232 4 1048 1027 1050
1233 4 1049 1027 1050
1234 9 1023 1024 1025
1235 9 1023 1024 1026
1236 9 1023 1024 1027
1237 8 1025 1024 1026
1238 8 1025 1024 1027
1239 8 1026 1024 1027
1240 10 1024 1026 1045
1241 10 1024 1026 1046
1242 10 1024 1026 1047
1243 4 1045 1026 1046
1244 4 1045 1026 1047
1245 4 1046 1026 1047
1246 10 1018 1020 1039
1247 10 1018 1020 1040
1248 10 1018 1020 1041
1249 4 1039 1020 1040
1250 4 1039 1020 1041
1251 4 1040 1020 1041
1252 8 1017 1018 1019
1253 8 1017 1018 1020
1254 9 1017 1018 1021
1255 8 1019 1018 1020
1256 9 1019 1018 1021
1257 9 1020 1018 1021
1258 10 1018 1019 1036
1259 10 1018 1019 1037
1260 10 1018 1019 1038
1261 4 1036 1019 1037
1262 4 1036 1019 1038
1263 4 1037 1019 1038
1264 11 1022 1023 1024
1265 10 1029 1031 1054
1266 10 1029 1031 1055
1267 10 1029 1031 1056
1268 4 1054 1031 1055
1269 4 1054 1031 1056
1270 4 1055 1031 1056
1271 11 1018 1021 1022
1272 7 1021 1022 1023
1273 7 1021 1022 1028
1274 7 1023 1022 1028
1275 11 1022 1028 1029
1276 9 1028 1029 1030
1277 9 1028 1029 1031
1278 9 1028 1029 1032
1279 8 1030 1029 1031
1280 8 1030 1029 1032
1281 8 1031 1029 1032
1282 10 1029 1030 1051
1283 10 1029 1030 1052
1284 10 1029 1030 1053
1285 4 1051 1030 1052
1286 4 1051 1030 1053
1287 4 1052 1030 1053
1288 10 1029 1032 1057
1289 10 1029 1032 1058
1290 10 1029 1032 1059
1291 4 1057 1032 1058
1292 4 1057 1032 1059
1293 4 1058 1032 1059
1294 1 251 252 253
1295 2 251 252 259
1296 2 251 252 260
1297 2 253 252 259
1298 2 253 252 260
1299 4 259 252 260
1300 1 252 251 256
1301 2 252 251 257
1302 2 252 251 258
1303 2 256 251 257
1304 2 256 251 258
1305 4 257 251 258
1306 2 434 433 439
1307 2 434 433 440
1308 2 434 433 441
1309 4 439 433 440
1310 4 439 433 441
1311 4 440 433 441
1312 2 785 786 790
1313 2 785 786 791
1314 2 785 786 792
1315 4 790 786 791
1316 4 790 786 792
1317 4 791 786 792
1318 3 13 14 15
1319 1 13 14 16
1320 3 15 14 16
1321 5 819 821 822
1322 2 821 822 826
1323 2 821 822 827
1324 2 821 822 828
1325 4 826 822 827
1326 4 826 822 828
1327 4 827 822 828
1328 3 782 783 784
1329 6 782 783 785
1330 3 784 783 785
1331 5 783 785 786
1332 3 818 819 820
1333 6 818 819 821
1334 3 820 819 821
1335 1 22 21 26
1336 2 22 21 27
1337 2 22 21 28
1338 2 26 21 27
1339 2 26 21 28
1340 4 27 21 28
1341 1 21 26 24
1342 5 781 782 783
1343 3 23 24 25
1344 1 23 24 26
1345 3 25 24 26
1346 2 782 781 787
1347 2 782 781 788
1348 2 782 781 789
1349 4 787 781 788
1350 4 787 781 789
1351 4 788 781 789
1352 5 817 818 819
1353 2 818 817 823
1354 2 818 817 824
1355 2 818 817 825
1356 4 823 817 824
1357 4 823 817 825
1358 4 824 817 825
1359 2 518 517 523
1360 2 518 517 524
1361 2 518 517 525
1362 4 523 517 524
1363 4 523 517 525
1364 4 524 517 525
1365 2 698 697 703
1366 2 698 697 704
1367 2 698 697 705
1368 4 703 697 704
1369 4 703 697 705
1370 4 704 697 705
1371 5 699 701 702
1372 5 697 698 699
1373 5 517 518 519
1374 2 701 702 706
1375 2 701 702 707
1376 2 701 702 708
1377 4 706 702 707
1378 4 706 702 708
1379 4 707 702 708
1380 2 350 349 355
1381 2 350 349 356
1382 2 350 349 357
1383 4 355 349 356
1384 4 355 349 357
1385 4 356 349 357
1386 5 349 350 351
1387 3 350 351 352
1388 6 350 351 353
1389 3 352 351 353
1390 5 351 353 354
1391 2 353 354 358
1392 2 353 354 359
1393 2 353 354 360
1394 4 358 354 359
1395 4 358 354 360
1396 4 359 354 360
1397 3 518 519 520
1398 6 518 519 521
1399 3 520 519 521
1400 2 521 522 526
1401 2 521 522 527
1402 2 521 522 528
1403 4 526 522 527
1404 4 526 522 528
1405 4 527 522 528
1406 5 519 521 522
1407 3 698 699 700
1408 6 698 699 701
1409 3 700 699 701
1410 2 566 565 571
1411 2 566 565 572
1412 2 566 565 573
1413 4 571 565 572
1414 4 571 565 573
1415 4 572 565 573
1416 5 565 566 567
1417 1 291 292 293
1418 2 291 292 299
1419 2 291 292 300
1420 2 293 292 299
1421 2 293 292 300
1422 4 299 292 300
1423 1 292 291 296
1424 2 292 291 297
1425 2 292 291 298
1426 2 296 291 297
1427 2 296 291 298
1428 4 297 291 298
1429 5 795 797 798
1430 3 566 567 568
1431 6 566 567 569
1432 3 568 567 569
1433 3 794 795 796
1434 6 794 795 797
1435 3 796 795 797
1436 5 567 569 570
1437 1 291 296 294
1438 1 252 253 254
1439 1 272 273 274
1440 1 251 256 254
1441 3 253 254 255
1442 1 253 254 256
1443 3 255 254 256
1444 2 794 793 799
1445 2 794 793 800
1446 2 794 793 801
1447 4 799 793 800
1448 4 799 793 801
1449 4 800 793 801
1450 5 793 794 795
1451 3 273 274 275
1452 1 273 274 276
1453 3 275 274 276
1454 1 271 276 274
1455 1 271 272 273
1456 2 271 272 279
1457 2 271 272 280
1458 2 273 272 279
1459 2 273 272 280
1460 4 279 272 280
1461 1 272 271 276
1462 2 272 271 277
1463 2 272 271 278
1464 2 276 271 277
1465 2 276 271 278
1466 4 277 271 278
1467 2 593 594 598
1468 2 593 594 599
1469 2 593 594 600
1470 4 598 594 599
1471 4 598 594 600
1472 4 599 594 600
1473 2 797 798 802
1474 2 797 798 803
1475 2 797 798 804
1476 4 802 798 803
1477 4 802 798 804
1478 4 803 798 804
1479 2 569 570 574
1480 2 569 570 575
1481 2 569 570 576
1482 4 574 570 575
1483 4 574 570 576
1484 4 575 570 576
1485 5 639 641 642
1486 1 92 91 96
1487 2 92 91 97
1488 2 92 91 98
1489 2 96 91 97
1490 2 96 91 98
1491 4 97 91 98
1492 5 687 689 690
1493 2 641 642 646
1494 2 641 642 647
1495 2 641 642 648
1496 4 646 642 647
1497 4 646 642 648
1498 4 647 642 648
1499 1 91 92 93
1500 2 91 92 99
1501 2 91 92 100
1502 2 93 92 99
1503 2 93 92 100
1504 4 99 92 100
1505 2 386 385 391
1506 2 386 385 392
1507 2 386 385 393
1508 4 391 385 392
1509 4 391 385 393
1510 4 392 385 393
1511 5 385 386 387
1512 2 758 757 763
1513 2 758 757 764
1514 2 758 757 765
1515 4 763 757 764
1516 4 763 757 765
1517 4 764 757 765
1518 3 386 387 388
1519 6 386 387 389
1520 3 388 387 389
1521 2 590 589 595
1522 2 590 589 596
1523 2 590 589 597
1524 4 595 589 596
1525 4 595 589 597
1526 4 596 589 597
1527 5 589 590 591
1528 3 590 591 592
1529 6 590 591 593
1530 3 592 591 593
1531 3 686 687 688
1532 6 686 687 689
1533 3 688 687 689
1534 5 685 686 687
1535 2 686 685 691
1536 2 686 685 692
1537 2 686 685 693
1538 4 691 685 692
1539 4 691 685 693
1540 4 692 685 693
1541 5 591 593 594
1542 2 305 306 310
1543 2 305 306 311
1544 2 305 306 312
1545 4 310 306 311
1546 4 310 306 312
1547 4 311 306 312
1548 5 303 305 306
1549 3 3 4 5
1550 1 3 4 6
1551 3 5 4 6
1552 1 1 6 4
1553 1 2 1 6
1554 2 2 1 7
1555 2 2 1 8
1556 2 6 1 7
1557 2 6 1 8
1558 4 7 1 8
1559 5 507 509 510
1560 1 92 93 94
1561 3 302 303 304
1562 6 302 303 305
1563 3 304 303 305
1564 5 301 302 303
1565 3 578 579 580
1566 6 578 579 581
1567 3 580 579 581
1568 2 302 301 307
1569 2 302 301 308
1570 2 302 301 309
1571 4 307 301 308
1572 4 307 301 309
1573 4 308 301 309
1574 5 577 578 579
1575 2 578 577 583
1576 2 578 577 584
1577 2 578 577 585
1578 4 583 577 584
1579 4 583 577 585
1580 4 584 577 585
1581 3 193 194 195
1582 1 193 194 196
1583 3 195 194 196
1584 1 191 196 194
1585 1 192 191 196
1586 2 192 191 197
1587 2 192 191 198
1588 2 196 191 197
1589 2 196 191 198
1590 4 197 191 198
1591 1 192 193 194
1592 10 1018 1017 1033
1593 10 1018 1017 1034
1594 10 1018 1017 1035
1595 4 1033 1017 1034
1596 4 1033 1017 1035
1597 4 1034 1017 1035
1598 5 757 758 759
1599 1 191 192 193
1600 2 191 192 199
1601 2 191 192 200
1602 2 193 192 199
1603 2 193 192 200
1604 4 199 192 200
1605 5 831 833 834
1606 2 833 834 838
1607 2 833 834 839
1608 2 833 834 840
1609 4 838 834 839
1610 4 838 834 840
1611 4 839 834 840
1612 2 734 733 739
1613 2 734 733 740
1614 2 734 733 741
1615 4 739 733 740
1616 4 739 733 741
1617 4 740 733 741
1618 5 733 734 735
1619 5 735 737 738
1620 3 734 735 736
1621 6 734 735 737
1622 3 736 735 737
1623 2 737 738 742
1624 2 737 738 743
1625 2 737 738 744
1626 4 742 738 743
1627 4 742 738 744
1628 4 743 738 744

Dihedrals

1 1 32 31 36 34
2 2 32 31 36 34
3 6 36 31 32 39
4 7 36 31 32 39
5 6 36 31 32 40
6 7 36 31 32 40
7 9 37 31 32 39
8 9 37 31 32 40
9 9 38 31 32 39
10 9 38 31 32 40
11 1 31 32 33 34
12 2 31 32 33 34
13 4 33 32 31 36
14 5 33 32 31 36
15 6 33 32 31 37
16 7 33 32 31 37
17 6 33 32 31 38
18 7 33 32 31 38
19 3 81 86 84 83
20 3 81 86 84 85
21 8 84 86 81 87
22 8 84 86 81 88
23 1 81 82 83 84
24 2 81 82 83 84
25 4 83 82 81 86
26 5 83 82 81 86
27 6 83 82 81 87
28 7 83 82 81 87
29 6 83 82 81 88
30 7 83 82 81 88
31 1 82 81 86 84
32 2 82 81 86 84
33 6 86 81 82 89
34 7 86 81 82 89
35 6 86 81 82 90
36 7 86 81 82 90
37 9 87 81 82 89
38 9 87 81 82 90
39 9 88 81 82 89
40 9 88 81 82 90
41 1 131 132 133 134
42 2 131 132 133 134
43 4 133 132 131 136
44 5 133 132 131 136
45 6 133 132 131 137
46 7 133 132 131 137
47 6 133 132 131 138
48 7 133 132 131 138
49 3 132 133 134 135
50 3 132 133 134 136
51 8 134 133 132 139
52 8 134 133 132 140
53 3 131 136 134 133
54 3 131 136 134 135
55 8 134 136 131 137
56 8 134 136 131 138
57 3 82 83 84 85
58 3 82 83 84 86
59 8 84 83 82 89
60 8 84 83 82 90
61 1 132 131 136 134
62 2 132 131 136 134
63 6 136 131 132 139
64 7 136 131 132 139
65 6 136 131 132 140
66 7 136 131 132 140
67 9 137 131 132 139
68 9 137 131 132 140
69 9 138 131 132 139
70 9 138 131 132 140
71 10 913 914 915 916
72 11 913 914 915 916
73 12 913 914 915 917
74 8 915 914 913 919
75 8 915 914 913 920
76 8 915 914 913 921
77 1 62 61 66 64
78 2 62 61 66 64
79 6 66 61 62 69
80 7 66 61 62 69
81 6 66 61 62 70
82 7 66 61 62 70
83 9 67 61 62 69
84 9 67 61 62 70
85 9 68 61 62 69
86 9 68 61 62 70
87 1 61 62 63 64
88 2 61 62 63 64
89 4 63 62 61 66
90 5 63 62 61 66
91 6 63 62 61 67
92 7 63 62 61 67
93 6 63 62 61 68
94 7 63 62 61 68
95 3 62 63 64 65
96 3 62 63 64 66
97 8 64 63 62 69
98 8 64 63 62 70
99 3 61 66 64 63
100 3 61 66 64 65
101 8 64 66 61 67
102 8 64 66 61 68
103 12 374 375 377 378
104 10 376 375 377 378
105 11 376 375 377 378
106 10 805 806 807 808
107 11 805 806 807 808
108 12 805 806 807 809
109 8 807 806 805 811
110 8 807 806 805 812
111 8 807 806 805 813
112 8 807 809 810 814
113 8 807 809 810 815
114 8 807 809 810 816
115 8 375 377 378 382
116 8 375 377 378 383
117 8 375 377 378 384
118 10 373 374 375 376
119 11 373 374 375 376
120 12 373 374 375 377
121 8 375 374 373 379
122 8 375 374 373 380
123 8 375 374 373 381
124 12 806 807 809 810
125 10 808 807 809 810
126 11 808 807 809 810
127 1 52 51 56 54
128 2 52 51 56 54
129 6 56 51 52 59
130 7 56 51 52 59
131 6 56 51 52 60
132 7 56 51 52 60
133 9 57 51 52 59
134 9 57 51 52 60
135 9 58 51 52 59
136 9 58 51 52 60
137 3 51 56 54 53
138 3 51 56 54 55
139 8 54 56 51 57
140 8 54 56 51 58
141 3 31 36 34 33
142 3 31 36 34 35
143 8 34 36 31 37
144 8 34 36 31 38
145 12 914 915 917 918
146 10 916 915 917 918
147 11 916 915 917 918
148 3 32 33 34 35
149 3 32 33 34 36
150 8 34 33 32 39
151 8 34 33 32 40
152 8 915 917 918 922
153 8 915 917 918 923
154 8 915 917 918 924
155 8 423 425 426 430
156 8 423 425 426 431
157 8 423 425 426 432
158 10 421 422 423 424
159 11 421 422 423 424
160 12 421 422 423 425
161 8 423 422 421 427
162 8 423 422 421 428
163 8 423 422 421 429
164 12 422 423 425 426
165 10 424 423 425 426
166 11 424 423 425 426
167 1 41 42 43 44
168 2 41 42 43 44
169 4 43 42 41 46
170 5 43 42 41 46
171 6 43 42 41 47
172 7 43 42 41 47
173 6 43 42 41 48
174 7 43 42 41 48
175 1 42 41 46 44
176 2 42 41 46 44
177 6 46 41 42 49
178 7 46 41 42 49
179 6 46 41 42 50
180 7 46 41 42 50
181 9 47 41 42 49
182 9 47 41 42 50
183 9 48 41 42 49
184 9 48 41 42 50
185 3 41 46 44 43
186 3 41 46 44 45
187 8 44 46 41 47
188 8 44 46 41 48
189 3 42 43 44 45
190 3 42 43 44 46
191 8 44 43 42 49
192 8 44 43 42 50
193 12 770 771 773 774
194 10 772 771 773 774
195 11 772 771 773 774
196 12 410 411 413 414
197 10 412 411 413 414
198 11 412 411 413 414
199 8 411 413 414 418
200 8 411 413 414 419
201 8 411 413 414 420
202 8 711 713 714 718
203 8 711 713 714 719
204 8 711 713 714 720
205 1 11 12 13 14
206 2 11 12 13 14
207 4 13 12 11 16
208 5 13 12 11 16
209 6 13 12 11 17
210 7 13 12 11 17
211 6 13 12 11 18
212 7 13 12 11 18
213 3 12 13 14 15
214 3 12 13 14 16
215 8 14 13 12 19
216 8 14 13 12 20
217 3 11 16 14 13
218 3 11 16 14 15
219 8 14 16 11 17
220 8 14 16 11 18
221 1 12 11 16 14
222 2 12 11 16 14
223 6 16 11 12 19
224 7 16 11 12 19
225 6 16 11 12 20
226 7 16 11 12 20
227 9 17 11 12 19
228 9 17 11 12 20
229 9 18 11 12 19
230 9 18 11 12 20
231 3 142 143 144 145
232 3 142 143 144 146
233 8 144 143 142 149
234 8 144 143 142 150
235 8 723 725 726 730
236 8 723 725 726 731
237 8 723 725 726 732
238 12 710 711 713 714
239 10 712 711 713 714
240 11 712 711 713 714
241 1 21 22 23 24
242 2 21 22 23 24
243 4 23 22 21 26
244 5 23 22 21 26
245 6 23 22 21 27
246 7 23 22 21 27
247 6 23 22 21 28
248 7 23 22 21 28
249 3 22 23 24 25
250 3 22 23 24 26
251 8 24 23 22 29
252 8 24 23 22 30
253 8 939 941 942 946
254 8 939 941 942 947
255 8 939 941 942 948
256 10 937 938 939 940
257 11 937 938 939 940
258 12 937 938 939 941
259 8 939 938 937 943
260 8 939 938 937 944
261 8 939 938 937 945
262 12 938 939 941 942
263 10 940 939 941 942
264 11 940 939 941 942
265 8 363 365 366 370
266 8 363 365 366 371
267 8 363 365 366 372
268 10 325 326 327 328
269 11 325 326 327 328
270 12 325 326 327 329
271 8 327 326 325 331
272 8 327 326 325 332
273 8 327 326 325 333
274 12 326 327 329 330
275 10 328 327 329 330
276 11 328 327 329 330
277 8 327 329 330 334
278 8 327 329 330 335
279 8 327 329 330 336
280 12 362 363 365 366
281 10 364 363 365 366
282 11 364 363 365 366
283 10 361 362 363 364
284 11 361 362 363 364
285 12 361 362 363 365
286 8 363 362 361 367
287 8 363 362 361 368
288 8 363 362 361 369
289 1 121 122 123 124
290 2 121 122 123 124
291 4 123 122 121 126
292 5 123 122 121 126
293 6 123 122 121 127
294 7 123 122 121 127
295 6 123 122 121 128
296 7 123 122 121 128
297 3 122 123 124 125
298 3 122 123 124 126
299 8 124 123 122 129
300 8 124 123 122 130
301 1 122 121 126 124
302 2 122 121 126 124
303 6 126 121 122 129
304 7 126 121 122 129
305 6 126 121 122 130
306 7 126 121 122 130
307 9 127 121 122 129
308 9 127 121 122 130
309 9 128 121 122 129
310 9 128 121 122 130
311 3 121 126 124 123
312 3 121 126 124 125
313 8 124 126 121 127
314 8 124 126 121 128
315 12 722 723 725 726
316 10 724 723 725 726
317 11 724 723 725 726
318 10 721 722 723 724
319 11 721 722 723 724
320 12 721 722 723 725
321 8 723 722 721 727
322 8 723 722 721 728
323 8 723 722 721 729
324 10 901 902 903 904
325 11 901 902 903 904
326 12 901 902 903 905
327 8 903 902 901 907
328 8 903 902 901 908
329 8 903 902 901 909
330 8 903 905 906 910
331 8 903 905 906 911
332 8 903 905 906 912
333 3 71 76 74 73
334 3 71 76 74 75
335 8 74 76 71 77
336 8 74 76 71 78
337 1 72 71 76 74
338 2 72 71 76 74
339 6 76 71 72 79
340 7 76 71 72 79
341 6 76 71 72 80
342 7 76 71 72 80
343 9 77 71 72 79
344 9 77 71 72 80
345 9 78 71 72 79
346 9 78 71 72 80
347 1 71 72 73 74
348 2 71 72 73 74
349 4 73 72 71 76
350 5 73 72 71 76
351 6 73 72 71 77
352 7 73 72 71 77
353 6 73 72 71 78
354 7 73 72 71 78
355 12 902 903 905 906
356 10 904 903 905 906
357 11 904 903 905 906
358 3 72 73 74 75
359 3 72 73 74 76
360 8 74 73 72 79
361 8 74 73 72 80
362 3 292 293 294 295
363 3 292 293 294 296
364 8 294 293 292 299
365 8 294 293 292 300
366 1 181 182 183 184
367 2 181 182 183 184
368 4 183 182 181 186
369 5 183 182 181 186
370 6 183 182 181 187
371 7 183 182 181 187
372 6 183 182 181 188
373 7 183 182 181 188
374 3 141 146 144 143
375 3 141 146 144 145
376 8 144 146 141 147
377 8 144 146 141 148
378 1 141 142 143 144
379 2 141 142 143 144
380 4 143 142 141 146
381 5 143 142 141 146
382 6 143 142 141 147
383 7 143 142 141 147
384 6 143 142 141 148
385 7 143 142 141 148
386 10 865 866 867 868
387 11 865 866 867 868
388 12 865 866 867 869
389 8 867 866 865 871
390 8 867 866 865 872
391 8 867 866 865 873
392 10 409 410 411 412
393 11 409 410 411 412
394 12 409 410 411 413
395 8 411 410 409 415
396 8 411 410 409 416
397 8 411 410 409 417
398 1 142 141 146 144
399 2 142 141 146 144
400 6 146 141 142 149
401 7 146 141 142 149
402 6 146 141 142 150
403 7 146 141 142 150
404 9 147 141 142 149
405 9 147 141 142 150
406 9 148 141 142 149
407 9 148 141 142 150
408 12 866 867 869 870
409 10 868 867 869 870
410 11 868 867 869 870
411 10 397 398 399 400
412 11 397 398 399 400
413 12 397 398 399 401
414 8 399 398 397 403
415 8 399 398 397 404
416 8 399 398 397 405
417 12 398 399 401 402
418 10 400 399 401 402
419 11 400 399 401 402
420 8 399 401 402 406
421 8 399 401 402 407
422 8 399 401 402 408
423 8 867 869 870 874
424 8 867 869 870 875
425 8 867 869 870 876
426 8 387 389 390 394
427 8 387 389 390 395
428 8 387 389 390 396
429 3 91 96 94 93
430 3 91 96 94 95
431 8 94 96 91 97
432 8 94 96 91 98
433 1 182 181 186 184
434 2 182 181 186 184
435 6 186 181 182 189
436 7 186 181 182 189
437 6 186 181 182 190
438 7 186 181 182 190
439 9 187 181 182 189
440 9 187 181 182 190
441 9 188 181 182 189
442 9 188 181 182 190
443 3 181 186 184 183
444 3 181 186 184 185
445 8 184 186 181 187
446 8 184 186 181 188
447 8 603 605 606 610
448 8 603 605 606 611
449 8 603 605 606 612
450 3 232 233 234 235
451 3 232 233 234 236
452 8 234 233 232 239
453 8 234 233 232 240
454 12 602 603 605 606
455 10 604 603 605 606
456 11 604 603 605 606
457 1 231 232 233 234
458 2 231 232 233 234
459 4 233 232 231 236
460 5 233 232 231 236
461 6 233 232 231 237
462 7 233 232 231 237
463 6 233 232 231 238
464 7 233 232 231 238
465 1 232 231 236 234
466 2 232 231 236 234
467 6 236 231 232 239
468 7 236 231 232 239
469 6 236 231 232 240
470 7 236 231 232 240
471 9 237 231 232 239
472 9 237 231 232 240
473 9 238 231 232 239
474 9 238 231 232 240
475 10 613 614 615 616
476 11 613 614 615 616
477 12 613 614 615 617
478 8 615 614 613 619
479 8 615 614 613 620
480 8 615 614 613 621
481 10 673 674 675 676
482 11 673 674 675 676
483 12 673 674 675 677
484 8 675 674 673 679
485 8 675 674 673 680
486 8 675 674 673 681
487 12 674 675 677 678
488 10 676 675 677 678
489 11 676 675 677 678
490 8 675 677 678 682
491 8 675 677 678 683
492 8 675 677 678 684
493 3 231 236 234 233
494 3 231 236 234 235
495 8 234 236 231 237
496 8 234 236 231 238
497 10 601 602 603 604
498 11 601 602 603 604
499 12 601 602 603 605
500 8 603 602 601 607
501 8 603 602 601 608
502 8 603 602 601 609
503 3 2 3 4 5
504 3 2 3 4 6
505 8 4 3 2 9
506 8 4 3 2 10
507 1 1 2 3 4
508 2 1 2 3 4
509 4 3 2 1 6
510 5 3 2 1 6
511 6 3 2 1 7
512 7 3 2 1 7
513 6 3 2 1 8
514 7 3 2 1 8
515 8 615 617 618 622
516 8 615 617 618 623
517 8 615 617 618 624
518 10 769 770 771 772
519 11 769 770 771 772
520 12 769 770 771 773
521 8 771 770 769 775
522 8 771 770 769 776
523 8 771 770 769 777
524 8 771 773 774 778
525 8 771 773 774 779
526 8 771 773 774 780
527 12 830 831 833 834
528 10 832 831 833 834
529 11 832 831 833 834
530 10 829 830 831 832
531 11 829 830 831 832
532 12 829 830 831 833
533 8 831 830 829 835
534 8 831 830 829 836
535 8 831 830 829 837
536 12 614 615 617 618
537 10 616 615 617 618
538 11 616 615 617 618
539 12 758 759 761 762
540 10 760 759 761 762
541 11 760 759 761 762
542 8 759 761 762 766
543 8 759 761 762 767
544 8 759 761 762 768
545 3 262 263 264 265
546 3 262 263 264 266
547 8 264 263 262 269
548 8 264 263 262 270
549 1 262 261 266 264
550 2 262 261 266 264
551 6 266 261 262 269
552 7 266 261 262 269
553 6 266 261 262 270
554 7 266 261 262 270
555 9 267 261 262 269
556 9 267 261 262 270
557 9 268 261 262 269
558 9 268 261 262 270
559 1 261 262 263 264
560 2 261 262 263 264
561 4 263 262 261 266
562 5 263 262 261 266
563 6 263 262 261 267
564 7 263 262 261 267
565 6 263 262 261 268
566 7 263 262 261 268
567 8 435 437 438 442
568 8 435 437 438 443
569 8 435 437 438 444
570 10 445 446 447 448
571 11 445 446 447 448
572 12 445 446 447 449
573 8 447 446 445 451
574 8 447 446 445 452
575 8 447 446 445 453
576 12 434 435 437 438
577 10 436 435 437 438
578 11 436 435 437 438
579 10 433 434 435 436
580 11 433 434 435 436
581 12 433 434 435 437
582 8 435 434 433 439
583 8 435 434 433 440
584 8 435 434 433 441
585 3 261 266 264 263
586 3 261 266 264 265
587 8 264 266 261 267
588 8 264 266 261 268
589 8 663 665 666 670
590 8 663 665 666 671
591 8 663 665 666 672
592 1 102 101 106 104
593 2 102 101 106 104
594 6 106 101 102 109
595 7 106 101 102 109
596 6 106 101 102 110
597 7 106 101 102 110
598 9 107 101 102 109
599 9 107 101 102 110
600 9 108 101 102 109
601 9 108 101 102 110
602 3 101 106 104 103
603 3 101 106 104 105
604 8 104 106 101 107
605 8 104 106 101 108
606 3 242 243 244 245
607 3 242 243 244 246
608 8 244 243 242 249
609 8 244 243 242 250
610 1 221 222 223 224
611 2 221 222 223 224
612 4 223 222 221 226
613 5 223 222 221 226
614 6 223 222 221 227
615 7 223 222 221 227
616 6 223 222 221 228
617 7 223 222 221 228
618 8 447 449 450 454
619 8 447 449 450 455
620 8 447 449 450 456
621 12 446 447 449 450
622 10 448 447 449 450
623 11 448 447 449 450
624 8 843 845 846 850
625 8 843 845 846 851
626 8 843 845 846 852
627 1 101 102 103 104
628 2 101 102 103 104
629 4 103 102 101 106
630 5 103 102 101 106
631 6 103 102 101 107
632 7 103 102 101 107
633 6 103 102 101 108
634 7 103 102 101 108
635 3 102 103 104 105
636 3 102 103 104 106
637 8 104 103 102 109
638 8 104 103 102 110
639 12 842 843 845 846
640 10 844 843 845 846
641 11 844 843 845 846
642 10 841 842 843 844
643 11 841 842 843 844
644 12 841 842 843 845
645 8 843 842 841 847
646 8 843 842 841 848
647 8 843 842 841 849
648 10 925 926 927 928
649 11 925 926 927 928
650 12 925 926 927 929
651 8 927 926 925 931
652 8 927 926 925 932
653 8 927 926 925 933
654 8 927 929 930 934
655 8 927 929 930 935
656 8 927 929 930 936
657 12 926 927 929 930
658 10 928 927 929 930
659 11 928 927 929 930
660 10 457 458 459 460
661 11 457 458 459 460
662 12 457 458 459 461
663 8 459 458 457 463
664 8 459 458 457 464
665 8 459 458 457 465
666 8 459 461 462 466
667 8 459 461 462 467
668 8 459 461 462 468
669 12 878 879 881 882
670 10 880 879 881 882
671 11 880 879 881 882
672 8 339 341 342 346
673 8 339 341 342 347
674 8 339 341 342 348
675 10 877 878 879 880
676 11 877 878 879 880
677 12 877 878 879 881
678 8 879 878 877 883
679 8 879 878 877 884
680 8 879 878 877 885
681 12 458 459 461 462
682 10 460 459 461 462
683 11 460 459 461 462
684 12 338 339 341 342
685 10 340 339 341 342
686 11 340 339 341 342
687 8 543 545 546 550
688 8 543 545 546 551
689 8 543 545 546 552
690 3 112 113 114 115
691 3 112 113 114 116
692 8 114 113 112 119
693 8 114 113 112 120
694 10 337 338 339 340
695 11 337 338 339 340
696 12 337 338 339 341
697 8 339 338 337 343
698 8 339 338 337 344
699 8 339 338 337 345
700 8 879 881 882 886
701 8 879 881 882 887
702 8 879 881 882 888
703 3 111 116 114 113
704 3 111 116 114 115
705 8 114 116 111 117
706 8 114 116 111 118
707 10 709 710 711 712
708 11 709 710 711 712
709 12 709 710 711 713
710 8 711 710 709 715
711 8 711 710 709 716
712 8 711 710 709 717
713 12 662 663 665 666
714 10 664 663 665 666
715 11 664 663 665 666
716 10 661 662 663 664
717 11 661 662 663 664
718 12 661 662 663 665
719 8 663 662 661 667
720 8 663 662 661 668
721 8 663 662 661 669
722 1 241 242 243 244
723 2 241 242 243 244
724 4 243 242 241 246
725 5 243 242 241 246
726 6 243 242 241 247
727 7 243 242 241 247
728 6 243 242 241 248
729 7 243 242 241 248
730 1 242 241 246 244
731 2 242 241 246 244
732 6 246 241 242 249
733 7 246 241 242 249
734 6 246 241 242 250
735 7 246 241 242 250
736 9 247 241 242 249
737 9 247 241 242 250
738 9 248 241 242 249
739 9 248 241 242 250
740 3 282 283 284 285
741 3 282 283 284 286
742 8 284 283 282 289
743 8 284 283 282 290
744 1 282 281 286 284
745 2 282 281 286 284
746 6 286 281 282 289
747 7 286 281 282 289
748 6 286 281 282 290
749 7 286 281 282 290
750 9 287 281 282 289
751 9 287 281 282 290
752 9 288 281 282 289
753 9 288 281 282 290
754 1 281 282 283 284
755 2 281 282 283 284
756 4 283 282 281 286
757 5 283 282 281 286
758 6 283 282 281 287
759 7 283 282 281 287
760 6 283 282 281 288
761 7 283 282 281 288
762 3 281 286 284 283
763 3 281 286 284 285
764 8 284 286 281 287
765 8 284 286 281 288
766 3 241 246 244 243
767 3 241 246 244 245
768 8 244 246 241 247
769 8 244 246 241 248
770 12 890 891 893 894
771 10 892 891 893 894
772 11 892 891 893 894
773 8 891 893 894 898
774 8 891 893 894 899
775 8 891 893 894 900
776 10 889 890 891 892
777 11 889 890 891 892
778 12 889 890 891 893
779 8 891 890 889 895
780 8 891 890 889 896
781 8 891 890 889 897
782 10 493 494 495 496
783 11 493 494 495 496
784 12 493 494 495 497
785 8 495 494 493 499
786 8 495 494 493 500
787 8 495 494 493 501
788 3 161 166 164 163
789 3 161 166 164 165
790 8 164 166 161 167
791 8 164 166 161 168
792 1 162 161 166 164
793 2 162 161 166 164
794 6 166 161 162 169
795 7 166 161 162 169
796 6 166 161 162 170
797 7 166 161 162 170
798 9 167 161 162 169
799 9 167 161 162 170
800 9 168 161 162 169
801 9 168 161 162 170
802 1 161 162 163 164
803 2 161 162 163 164
804 4 163 162 161 166
805 5 163 162 161 166
806 6 163 162 161 167
807 7 163 162 161 167
808 6 163 162 161 168
809 7 163 162 161 168
810 3 162 163 164 165
811 3 162 163 164 166
812 8 164 163 162 169
813 8 164 163 162 170
814 1 201 202 203 204
815 2 201 202 203 204
816 4 203 202 201 206
817 5 203 202 201 206
818 6 203 202 201 207
819 7 203 202 201 207
820 6 203 202 201 208
821 7 203 202 201 208
822 1 202 201 206 204
823 2 202 201 206 204
824 6 206 201 202 209
825 7 206 201 202 209
826 6 206 201 202 210
827 7 206 201 202 210
828 9 207 201 202 209
829 9 207 201 202 210
830 9 208 201 202 209
831 9 208 201 202 210
832 12 494 495 497 498
833 10 496 495 497 498
834 11 496 495 497 498
835 10 745 746 747 748
836 11 745 746 747 748
837 12 745 746 747 749
838 8 747 746 745 751
839 8 747 746 745 752
840 8 747 746 745 753
841 12 746 747 749 750
842 10 748 747 749 750
843 11 748 747 749 750
844 3 201 206 204 203
845 3 201 206 204 205
846 8 204 206 201 207
847 8 204 206 201 208
848 12 542 543 545 546
849 10 544 543 545 546
850 11 544 543 545 546
851 10 541 542 543 544
852 11 541 542 543 544
853 12 541 542 543 545
854 8 543 542 541 547
855 8 543 542 541 548
856 8 543 542 541 549
857 8 747 749 750 754
858 8 747 749 750 755
859 8 747 749 750 756
860 3 211 216 214 213
861 3 211 216 214 215
862 8 214 216 211 217
863 8 214 216 211 218
864 1 212 211 216 214
865 2 212 211 216 214
866 6 216 211 212 219
867 7 216 211 212 219
868 6 216 211 212 220
869 7 216 211 212 220
870 9 217 211 212 219
871 9 217 211 212 220
872 9 218 211 212 219
873 9 218 211 212 220
874 3 151 156 154 153
875 3 151 156 154 155
876 8 154 156 151 157
877 8 154 156 151 158
878 1 151 152 153 154
879 2 151 152 153 154
880 4 153 152 151 156
881 5 153 152 151 156
882 6 153 152 151 157
883 7 153 152 151 157
884 6 153 152 151 158
885 7 153 152 151 158
886 3 152 153 154 155
887 3 152 153 154 156
888 8 154 153 152 159
889 8 154 153 152 160
890 1 152 151 156 154
891 2 152 151 156 154
892 6 156 151 152 159
893 7 156 151 152 159
894 6 156 151 152 160
895 7 156 151 152 160
896 9 157 151 152 159
897 9 157 151 152 160
898 9 158 151 152 159
899 9 158 151 152 160
900 3 182 183 184 185
901 3 182 183 184 186
902 8 184 183 182 189
903 8 184 183 182 190
904 8 627 629 630 634
905 8 627 629 630 635
906 8 627 629 630 636
907 10 625 626 627 628
908 11 625 626 627 628
909 12 625 626 627 629
910 8 627 626 625 631
911 8 627 626 625 632
912 8 627 626 625 633
913 12 626 627 629 630
914 10 628 627 629 630
915 11 628 627 629 630
916 12 482 483 485 486
917 10 484 483 485 486
918 11 484 483 485 486
919 8 483 485 486 490
920 8 483 485 486 491
921 8 483 485 486 492
922 10 481 482 483 484
923 11 481 482 483 484
924 12 481 482 483 485
925 8 483 482 481 487
926 8 483 482 481 488
927 8 483 482 481 489
928 10 637 638 639 640
929 11 637 638 639 640
930 12 637 638 639 641
931 8 639 638 637 643
932 8 639 638 637 644
933 8 639 638 637 645
934 12 638 639 641 642
935 10 640 639 641 642
936 11 640 639 641 642
937 8 495 497 498 502
938 8 495 497 498 503
939 8 495 497 498 504
940 3 202 203 204 205
941 3 202 203 204 206
942 8 204 203 202 209
943 8 204 203 202 210
944 8 579 581 582 586
945 8 579 581 582 587
946 8 579 581 582 588
947 10 649 650 651 652
948 11 649 650 651 652
949 12 649 650 651 653
950 8 651 650 649 655
951 8 651 650 649 656
952 8 651 650 649 657
953 12 650 651 653 654
954 10 652 651 653 654
955 11 652 651 653 654
956 8 651 653 654 658
957 8 651 653 654 659
958 8 651 653 654 660
959 8 951 953 954 958
960 8 951 953 954 959
961 8 951 953 954 960
962 12 950 951 953 954
963 10 952 951 953 954
964 11 952 951 953 954
965 10 949 950 951 952
966 11 949 950 951 952
967 12 949 950 951 953
968 8 951 950 949 955
969 8 951 950 949 956
970 8 951 950 949 957
971 1 211 212 213 214
972 2 211 212 213 214
973 4 213 212 211 216
974 5 213 212 211 216
975 6 213 212 211 217
976 7 213 212 211 217
977 6 213 212 211 218
978 7 213 212 211 218
979 3 212 213 214 215
980 3 212 213 214 216
981 8 214 213 212 219
982 8 214 213 212 220
983 1 111 112 113 114
984 2 111 112 113 114
985 4 113 112 111 116
986 5 113 112 111 116
987 6 113 112 111 117
988 7 113 112 111 117
989 6 113 112 111 118
990 7 113 112 111 118
991 10 313 314 315 316
992 11 313 314 315 316
993 12 313 314 315 317
994 8 315 314 313 319
995 8 315 314 313 320
996 8 315 314 313 321
997 12 314 315 317 318
998 10 316 315 317 318
999 11 316 315 317 318
1000 8 315 317 318 322
1001 8 315 317 318 323
1002 8 315 317 318 324
1003 12 470 471 473 474
1004 10 472 471 473 474
1005 11 472 471 473 474
1006 10 469 470 471 472
1007 11 469 470 471 472
1008 12 469 470 471 473
1009 8 471 470 469 475
1010 8 471 470 469 476
1011 8 471 470 469 477
1012 8 471 473 474 478
1013 8 471 473 474 479
1014 8 471 473 474 480
1015 1 112 111 116 114
1016 2 112 111 116 114
1017 6 116 111 112 119
1018 7 116 111 112 119
1019 6 116 111 112 120
1020 7 116 111 112 120
1021 9 117 111 112 119
1022 9 117 111 112 120
1023 9 118 111 112 119
1024 9 118 111 112 120
1025 1 51 52 53 54
1026 2 51 52 53 54
1027 4 53 52 51 56
1028 5 53 52 51 56
1029 6 53 52 51 57
1030 7 53 52 51 57
1031 6 53 52 51 58
1032 7 53 52 51 58
1033 1 222 221 226 224
1034 2 222 221 226 224
1035 6 226 221 222 229
1036 7 226 221 222 229
1037 6 226 221 222 230
1038 7 226 221 222 230
1039 9 227 221 222 229
1040 9 227 221 222 230
1041 9 228 221 222 229
1042 9 228 221 222 230
1043 3 221 226 224 223
1044 3 221 226 224 225
1045 8 224 226 221 227
1046 8 224 226 221 228
1047 3 222 223 224 225
1048 3 222 223 224 226
1049 8 224 223 222 229
1050 8 224 223 222 230
1051 10 529 530 531 532
1052 11 529 530 531 532
1053 12 529 530 531 533
1054 8 531 530 529 535
1055 8 531 530 529 536
1056 8 531 530 529 537
1057 12 530 531 533 534
1058 10 532 531 533 534
1059 11 532 531 533 534
1060 8 531 533 534 538
1061 8 531 533 534 539
1062 8 531 533 534 540
1063 1 171 172 173 174
1064 2 171 172 173 174
1065 4 173 172 171 176
1066 5 173 172 171 176
1067 6 173 172 171 177
1068 7 173 172 171 177
1069 6 173 172 171 178
1070 7 173 172 171 178
1071 3 52 53 54 55
1072 3 52 53 54 56
1073 8 54 53 52 59
1074 8 54 53 52 60
1075 1 172 171 176 174
1076 2 172 171 176 174
1077 6 176 171 172 179
1078 7 176 171 172 179
1079 6 176 171 172 180
1080 7 176 171 172 180
1081 9 177 171 172 179
1082 9 177 171 172 180
1083 9 178 171 172 179
1084 9 178 171 172 180
1085 8 855 857 858 862
1086 8 855 857 858 863
1087 8 855 857 858 864
1088 12 854 855 857 858
1089 10 856 855 857 858
1090 11 856 855 857 858
1091 3 172 173 174 175
1092 3 172 173 174 176
1093 8 174 173 172 179
1094 8 174 173 172 180
1095 3 171 176 174 173
1096 3 171 176 174 175
1097 8 174 176 171 177
1098 8 174 176 171 178
1099 10 853 854 855 856
1100 11 853 854 855 856
1101 12 853 854 855 857
1102 8 855 854 853 859
1103 8 855 854 853 860
1104 8 855 854 853 861
1105 12 554 555 557 558
1106 10 556 555 557 558
1107 11 556 555 557 558
1108 8 555 557 558 562
1109 8 555 557 558 563
1110 8 555 557 558 564
1111 12 506 507 509 510
1112 10 508 507 509 510
1113 11 508 507 509 510
1114 10 505 506 507 508
1115 11 505 506 507 508
1116 12 505 506 507 509
1117 8 507 506 505 511
1118 8 507 506 505 512
1119 8 507 506 505 513
1120 10 553 554 555 556
1121 11 553 554 555 556
1122 12 553 554 555 557
1123 8 555 554 553 559
1124 8 555 554 553 560
1125 8 555 554 553 561
1126 19 1023 1024 1025 1042
1127 19 1023 1024 1025 1043
1128 19 1023 1024 1025 1044
1129 19 1023 1024 1026 1045
1130 19 1023 1024 1026 1046
1131 19 1023 1024 1026 1047
1132 19 1023 1024 1027 1048
1133 19 1023 1024 1027 1049
1134 19 1023 1024 1027 1050
1135 13 1025 1024 1026 1045
1136 13 1025 1024 1026 1046
1137 13 1025 1024 1026 1047
1138 13 1025 1024 1027 1048
1139 13 1025 1024 1027 1049
1140 13 1025 1024 1027 1050
1141 13 1026 1024 1025 1042
1142 13 1026 1024 1025 1043
1143 13 1026 1024 1025 1044
1144 13 1026 1024 1027 1048
1145 13 1026 1024 1027 1049
1146 13 1026 1024 1027 1050
1147 13 1027 1024 1025 1042
1148 13 1027 1024 1025 1043
1149 13 1027 1024 1025 1044
1150 13 1027 1024 1026 1045
1151 13 1027 1024 1026 1046
1152 13 1027 1024 1026 1047
1153 13 1017 1018 1019 1036
1154 13 1017 1018 1019 1037
1155 13 1017 1018 1019 1038
1156 13 1017 1018 1020 1039
1157 13 1017 1018 1020 1040
1158 13 1017 1018 1020 1041
1159 14 1017 1018 1021 1022
1160 15 1017 1018 1021 1022
1161 13 1019 1018 1017 1033
1162 13 1019 1018 1017 1034
1163 13 1019 1018 1017 1035
1164 13 1019 1018 1020 1039
1165 13 1019 1018 1020 1040
1166 13 1019 1018 1020 1041
1167 14 1019 1018 1021 1022
1168 15 1019 1018 1021 1022
1169 13 1020 1018 1017 1033
1170 13 1020 1018 1017 1034
1171 13 1020 1018 1017 1035
1172 13 1020 1018 1019 1036
1173 13 1020 1018 1019 1037
1174 13 1020 1018 1019 1038
1175 14 1020 1018 1021 1022
1176 15 1020 1018 1021 1022
1177 19 1021 1018 1017 1033
1178 19 1021 1018 1017 1034
1179 19 1021 1018 1017 1035
1180 19 1021 1018 1019 1036
1181 19 1021 1018 1019 1037
1182 19 1021 1018 1019 1038
1183 19 1021 1018 1020 1039
1184 19 1021 1018 1020 1040
1185 19 1021 1018 1020 1041
1186 14 1022 1023 1024 1025
1187 15 1022 1023 1024 1025
1188 14 1022 1023 1024 1026
1189 15 1022 1023 1024 1026
1190 14 1022 1023 1024 1027
1191 15 1022 1023 1024 1027
1192 16 1024 1023 1022 1028
1193 17 1024 1023 1022 1028
1194 18 1024 1023 1022 1028
1195 16 1018 1021 1022 1023
1196 17 1018 1021 1022 1023
1197 18 1018 1021 1022 1023
1198 16 1018 1021 1022 1028
1199 17 1018 1021 1022 1028
1200 18 1018 1021 1022 1028
1201 16 1021 1022 1023 1024
1202 17 1021 1022 1023 1024
1203 18 1021 1022 1023 1024
1204 16 1021 1022 1028 1029
1205 17 1021 1022 1028 1029
1206 18 1021 1022 1028 1029
1207 16 1023 1022 1028 1029
1208 17 1023 1022 1028 1029
1209 18 1023 1022 1028 1029
1210 14 1022 1028 1029 1030
1211 15 1022 1028 1029 1030
1212 14 1022 1028 1029 1031
1213 15 1022 1028 1029 1031
1214 14 1022 1028 1029 1032
1215 15 1022 1028 1029 1032
1216 19 1028 1029 1030 1051
1217 19 1028 1029 1030 1052
1218 19 1028 1029 1030 1053
1219 19 1028 1029 1031 1054
1220 19 1028 1029 1031 1055
1221 19 1028 1029 1031 1056
1222 19 1028 1029 1032 1057
1223 19 1028 1029 1032 1058
1224 19 1028 1029 1032 1059
1225 13 1030 1029 1031 1054
1226 13 1030 1029 1031 1055
1227 13 1030 1029 1031 1056
1228 13 1030 1029 1032 1057
1229 13 1030 1029 1032 1058
1230 13 1030 1029 1032 1059
1231 13 1031 1029 1030 1051
1232 13 1031 1029 1030 1052
1233 13 1031 1029 1030 1053
1234 13 1031 1029 1032 1057
1235 13 1031 1029 1032 1058
1236 13 1031 1029 1032 1059
1237 13 1032 1029 1030 1051
1238 13 1032 1029 1030 1052
1239 13 1032 1029 1030 1053
1240 13 1032 1029 1031 1054
1241 13 1032 1029 1031 1055
1242 13 1032 1029 1031 1056
1243 1 251 252 253 254
1244 2 251 252 253 254
1245 4 253 252 251 256
1246 5 253 252 251 256
1247 6 253 252 251 257
1248 7 253 252 251 257
1249 6 253 252 251 258
1250 7 253 252 251 258
1251 1 252 251 256 254
1252 2 252 251 256 254
1253 6 256 251 252 259
1254 7 256 251 252 259
1255 6 256 251 252 260
1256 7 256 251 252 260
1257 9 257 251 252 259
1258 9 257 251 252 260
1259 9 258 251 252 259
1260 9 258 251 252 260
1261 8 819 821 822 826
1262 8 819 821 822 827
1263 8 819 821 822 828
1264 12 782 783 785 786
1265 10 784 783 785 786
1266 11 784 783 785 786
1267 8 783 785 786 790
1268 8 783 785 786 791
1269 8 783 785 786 792
1270 12 818 819 821 822
1271 10 820 819 821 822
1272 11 820 819 821 822
1273 1 22 21 26 24
1274 2 22 21 26 24
1275 6 26 21 22 29
1276 7 26 21 22 29
1277 6 26 21 22 30
1278 7 26 21 22 30
1279 9 27 21 22 29
1280 9 27 21 22 30
1281 9 28 21 22 29
1282 9 28 21 22 30
1283 3 21 26 24 23
1284 3 21 26 24 25
1285 8 24 26 21 27
1286 8 24 26 21 28
1287 10 781 782 783 784
1288 11 781 782 783 784
1289 12 781 782 783 785
1290 8 783 782 781 787
1291 8 783 782 781 788
1292 8 783 782 781 789
1293 10 817 818 819 820
1294 11 817 818 819 820
1295 12 817 818 819 821
1296 8 819 818 817 823
1297 8 819 818 817 824
1298 8 819 818 817 825
1299 8 699 701 702 706
1300 8 699 701 702 707
1301 8 699 701 702 708
1302 10 697 698 699 700
1303 11 697 698 699 700
1304 12 697 698 699 701
1305 8 699 698 697 703
1306 8 699 698 697 704
1307 8 699 698 697 705
1308 10 517 518 519 520
1309 11 517 518 519 520
1310 12 517 518 519 521
1311 8 519 518 517 523
1312 8 519 518 517 524
1313 8 519 518 517 525
1314 10 349 350 351 352
1315 11 349 350 351 352
1316 12 349 350 351 353
1317 8 351 350 349 355
1318 8 351 350 349 356
1319 8 351 350 349 357
1320 12 350 351 353 354
1321 10 352 351 353 354
1322 11 352 351 353 354
1323 8 351 353 354 358
1324 8 351 353 354 359
1325 8 351 353 354 360
1326 12 518 519 521 522
1327 10 520 519 521 522
1328 11 520 519 521 522
1329 8 519 521 522 526
1330 8 519 521 522 527
1331 8 519 521 522 528
1332 12 698 699 701 702
1333 10 700 699 701 702
1334 11 700 699 701 702
1335 10 565 566 567 568
1336 11 565 566 567 568
1337 12 565 566 567 569
1338 8 567 566 565 571
1339 8 567 566 565 572
1340 8 567 566 565 573
1341 1 291 292 293 294
1342 2 291 292 293 294
1343 4 293 292 291 296
1344 5 293 292 291 296
1345 6 293 292 291 297
1346 7 293 292 291 297
1347 6 293 292 291 298
1348 7 293 292 291 298
1349 1 292 291 296 294
1350 2 292 291 296 294
1351 6 296 291 292 299
1352 7 296 291 292 299
1353 6 296 291 292 300
1354 7 296 291 292 300
1355 9 297 291 292 299
1356 9 297 291 292 300
1357 9 298 291 292 299
1358 9 298 291 292 300
1359 8 795 797 798 802
1360 8 795 797 798 803
1361 8 795 797 798 804
1362 12 566 567 569 570
1363 10 568 567 569 570
1364 11 568 567 569 570
1365 12 794 795 797 798
1366 10 796 795 797 798
1367 11 796 795 797 798
1368 8 567 569 570 574
1369 8 567 569 570 575
1370 8 567 569 570 576
1371 3 291 296 294 293
1372 3 291 296 294 295
1373 8 294 296 291 297
1374 8 294 296 291 298
1375 3 252 253 254 255
1376 3 252 253 254 256
1377 8 254 253 252 259
1378 8 254 253 252 260
1379 3 272 273 274 275
1380 3 272 273 274 276
1381 8 274 273 272 279
1382 8 274 273 272 280
1383 3 251 256 254 253
1384 3 251 256 254 255
1385 8 254 256 251 257
1386 8 254 256 251 258
1387 10 793 794 795 796
1388 11 793 794 795 796
1389 12 793 794 795 797
1390 8 795 794 793 799
1391 8 795 794 793 800
1392 8 795 794 793 801
1393 3 271 276 274 273
1394 3 271 276 274 275
1395 8 274 276 271 277
1396 8 274 276 271 278
1397 1 271 272 273 274
1398 2 271 272 273 274
1399 4 273 272 271 276
1400 5 273 272 271 276
1401 6 273 272 271 277
1402 7 273 272 271 277
1403 6 273 272 271 278
1404 7 273 272 271 278
1405 1 272 271 276 274
1406 2 272 271 276 274
1407 6 276 271 272 279
1408 7 276 271 272 279
1409 6 276 271 272 280
1410 7 276 271 272 280
1411 9 277 271 272 279
1412 9 277 271 272 280
1413 9 278 271 272 279
1414 9 278 271 272 280
1415 8 639 641 642 646
1416 8 639 641 642 647
1417 8 639 641 642 648
1418 1 92 91 96 94
1419 2 92 91 96 94
1420 6 96 91 92 99
1421 7 96 91 92 99
1422 6 96 91 92 100
1423 7 96 91 92 100
1424 9 97 91 92 99
1425 9 97 91 92 100
1426 9 98 91 92 99
1427 9 98 91 92 100
1428 8 687 689 690 694
1429 8 687 689 690 695
1430 8 687 689 690 696
1431 1 91 92 93 94
1432 2 91 92 93 94
1433 4 93 92 91 96
1434 5 93 92 91 96
1435 6 93 92 91 97
1436 7 93 92 91 97
1437 6 93 92 91 98
1438 7 93 92 91 98
1439 10 385 386 387 388
1440 11 385 386 387 388
1441 12 385 386 387 389
1442 8 387 386 385 391
1443 8 387 386 385 392
1444 8 387 386 385 393
1445 12 386 387 389 390
1446 10 388 387 389 390
1447 11 388 387 389 390
1448 10 589 590 591 592
1449 11 589 590 591 592
1450 12 589 590 591 593
1451 8 591 590 589 595
1452 8 591 590 589 596
1453 8 591 590 589 597
1454 12 590 591 593 594
1455 10 592 591 593 594
1456 11 592 591 593 594
1457 12 686 687 689 690
1458 10 688 687 689 690
1459 11 688 687 689 690
1460 10 685 686 687 688
1461 11 685 686 687 688
1462 12 685 686 687 689
1463 8 687 686 685 691
1464 8 687 686 685 692
1465 8 687 686 685 693
1466 8 591 593 594 598
1467 8 591 593 594 599
1468 8 591 593 594 600
1469 8 303 305 306 310
1470 8 303 305 306 311
1471 8 303 305 306 312
1472 3 1 6 4 3
1473 3 1 6 4 5
1474 8 4 6 1 7
1475 8 4 6 1 8
1476 1 2 1 6 4
1477 2 2 1 6 4
1478 6 6 1 2 9
1479 7 6 1 2 9
1480 6 6 1 2 10
1481 7 6 1 2 10
1482 9 7 1 2 9
1483 9 7 1 2 10
1484 9 8 1 2 9
1485 9 8 1 2 10
1486 8 507 509 510 514
1487 8 507 509 510 515
1488 8 507 509 510 516
1489 3 92 93 94 95
1490 3 92 93 94 96
1491 8 94 93 92 99
1492 8 94 93 92 100
1493 12 302 303 305 306
1494 10 304 303 305 306
1495 11 304 303 305 306
1496 10 301 302 303 304
1497 11 301 302 303 304
1498 12 301 302 303 305
1499 8 303 302 301 307
1500 8 303 302 301 308
1501 8 303 302 301 309
1502 12 578 579 581 582
1503 10 580 579 581 582
1504 11 580 579 581 582
1505 10 577 578 579 580
1506 11 577 578 579 580
1507 12 577 578 579 581
1508 8 579 578 577 583
1509 8 579 578 577 584
1510 8 579 578 577 585
1511 3 191 196 194 193
1512 3 191 196 194 195
1513 8 194 196 191 197
1514 8 194 196 191 198
1515 1 192 191 196 194
1516 2 192 191 196 194
1517 6 196 191 192 199
1518 7 196 191 192 199
1519 6 196 191 192 200
1520 7 196 191 192 200
1521 9 197 191 192 199
1522 9 197 191 192 200
1523 9 198 191 192 199
1524 9 198 191 192 200
1525 3 192 193 194 195
1526 3 192 193 194 196
1527 8 194 193 192 199
1528 8 194 193 192 200
1529 10 757 758 759 760
1530 11 757 758 759 760
1531 12 757 758 759 761
1532 8 759 758 757 763
1533 8 759 758 757 764
1534 8 759 758 757 765
1535 1 191 192 193 194
1536 2 191 192 193 194
1537 4 193 192 191 196
1538 5 193 192 191 196
1539 6 193 192 191 197
1540 7 193 192 191 197
1541 6 193 192 191 198
1542 7 193 192 191 198
1543 8 831 833 834 838
1544 8 831 833 834 839
1545 8 831 833 834 840
1546 10 733 734 735 736
1547 11 733 734 735 736
1548 12 733 734 735 737
1549 8 735 734 733 739
1550 8 735 734 733 740
1551 8 735 734 733 741
1552 8 735 737 738 742
1553 8 735 737 738 743
1554 8 735 737 738 744
1555 12 734 735 737 738
1556 10 736 735 737 738
1557 11 736 735 737 738

Impropers

1 1 84 86 83 85
2 1 134 133 135 136
3 1 134 136 133 135
4 1 84 83 85 86
5 1 375 376 377 374
6 1 915 914 916 917
7 1 64 63 65 66
8 1 64 66 63 65
9 1 807 806 808 809
10 1 807 809 806 808
11 1 375 377 374 376
12 1 375 374 376 377
13 1 54 56 53 55
14 1 64 65 66 63
15 1 34 36 33 35
16 1 771 772 773 770
17 1 915 916 917 914
18 1 34 33 35 36
19 1 915 917 914 916
20 1 423 425 422 424
21 1 34 35 36 33
22 1 423 422 424 425
23 1 807 808 809 806
24 1 44 46 43 45
25 1 44 43 45 46
26 1 134 135 136 133
27 1 423 424 425 422
28 1 411 412 413 410
29 1 411 413 410 412
30 1 711 713 710 712
31 1 14 13 15 16
32 1 14 16 13 15
33 1 144 145 146 143
34 1 144 143 145 146
35 1 723 725 722 724
36 1 711 712 713 710
37 1 24 23 25 26
38 1 939 941 938 940
39 1 939 938 940 941
40 1 939 940 941 938
41 1 363 365 362 364
42 1 363 364 365 362
43 1 327 326 328 329
44 1 327 328 329 326
45 1 327 329 326 328
46 1 363 362 364 365
47 1 124 123 125 126
48 1 294 295 296 293
49 1 124 126 123 125
50 1 723 722 724 725
51 1 903 902 904 905
52 1 903 905 902 904
53 1 74 76 73 75
54 1 903 904 905 902
55 1 74 75 76 73
56 1 74 73 75 76
57 1 294 293 295 296
58 1 723 724 725 722
59 1 124 125 126 123
60 1 144 146 143 145
61 1 867 866 868 869
62 1 411 410 412 413
63 1 399 398 400 401
64 1 399 400 401 398
65 1 399 401 398 400
66 1 867 869 866 868
67 1 387 389 386 388
68 1 94 96 93 95
69 1 867 868 869 866
70 1 184 186 183 185
71 1 603 605 602 604
72 1 234 233 235 236
73 1 603 604 605 602
74 1 615 614 616 617
75 1 675 674 676 677
76 1 675 676 677 674
77 1 675 677 674 676
78 1 234 236 233 235
79 1 603 602 604 605
80 1 4 3 5 6
81 1 615 617 614 616
82 1 94 95 96 93
83 1 771 770 772 773
84 1 771 773 770 772
85 1 759 760 761 758
86 1 831 830 832 833
87 1 615 616 617 614
88 1 759 761 758 760
89 1 84 85 86 83
90 1 264 263 265 266
91 1 435 436 437 434
92 1 435 437 434 436
93 1 264 265 266 263
94 1 447 446 448 449
95 1 435 434 436 437
96 1 264 266 263 265
97 1 663 665 662 664
98 1 104 106 103 105
99 1 244 243 245 246
100 1 447 449 446 448
101 1 244 245 246 243
102 1 843 845 842 844
103 1 447 448 449 446
104 1 104 103 105 106
105 1 104 105 106 103
106 1 843 842 844 845
107 1 927 926 928 929
108 1 927 929 926 928
109 1 879 880 881 878
110 1 843 844 845 842
111 1 459 458 460 461
112 1 459 461 458 460
113 1 459 460 461 458
114 1 339 341 338 340
115 1 879 878 880 881
116 1 339 340 341 338
117 1 543 545 542 544
118 1 114 113 115 116
119 1 339 338 340 341
120 1 879 881 878 880
121 1 114 116 113 115
122 1 114 115 116 113
123 1 711 710 712 713
124 1 663 662 664 665
125 1 184 185 186 183
126 1 284 283 285 286
127 1 891 892 893 890
128 1 284 285 286 283
129 1 284 286 283 285
130 1 244 246 243 245
131 1 891 893 890 892
132 1 164 165 166 163
133 1 891 890 892 893
134 1 495 494 496 497
135 1 164 166 163 165
136 1 164 163 165 166
137 1 495 496 497 494
138 1 747 746 748 749
139 1 747 748 749 746
140 1 204 206 203 205
141 1 663 664 665 662
142 1 543 544 545 542
143 1 543 542 544 545
144 1 747 749 746 748
145 1 214 216 213 215
146 1 154 155 156 153
147 1 154 156 153 155
148 1 154 153 155 156
149 1 184 183 185 186
150 1 627 629 626 628
151 1 627 626 628 629
152 1 627 628 629 626
153 1 483 484 485 482
154 1 483 485 482 484
155 1 483 482 484 485
156 1 639 640 641 638
157 1 639 638 640 641
158 1 495 497 494 496
159 1 204 203 205 206
160 1 579 580 581 578
161 1 579 581 578 580
162 1 651 650 652 653
163 1 651 652 653 650
164 1 651 653 650 652
165 1 204 205 206 203
166 1 927 928 929 926
167 1 951 953 950 952
168 1 951 950 952 953
169 1 214 215 216 213
170 1 214 213 215 216
171 1 951 952 953 950
172 1 315 316 317 314
173 1 315 314 316 317
174 1 315 317 314 316
175 1 471 472 473 470
176 1 471 470 472 473
177 1 471 473 470 472
178 1 224 226 223 225
179 1 224 223 225 226
180 1 224 225 226 223
181 1 531 530 532 533
182 1 531 532 533 530
183 1 531 533 530 532
184 1 54 53 55 56
185 1 855 857 854 856
186 1 174 173 175 176
187 1 174 176 173 175
188 1 855 854 856 857
189 1 855 856 857 854
190 1 54 55 56 53
191 1 507 508 509 506
192 1 555 556 557 554
193 1 555 557 554 556
194 1 174 175 176 173
195 1 507 506 508 509
196 1 44 45 46 43
197 1 555 554 556 557
198 1 14 15 16 13
199 1 819 821 818 820
200 1 783 785 782 784
201 1 819 820 821 818
202 1 783 784 785 782
203 1 24 26 23 25
204 1 783 782 784 785
205 1 819 818 820 821
206 1 24 25 26 23
207 1 519 520 521 518
208 1 699 701 698 700
209 1 699 698 700 701
210 1 519 518 520 521
211 1 351 350 352 353
212 1 351 352 353 350
213 1 351 353 350 352
214 1 519 521 518 520
215 1 699 700 701 698
216 1 567 566 568 569
217 1 567 568 569 566
218 1 795 797 794 796
219 1 567 569 566 568
220 1 294 296 293 295
221 1 795 796 797 794
222 1 254 253 255 256
223 1 274 273 275 276
224 1 274 275 276 273
225 1 254 256 253 255
226 1 254 255 256 253
227 1 795 794 796 797
228 1 274 276 273 275
229 1 4 5 6 3
230 1 639 641 638 640
231 1 687 688 689 686
232 1 687 689 686 688
233 1 387 388 389 386
234 1 387 386 388 389
235 1 591 590 592 593
236 1 687 686 688 689
237 1 591 592 593 590
238 1 591 593 590 592
239 1 303 305 302 304
240 1 4 6 3 5
241 1 507 509 506 508
242 1 94 93 95 96
243 1 234 235 236 233
244 1 303 304 305 302
245 1 303 302 304 305
246 1 579 578 580 581
247 1 194 195 196 193
248 1 194 196 193 195
249 1 194 193 195 196
250 1 759 758 760 761
251 1 831 832 833 830
252 1 831 833 830 832
253 1 735 734 736 737
254 1 735 737 734 736
255 1 735 736 737 734
