LAMMPS (22 Jul 2025 - Update 4)
# Initial NPT chunk for composition tag=ec_dmc_3_7_lipf6_1m_tmspi_1wt_298K
# Generated by scripts/curate_ff_md_data.py

units           real
boundary        p p p
atom_style      full
bond_style      harmonic
angle_style     harmonic
dihedral_style  opls
improper_style  cvff

pair_style      lj/cut/coul/long 12.0 12.0
pair_modify     mix arithmetic
special_bonds   lj/coul 0.0 0.0 0.5

read_data       ec_dmc_3_7_lipf6_1m_tmspi_1wt_298K.lmp
Reading data file ...
  triclinic box = (-0.023 -0.033 -0.0050000004) to (23.272548 23.262548 23.290548) with tilt (0 0 0)
  1 by 1 by 1 MPI processor grid
  reading atoms ...
  1059 atoms
  scanning bonds ...
  5 = max bonds/atom
  scanning angles ...
  15 = max angles/atom
  scanning dihedrals ...
  33 = max dihedrals/atom
  scanning impropers ...
  1 = max impropers/atom
  triclinic box = (-0.023 -0.033 -0.0050000004) to (23.272548 23.262548 23.290548) with tilt (0 0 0)
  1 by 1 by 1 MPI processor grid
  reading bonds ...
  989 bonds
  reading angles ...
  1628 angles
  reading dihedrals ...
  1557 dihedrals
  reading impropers ...
  255 impropers
Finding 1-2 1-3 1-4 neighbors ...
  special bond factors lj:    0        0        0.5     
  special bond factors coul:  0        0        0.5     
     6 = max # of 1-2 neighbors
    10 = max # of 1-3 neighbors
    16 = max # of 1-4 neighbors
    18 = max # of special neighbors
  special bonds CPU = 0.002 seconds
  read_data CPU = 0.036 seconds

# openff-interchange writes the box as triclinic with zero tilt; PPPM stalls
# indefinitely in triclinic mode on this brew LAMMPS build, but works fine
# after change_box all ortho converts the zero-tilt box to orthogonal.
change_box      all ortho
Changing box ...
  orthogonal box = (-0.023 -0.033 -0.0050000004) to (23.272548 23.262548 23.290548)
kspace_style    pppm 1.0e-4

min_style       cg
minimize        1.0e-4 1.0e-6 10000 100000
PPPM initialization ...
  using 12-bit tables for long-range coulomb
  G vector (1/distance) = 0.20329199
  grid = 8 8 8
  stencil order = 5
  estimated absolute RMS force accuracy = 0.024435845
  estimated relative force accuracy = 7.3587821e-05
  using double precision FFTW3
  3d grid and FFT values/proc = 2197 512
Generated 45 of 45 mixed pair_coeff terms from arithmetic mixing rule
Neighbor list info ...
  update: every = 1 steps, delay = 0 steps, check = yes
  max neighbors/atom: 2000, page size: 100000
  master list distance cutoff = 14
  ghost atom cutoff = 14
  binsize = 7, bins = 4 4 4
  1 neighbor lists, perpetual/occasional/extra = 1 0 0
  (1) pair lj/cut/coul/long, perpetual
      attributes: half, newton on
      pair build: half/bin/newton
      stencil: half/bin/3d
      bin: standard
Per MPI rank memory allocation (min/avg/max) = 26.45 | 26.45 | 26.45 Mbytes
   Step          Temp          E_pair         E_mol          TotEng         Press     
         0   0              2055.9505      24669.135      26725.086      92909.168    
      1146   0             -3904.388       5156.9247      1252.5368     -1061.3098    
Loop time of 49.2825 on 1 procs for 1146 steps with 1059 atoms

93.6% CPU use with 1 MPI tasks x no OpenMP threads

Minimization stats:
  Stopping criterion = energy tolerance
  Energy initial, next-to-last, final = 
      26725.0858777369   1252.63921261558   1252.53676162637
  Force two-norm initial, final = 6809.7707 101.21464
  Force max component initial, final = 868.16275 51.99329
  Final line search alpha, max atom move = 0.0020661052 0.1074236
  Iterations, force evaluations = 1146 2287

MPI task timing breakdown:
Section |  min time  |  avg time  |  max time  |%varavg| %total
---------------------------------------------------------------
Pair    | 46.305     | 46.305     | 46.305     |   0.0 | 93.96
Bond    | 1.2607     | 1.2607     | 1.2607     |   0.0 |  2.56
Kspace  | 1.11       | 1.11       | 1.11       |   0.0 |  2.25
Neigh   | 0.37068    | 0.37068    | 0.37068    |   0.0 |  0.75
Comm    | 0.14313    | 0.14313    | 0.14313    |   0.0 |  0.29
Output  | 0          | 0          | 0          |   0.0 |  0.00
Modify  | 0          | 0          | 0          |   0.0 |  0.00
Other   |            | 0.09281    |            |       |  0.19

Nlocal:           1059 ave        1059 max        1059 min
Histogram: 1 0 0 0 0 0 0 0 0 0
Nghost:          10299 ave       10299 max       10299 min
Histogram: 1 0 0 0 0 0 0 0 0 0
Neighs:         509230 ave      509230 max      509230 min
Histogram: 1 0 0 0 0 0 0 0 0 0

Total # of neighbors = 509230
Ave neighs/atom = 480.8593
Ave special neighs/atom = 6.9556185
Neighbor list builds = 17
Dangerous builds = 0
velocity        all create 298.15 181087 dist gaussian
neighbor        2.0 bin
neigh_modify    every 1 delay 0 check yes
timestep        1.0

thermo_style    custom step time temp press vol density pe ke etotal
thermo          100
variable        tracked_temperature_K equal temp
variable        tracked_density_g_cm3 equal density
variable        tracked_volume_A3 equal vol
variable        tracked_pressure_atm equal press
fix             NPT_EQ all npt temp 298.15 298.15 100.0 iso 1.0 1.0 1000.0
fix             NPT_TRACE all ave/time 100 1 100 v_tracked_temperature_K v_tracked_density_g_cm3 v_tracked_volume_A3 v_tracked_pressure_atm file ${thermo_trace}
fix             NPT_TRACE all ave/time 100 1 100 v_tracked_temperature_K v_tracked_density_g_cm3 v_tracked_volume_A3 v_tracked_pressure_atm file npt_thermo.1.dat
run             5000
PPPM initialization ...
  using 12-bit tables for long-range coulomb
  G vector (1/distance) = 0.20329199
  grid = 8 8 8
  stencil order = 5
  estimated absolute RMS force accuracy = 0.024435845
  estimated relative force accuracy = 7.3587821e-05
  using double precision FFTW3
  3d grid and FFT values/proc = 2197 512
Generated 45 of 45 mixed pair_coeff terms from arithmetic mixing rule
Per MPI rank memory allocation (min/avg/max) = 25.33 | 25.33 | 25.33 Mbytes
   Step          Time           Temp          Press          Volume        Density         PotEng         KinEng         TotEng    
      1146   1146           298.15         2338.6113      12642.087      1.1766414      1252.5368      940.27477      2192.8115    
      1200   1200           177.02699      5818.7914      12644.796      1.1763893      1689.9943      558.2895       2248.2838    
      1300   1300           195.10867      4472.3905      12796.637      1.1624307      1757.0205      615.31363      2372.3342    
      1400   1400           207.04679      5024.1859      13020.359      1.1424572      1887.1416      652.96284      2540.1044    
      1500   1500           222.96613      4486.3005      13178.355      1.1287603      2023.3064      703.16764      2726.4741    
      1600   1600           264.22768      5247.8318      13287.832      1.1194605      2075.9421      833.29406      2909.2362    
      1700   1700           291.85237      2437.1038      13374.507      1.1122057      2135.1456      920.41396      3055.5595    
      1800   1800           300.21972      3096.0752      13501.117      1.1017757      2204.2716      946.80202      3151.0736    
      1900   1900           298.20668      2256.4967      13652.285      1.0895761      2211.3307      940.45353      3151.7843    
      2000   2000           308.07534      1165.5912      13804.134      1.0775905      2128.08        971.57628      3099.6563    
      2100   2100           295.5065      -109.38163      13889.569      1.0709622      2120.0536      931.93797      3051.9916    
      2200   2200           300.57946     -576.41056      13877.967      1.0718575      2093.4846      947.93654      3041.4212    
      2300   2300           291.63095      436.13887      13809.856      1.077144       2146.1125      919.71565      3065.8282    
      2400   2400           305.55152     -1071.2868      13722.834      1.0839746      2137.1316      963.61692      3100.7485    
      2500   2500           305.58189     -2046.7637      13651.657      1.0896262      2146.8513      963.71271      3110.564     
      2600   2600           296.74541     -2326.575       13614.262      1.0926192      2139.8443      935.84512      3075.6894    
      2700   2700           298.57174     -1300.1854      13650.233      1.0897399      2075.8243      941.60481      3017.4291    
      2800   2800           290.29471     -2269.3005      13661.212      1.0888641      2069.432       915.50156      2984.9335    
      2900   2900           298.22736     -330.00639      13578.681      1.0954822      2063.05        940.51874      3003.5687    
      3000   3000           285.36389     -129.93484      13483.455      1.1032189      2174.7509      899.95126      3074.7021    
      3100   3100           307.88443      2201.9548      13457.002      1.1053876      2156.785       970.97421      3127.7592    
      3200   3200           311.19699      2670.1536      13519.676      1.1002633      2115.3528      981.42104      3096.7739    
      3300   3300           287.92168      715.7088       13587.867      1.0947416      2116.8228      908.01775      3024.8405    
      3400   3400           292.91722     -449.96639      13639.063      1.0906324      2061.0623      923.77218      2984.8344    
      3500   3500           300.54752      739.60597      13566.436      1.0964709      2049.8411      947.83581      2997.6769    
      3600   3600           286.96179      1463.5713      13398.177      1.1102409      2135.5294      904.99053      3040.52      
      3700   3700           314.00944      1205.3945      13305.399      1.1179825      2099.2037      990.29065      3089.4944    
      3800   3800           310.17847      429.21135      13377.897      1.1119239      2128.1981      978.20891      3106.407     
      3900   3900           291.94408     -1290.5406      13526.717      1.0996906      2150.2974      920.70319      3071.0006    
      4000   4000           299.08031      336.44106      13634.398      1.0910055      2074.2101      943.20869      3017.4187    
      4100   4100           298.77077     -1083.9664      13667.046      1.0883993      2039.8898      942.23251      2982.1223    
      4200   4200           291.25735     -788.8381       13594.828      1.094181       2069.0264      918.53743      2987.5639    
      4300   4300           295.24673     -670.986        13508.047      1.1012105      2111.0367      931.11874      3042.1555    
      4400   4400           297.13595     -103.32423      13425.519      1.1079797      2131.8231      937.07675      3068.8998    
      4500   4500           297.44809      593.58527      13337.206      1.1153163      2121.5478      938.06117      3059.609     
      4600   4600           289.20738      514.3075       13206.394      1.1263638      2098.4434      912.07246      3010.5158    
      4700   4700           302.11114      318.10432      13109.259      1.1347097      2026.9683      952.76701      2979.7353    
      4800   4800           299.00729      767.37311      13070.088      1.1381104      2035.5553      942.97839      2978.5337    
      4900   4900           303.21826     -1953.4532      13104.797      1.1350961      2044.8455      956.25852      3001.104     
      5000   5000           302.45663     -852.37108      13182.775      1.1283818      2100.8887      953.85659      3054.7453    
      5100   5100           316.80215      262.04773      13243.928      1.1231716      2089.8615      999.09799      3088.9595    
      5200   5200           307.76173      3623.3233      13263.878      1.1214822      2072.5071      970.58725      3043.0943    
      5300   5300           302.09682     -723.23892      13343.299      1.114807       2062.4278      952.72186      3015.1496    
      5400   5400           289.73157     -1865.6033      13459.369      1.1051932      2095.3186      913.72559      3009.0442    
      5500   5500           292.44283     -642.09893      13527.848      1.0995987      2072.4653      922.27608      2994.7414    
      5600   5600           295.67382      454.51971      13584.284      1.0950303      2064.5679      932.46566      2997.0336    
      5700   5700           304.3547       413.09336      13628.116      1.0915084      2087.0818      959.84251      3046.9243    
      5800   5800           307.13507      1279.7359      13658.577      1.0890742      2097.3172      968.61095      3065.9281    
      5900   5900           302.27393     -782.00425      13671.142      1.0880732      2084.094       953.28038      3037.3744    
      6000   6000           295.77924     -934.71542      13625.579      1.0917117      2054.4627      932.7981       2987.2608    
      6100   6100           290.5928      -1305.1626      13513.368      1.1007769      2075.7112      916.44164      2992.1529    
      6146   6146           294.92727     -548.99382      13446.852      1.106222       2076.8066      930.11127      3006.9178    
Loop time of 63.7113 on 1 procs for 5000 steps with 1059 atoms

Performance: 6.781 ns/day, 3.540 hours/ns, 78.479 timesteps/s, 83.109 katom-step/s
94.7% CPU use with 1 MPI tasks x no OpenMP threads

MPI task timing breakdown:
Section |  min time  |  avg time  |  max time  |%varavg| %total
---------------------------------------------------------------
Pair    | 55.54      | 55.54      | 55.54      |   0.0 | 87.17
Bond    | 2.5211     | 2.5211     | 2.5211     |   0.0 |  3.96
Kspace  | 2.3971     | 2.3971     | 2.3971     |   0.0 |  3.76
Neigh   | 2.174      | 2.174      | 2.174      |   0.0 |  3.41
Comm    | 0.29273    | 0.29273    | 0.29273    |   0.0 |  0.46
Output  | 0.0019138  | 0.0019138  | 0.0019138  |   0.0 |  0.00
Modify  | 0.69906    | 0.69906    | 0.69906    |   0.0 |  1.10
Other   |            | 0.08533    |            |       |  0.13

Nlocal:           1059 ave        1059 max        1059 min
Histogram: 1 0 0 0 0 0 0 0 0 0
Nghost:           9778 ave        9778 max        9778 min
Histogram: 1 0 0 0 0 0 0 0 0 0
Neighs:         476798 ave      476798 max      476798 min
Histogram: 1 0 0 0 0 0 0 0 0 0

Total # of neighbors = 476798
Ave neighs/atom = 450.23418
Ave special neighs/atom = 6.9556185
Neighbor list builds = 104
Dangerous builds = 0
unfix           NPT_TRACE
unfix           NPT_EQ
write_restart   ${output_restart}
write_restart   ec_dmc_3_7_lipf6_1m_tmspi_1wt_298K.npt.1.restart
System init for write_restart ...
PPPM initialization ...
  using 12-bit tables for long-range coulomb
  G vector (1/distance) = 0.20174708
  grid = 8 8 8
  stencil order = 5
  estimated absolute RMS force accuracy = 0.025927458
  estimated relative force accuracy = 7.807977e-05
  using double precision FFTW3
  3d grid and FFT values/proc = 2197 512
Generated 45 of 45 mixed pair_coeff terms from arithmetic mixing rule
Total wall time: 0:01:53
