LAMMPS (22 Jul 2025 - Update 4)
# Restart continuation NPT chunk for composition tag=ec_dmc_3_7_lipf6_1m_tmspi_1wt_298K
# Generated by scripts/curate_ff_md_data.py

read_restart    ${input_restart}
read_restart    ec_dmc_3_7_lipf6_1m_tmspi_1wt_298K.npt.1.restart
Reading restart file ...
  restart file = 22 Jul 2025, LAMMPS = 22 Jul 2025
  restoring atom style full from restart
  orthogonal box = (-0.26508992 -0.27508992 -0.24708992) to (23.514638 23.504638 23.532638)
  1 by 1 by 1 MPI processor grid
  restoring pair style lj/cut/coul/long from restart
  restoring bond style harmonic from restart
  restoring angle style harmonic from restart
  restoring dihedral style opls from restart
  restoring improper style cvff from restart
  1059 atoms
  989 bonds
  1628 angles
  1557 dihedrals
  255 impropers
Finding 1-2 1-3 1-4 neighbors ...
  special bond factors lj:    0        0        0.5     
  special bond factors coul:  0        0        0.5     
     6 = max # of 1-2 neighbors
    10 = max # of 1-3 neighbors
    16 = max # of 1-4 neighbors
    18 = max # of special neighbors
  special bonds CPU = 0.001 seconds
  read_restart CPU = 0.006 seconds
kspace_style    pppm 1.0e-4
neighbor        2.0 bin
neigh_modify    every 1 delay 0 check yes
timestep        1.0

thermo_style    custom step time temp press vol density pe ke etotal
thermo          100
variable        tracked_temperature_K equal temp
variable        tracked_density_g_cm3 equal density
variable        tracked_volume_A3 equal vol
variable        tracked_pressure_atm equal press
fix             NPT_EQ all npt temp 298.15 298.15 100.0 iso 1.0 1.0 1000.0
fix             NPT_TRACE all ave/time 100 1 100 v_tracked_temperature_K v_tracked_density_g_cm3 v_tracked_volume_A3 v_tracked_pressure_atm file ${thermo_trace}
fix             NPT_TRACE all ave/time 100 1 100 v_tracked_temperature_K v_tracked_density_g_cm3 v_tracked_volume_A3 v_tracked_pressure_atm file npt_thermo.2.dat
run             5000
PPPM initialization ...
  using 12-bit tables for long-range coulomb
  G vector (1/distance) = 0.20174708
  grid = 8 8 8
  stencil order = 5
  estimated absolute RMS force accuracy = 0.025927458
  estimated relative force accuracy = 7.807977e-05
  using double precision FFTW3
  3d grid and FFT values/proc = 2197 512
Generated 45 of 45 mixed pair_coeff terms from arithmetic mixing rule
Neighbor list info ...
  update: every = 1 steps, delay = 0 steps, check = yes
  max neighbors/atom: 2000, page size: 100000
  master list distance cutoff = 14
  ghost atom cutoff = 14
  binsize = 7, bins = 4 4 4
  1 neighbor lists, perpetual/occasional/extra = 1 0 0
  (1) pair lj/cut/coul/long, perpetual
      attributes: half, newton on
      pair build: half/bin/newton
      stencil: half/bin/3d
      bin: standard
Per MPI rank memory allocation (min/avg/max) = 24.85 | 24.85 | 24.85 Mbytes
   Step          Time           Temp          Press          Volume        Density         PotEng         KinEng         TotEng    
      6146   6146           294.92727     -549.45399      13446.852      1.106222       2076.812       930.11127      3006.9233    
      6200   6200           300.7217      -248.31848      13447.498      1.1061688      2059.5334      948.38512      3007.9185    
      6300   6300           301.59249      926.5395       13428.111      1.1077659      2040.3616      951.13135      2991.4929    
      6400   6400           293.0905      -413.41193      13441.73       1.1066435      2036.4193      924.31864      2960.738     
      6500   6500           288.1801      -653.27402      13443.891      1.1064656      2040.4942      908.83271      2949.3269    
      6600   6600           303.13346      945.76064      13413.095      1.109006       2041.2041      955.99109      2997.1952    
      6700   6700           309.16463      1653.5759      13403.008      1.1098407      2052.7763      975.01158      3027.7879    
      6800   6800           292.37388     -551.65908      13367.27       1.1128079      2093.724       922.05864      3015.7826    
      6900   6900           294.7687      -2934.9867      13281.472      1.1199965      2070.3234      929.61118      2999.9346    
      7000   7000           294.99667     -384.8445       13171.521      1.1293459      2051.0716      930.33012      2981.4017    
      7100   7100           294.093        1204.2595      13078.437      1.1373839      1984.3387      927.48022      2911.8189    
      7200   7200           292.79881      1736.4231      13015.047      1.1429235      1974.2157      923.39873      2897.6144    
      7300   7300           292.65263      1779.6586      13005.635      1.1437506      2011.259       922.93772      2934.1967    
      7400   7400           305.79539      109.17381      13006.362      1.1436867      2008.7309      964.38602      2973.1169    
      7500   7500           305.85525     -509.065        13029.384      1.1416659      2012.5743      964.57478      2977.1491    
      7600   7600           289.22099      940.50423      13053.502      1.1395565      2041.6001      912.11538      2953.7155    
      7700   7700           291.93402      1213.9073      13107.973      1.134821       1994.0698      920.67146      2914.7413    
      7800   7800           287.3847      -3462.3885      13184.272      1.1282537      1981.2216      906.32429      2887.5459    
      7900   7900           284.69998      1120.8997      13181.843      1.1284616      2032.504       897.85747      2930.3614    
      8000   8000           305.30256      2049.1253      13095.278      1.1359211      2021.3889      962.83178      2984.2207    
      8100   8100           295.0492       233.43437      12926.466      1.1507556      2071.5073      930.49579      3002.0031    
      8200   8200           298.33149     -2097.3235      12770.147      1.164842       2059.3977      940.84713      3000.2448    
      8300   8300           302.30534      1667.5894      12691.137      1.1720938      1991.0357      953.37944      2944.4152    
      8400   8400           288.04982      645.00694      12802.136      1.1619313      2004.9172      908.42187      2913.3391    
      8500   8500           292.55072     -782.02652      12976.969      1.1462772      2007.1582      922.61634      2929.7745    
      8600   8600           301.38626      848.2112       13121.671      1.1336364      2018.9501      950.48096      2969.4311    
      8700   8700           295.92935      435.93584      13227.33       1.124581       2054.4448      933.27151      2987.7163    
      8800   8800           303.77411      1447.3736      13261.178      1.1217105      2021.0641      958.01151      2979.0756    
      8900   8900           307.0749      -571.47635      13196.919      1.1271724      2007.0321      968.4212       2975.4533    
      9000   9000           296.21573     -1192.8644      13055.716      1.1393633      2021.7844      934.17467      2955.959     
      9100   9100           295.66338     -2294.8126      12923.973      1.1509776      1996.3324      932.43273      2928.7652    
      9200   9200           297.88178      2399.3594      12865.25       1.1562312      1944.372       939.42889      2883.8009    
      9300   9300           286.70971      388.57476      12855.072      1.1571466      1946.0542      904.19557      2850.2497    
      9400   9400           289.77859     -1331.1885      12884.834      1.1544738      1925.776       913.87387      2839.6499    
      9500   9500           294.57066     -1664.8077      12921.083      1.151235       1973.1783      928.9866       2902.1649    
      9600   9600           307.03895      876.95351      12983.417      1.1457078      1972.8757      968.30783      2941.1835    
      9700   9700           293.45583      649.79959      13037.632      1.1409437      2036.7326      925.47077      2962.2034    
      9800   9800           306.0458       240.64627      13116.989      1.134041       2015.2042      965.17572      2980.3799    
      9900   9900           298.71371      51.050128      13166.649      1.1297638      2049.8341      942.05254      2991.8866    
     10000   10000          297.52521     -1214.9252      13206.47       1.1263573      2049.587       938.30437      2987.8913    
     10100   10100          293.81328     -136.2718       13144.465      1.1316705      2020.85        926.59808      2947.4481    
     10200   10200          285.31503      1990.647       13048.029      1.1400345      2020.7455      899.79717      2920.5427    
     10300   10300          301.38959      29.00639       13001.175      1.144143       1997.7929      950.49145      2948.2844    
     10400   10400          307.08847     -1902.3563      12988.21       1.1452851      2022.7016      968.46398      2991.1656    
     10500   10500          304.93771      273.16888      13015.274      1.1429036      2014.7907      961.68114      2976.4718    
     10600   10600          285.65267      1130.6104      13015.187      1.1429112      2001.3649      900.86198      2902.2269    
     10700   10700          292.4161      -1548.4337      12999.919      1.1442535      1988.8684      922.19178      2911.0602    
     10800   10800          295.17348     -1127.5986      12971.682      1.1467443      2009.9136      930.88773      2940.8013    
     10900   10900          302.88225      2064.1306      12939.902      1.1495607      2020.3365      955.19887      2975.5353    
     11000   11000          299.08216      3415.1736      12983.561      1.1456952      2040.2321      943.21453      2983.4466    
     11100   11100          303.00919     -2041.1841      13112.707      1.1344113      1999.4481      955.59918      2955.0473    
     11146   11146          293.4065       16.623673      13137.734      1.1322503      1996.2836      925.31521      2921.5989    
Loop time of 61.1894 on 1 procs for 5000 steps with 1059 atoms

Performance: 7.060 ns/day, 3.399 hours/ns, 81.713 timesteps/s, 86.535 katom-step/s
94.8% CPU use with 1 MPI tasks x no OpenMP threads

MPI task timing breakdown:
Section |  min time  |  avg time  |  max time  |%varavg| %total
---------------------------------------------------------------
Pair    | 52.893     | 52.893     | 52.893     |   0.0 | 86.44
Bond    | 2.5003     | 2.5003     | 2.5003     |   0.0 |  4.09
Kspace  | 2.3858     | 2.3858     | 2.3858     |   0.0 |  3.90
Neigh   | 2.3636     | 2.3636     | 2.3636     |   0.0 |  3.86
Comm    | 0.28568    | 0.28568    | 0.28568    |   0.0 |  0.47
Output  | 0.0035293  | 0.0035293  | 0.0035293  |   0.0 |  0.01
Modify  | 0.67144    | 0.67144    | 0.67144    |   0.0 |  1.10
Other   |            | 0.08572    |            |       |  0.14

Nlocal:           1059 ave        1059 max        1059 min
Histogram: 1 0 0 0 0 0 0 0 0 0
Nghost:          10031 ave       10031 max       10031 min
Histogram: 1 0 0 0 0 0 0 0 0 0
Neighs:         490687 ave      490687 max      490687 min
Histogram: 1 0 0 0 0 0 0 0 0 0

Total # of neighbors = 490687
Ave neighs/atom = 463.34939
Ave special neighs/atom = 6.9556185
Neighbor list builds = 108
Dangerous builds = 0
unfix           NPT_TRACE
unfix           NPT_EQ
write_restart   ${output_restart}
write_restart   ec_dmc_3_7_lipf6_1m_tmspi_1wt_298K.npt.2.restart
System init for write_restart ...
PPPM initialization ...
  using 12-bit tables for long-range coulomb
  G vector (1/distance) = 0.20233008
  grid = 8 8 8
  stencil order = 5
  estimated absolute RMS force accuracy = 0.025355799
  estimated relative force accuracy = 7.6358236e-05
  using double precision FFTW3
  3d grid and FFT values/proc = 2197 512
Generated 45 of 45 mixed pair_coeff terms from arithmetic mixing rule
Total wall time: 0:01:01
