LAMMPS (22 Jul 2025 - Update 4)
# Restart continuation NPT chunk for composition tag=ec_dmc_3_7_lipf6_1m_tmspi_1wt_298K
# Generated by scripts/curate_ff_md_data.py

read_restart    ${input_restart}
read_restart    ec_dmc_3_7_lipf6_1m_tmspi_1wt_298K.npt.2.restart
Reading restart file ...
  restart file = 22 Jul 2025, LAMMPS = 22 Jul 2025
  restoring atom style full from restart
  orthogonal box = (-0.17327401 -0.18327401 -0.15527401) to (23.422822 23.412822 23.440822)
  1 by 1 by 1 MPI processor grid
  restoring pair style lj/cut/coul/long from restart
  restoring bond style harmonic from restart
  restoring angle style harmonic from restart
  restoring dihedral style opls from restart
  restoring improper style cvff from restart
  1059 atoms
  989 bonds
  1628 angles
  1557 dihedrals
  255 impropers
Finding 1-2 1-3 1-4 neighbors ...
  special bond factors lj:    0        0        0.5     
  special bond factors coul:  0        0        0.5     
     6 = max # of 1-2 neighbors
    10 = max # of 1-3 neighbors
    16 = max # of 1-4 neighbors
    18 = max # of special neighbors
  special bonds CPU = 0.001 seconds
  read_restart CPU = 0.005 seconds
kspace_style    pppm 1.0e-4
neighbor        2.0 bin
neigh_modify    every 1 delay 0 check yes
timestep        1.0

thermo_style    custom step time temp press vol density pe ke etotal
thermo          100
variable        tracked_temperature_K equal temp
variable        tracked_density_g_cm3 equal density
variable        tracked_volume_A3 equal vol
variable        tracked_pressure_atm equal press
fix             NPT_EQ all npt temp 298.15 298.15 100.0 iso 1.0 1.0 1000.0
fix             NPT_TRACE all ave/time 100 1 100 v_tracked_temperature_K v_tracked_density_g_cm3 v_tracked_volume_A3 v_tracked_pressure_atm file ${thermo_trace}
fix             NPT_TRACE all ave/time 100 1 100 v_tracked_temperature_K v_tracked_density_g_cm3 v_tracked_volume_A3 v_tracked_pressure_atm file npt_thermo.3.dat
run             5000
PPPM initialization ...
  using 12-bit tables for long-range coulomb
  G vector (1/distance) = 0.20233008
  grid = 8 8 8
  stencil order = 5
  estimated absolute RMS force accuracy = 0.025355799
  estimated relative force accuracy = 7.6358236e-05
  using double precision FFTW3
  3d grid and FFT values/proc = 2197 512
Generated 45 of 45 mixed pair_coeff terms from arithmetic mixing rule
Neighbor list info ...
  update: every = 1 steps, delay = 0 steps, check = yes
  max neighbors/atom: 2000, page size: 100000
  master list distance cutoff = 14
  ghost atom cutoff = 14
  binsize = 7, bins = 4 4 4
  1 neighbor lists, perpetual/occasional/extra = 1 0 0
  (1) pair lj/cut/coul/long, perpetual
      attributes: half, newton on
      pair build: half/bin/newton
      stencil: half/bin/3d
      bin: standard
Per MPI rank memory allocation (min/avg/max) = 24.86 | 24.86 | 24.86 Mbytes
   Step          Time           Temp          Press          Volume        Density         PotEng         KinEng         TotEng    
     11146   11146          293.4065       16.788103      13137.734      1.1322503      1996.2851      925.31521      2921.6003    
     11200   11200          288.02907     -944.31372      13130.844      1.1328444      2021.8822      908.35643      2930.2386    
     11300   11300          313.06266      4.0316978      13113.318      1.1343584      1986.4327      987.30478      2973.7375    
     11400   11400          304.75391      888.31125      13124.507      1.1333914      2025.7376      961.10151      2986.8391    
     11500   11500          299.82945     -189.42174      13127.808      1.1331064      2028.431       945.57124      2974.0022    
     11600   11600          305.98385      1002.0174      13165.387      1.1298721      2003.458       964.98037      2968.4384    
     11700   11700          289.04149     -913.44635      13233.313      1.1240725      2050.4332      911.54928      2961.9824    
     11800   11800          302.38044     -88.73018       13265.045      1.1213836      1998.0182      953.61629      2951.6345    
     11900   11900          292.11504     -1108.0573      13183.022      1.1283607      1999.8734      921.24234      2921.1157    
     12000   12000          296.50868     -238.75718      13035.064      1.1411684      1973.5348      935.09855      2908.6334    
     12100   12100          291.26106     -1182.0365      12981.934      1.1458387      2031.7497      918.54916      2950.2989    
     12200   12200          301.56901      2413.7032      12905.463      1.1526284      2030.7376      951.05729      2981.7949    
     12300   12300          308.95861      1294.3239      12903.621      1.1527929      1983.118       974.36186      2957.4799    
     12400   12400          294.5639      -2964.7312      12960.594      1.1477255      1974.4937      928.96529      2903.459     
     12500   12500          284.67907     -3723.1565      13021.561      1.1423518      1993.1792      897.79153      2890.9707    
     12600   12600          296.04447     -616.12007      13033.1        1.1413403      1984.8776      933.63456      2918.5122    
     12700   12700          298.50529      2352.5331      12995.47       1.1446453      2012.028       941.39525      2953.4232    
     12800   12800          305.44314     -1614.7123      12919.659      1.1513619      1983.7958      963.27513      2947.0709    
     12900   12900          291.30076      1049.6022      12825.274      1.1598351      1975.3468      918.67435      2894.0212    
     13000   13000          296.24163     -1525.9628      12802.208      1.1619248      1940.0745      934.25635      2874.3309    
     13100   13100          294.28281      1737.9678      12786.751      1.1633294      1956.646       928.07882      2884.7249    
     13200   13200          297.99981     -2253.9512      12810.376      1.1611839      1962.8378      939.80111      2902.6389    
     13300   13300          296.338       -1902.2514      12890.046      1.154007       1997.063       934.56026      2931.6232    
     13400   13400          299.63619      1002.6827      12886.473      1.154327       1995.6516      944.96176      2940.6134    
     13500   13500          276.62275      2715.9455      12933.694      1.1501125      2008.804       872.38436      2881.1884    
     13600   13600          288.5134      -2786.8877      13004.899      1.1438154      1934.9595      909.88385      2844.8433    
     13700   13700          301.24704      596.69013      12963.528      1.1474657      1940.0378      950.04191      2890.0797    
     13800   13800          299.913       -756.18619      12911.002      1.1521339      1977.434       945.83472      2923.2687    
     13900   13900          303.41835      1512.0104      12832.134      1.1592151      1969.6203      956.88955      2926.5099    
     14000   14000          301.28495     -2221.5246      12813.742      1.160879       1946.867       950.16145      2897.0285    
     14100   14100          291.10068      190.22435      12805.297      1.1616445      1929.4833      918.04335      2847.5266    
     14200   14200          303.0996       892.18516      12783.966      1.1635828      1902.6443      955.88431      2858.5286    
     14300   14300          298.67052      4453.0077      12730.849      1.1684376      1944.085       941.91632      2886.0013    
     14400   14400          312.62893      2324.6407      12705.286      1.1707885      1912.2622      985.93693      2898.1991    
     14500   14500          296.88111     -1193.6272      12664.124      1.1745939      1959.3331      936.27308      2895.6062    
     14600   14600          299.54807      1484.9879      12625.578      1.17818        1951.9666      944.68385      2896.6505    
     14700   14700          304.24954     -174.50378      12646.562      1.1762251      1967.4191      959.51087      2926.9299    
     14800   14800          310.94671      1480.6109      12718.677      1.1695558      1994.9416      980.63173      2975.5733    
     14900   14900          303.66541     -3340.2113      12884.944      1.1544639      2011.0589      957.66871      2968.7276    
     15000   15000          300.91166      1078.4669      13008.577      1.143492       1952.5364      948.98421      2901.5206    
     15100   15100          293.73455     -3445.4672      13086.184      1.1367106      1971.839       926.34979      2898.1888    
     15200   15200          292.51841     -2803.1187      13009.17       1.1434399      2013.5691      922.51445      2936.0836    
     15300   15300          292.70828     -3147.7576      12845.263      1.1580303      2025.7366      923.11323      2948.8498    
     15400   15400          299.22184      946.22404      12633.206      1.1774686      1975.8429      943.65502      2919.4979    
     15500   15500          295.01628      598.28185      12513.489      1.1887335      1946.3203      930.39197      2876.7123    
     15600   15600          302.41529     -51.302931      12537.026      1.1865018      1912.4371      953.72621      2866.1633    
     15700   15700          291.86275     -535.82603      12612.662      1.1793865      1931.9638      920.44668      2852.4105    
     15800   15800          293.72848     -1079.4357      12685.52       1.1726128      1949.2435      926.33064      2875.5742    
     15900   15900          299.03748     -2042.516       12728.627      1.1686416      1975.4162      943.0736       2918.4898    
     16000   16000          302.45831     -1137.5431      12697.928      1.171467       1970.0388      953.86188      2923.9007    
     16100   16100          295.87663      1830.2927      12601.818      1.1804014      1944.3646      933.10526      2877.4699    
     16146   16146          292.68596     -150.00884      12571.71       1.1832283      1915.3957      923.04284      2838.4386    
Loop time of 61.8193 on 1 procs for 5000 steps with 1059 atoms

Performance: 6.988 ns/day, 3.434 hours/ns, 80.881 timesteps/s, 85.653 katom-step/s
94.2% CPU use with 1 MPI tasks x no OpenMP threads

MPI task timing breakdown:
Section |  min time  |  avg time  |  max time  |%varavg| %total
---------------------------------------------------------------
Pair    | 53.628     | 53.628     | 53.628     |   0.0 | 86.75
Bond    | 2.4359     | 2.4359     | 2.4359     |   0.0 |  3.94
Kspace  | 2.322      | 2.322      | 2.322      |   0.0 |  3.76
Neigh   | 2.3855     | 2.3855     | 2.3855     |   0.0 |  3.86
Comm    | 0.2845     | 0.2845     | 0.2845     |   0.0 |  0.46
Output  | 0.0029602  | 0.0029602  | 0.0029602  |   0.0 |  0.00
Modify  | 0.66795    | 0.66795    | 0.66795    |   0.0 |  1.08
Other   |            | 0.09195    |            |       |  0.15

Nlocal:           1059 ave        1059 max        1059 min
Histogram: 1 0 0 0 0 0 0 0 0 0
Nghost:          10342 ave       10342 max       10342 min
Histogram: 1 0 0 0 0 0 0 0 0 0
Neighs:         511981 ave      511981 max      511981 min
Histogram: 1 0 0 0 0 0 0 0 0 0

Total # of neighbors = 511981
Ave neighs/atom = 483.45703
Ave special neighs/atom = 6.9556185
Neighbor list builds = 109
Dangerous builds = 0
unfix           NPT_TRACE
unfix           NPT_EQ
write_restart   ${output_restart}
write_restart   ec_dmc_3_7_lipf6_1m_tmspi_1wt_298K.npt.3.restart
System init for write_restart ...
PPPM initialization ...
  using 12-bit tables for long-range coulomb
  G vector (1/distance) = 0.2034314
  grid = 8 8 8
  stencil order = 5
  estimated absolute RMS force accuracy = 0.024304887
  estimated relative force accuracy = 7.3193446e-05
  using double precision FFTW3
  3d grid and FFT values/proc = 2197 512
Generated 45 of 45 mixed pair_coeff terms from arithmetic mixing rule
Total wall time: 0:01:01
