LAMMPS (22 Jul 2025 - Update 4)
# Initial NPT chunk for composition tag=ec_dmc_3_7_liclo4_1m_298K
# Generated by scripts/curate_ff_md_data.py

units           real
boundary        p p p
atom_style      full
bond_style      harmonic
angle_style     harmonic
dihedral_style  opls
improper_style  cvff

pair_style      lj/cut/coul/long 12.0 12.0
pair_modify     mix arithmetic
special_bonds   lj/coul 0.0 0.0 0.5

read_data       ec_dmc_3_7_liclo4_1m_298K.lmp
Reading data file ...
  triclinic box = (-0.075000003 -0.044 -0.064000003) to (22.601092 22.632092 22.612092) with tilt (0 0 0)
  1 by 1 by 1 MPI processor grid
  reading atoms ...
  1014 atoms
  scanning bonds ...
  4 = max bonds/atom
  scanning angles ...
  6 = max angles/atom
  scanning dihedrals ...
  10 = max dihedrals/atom
  scanning impropers ...
  1 = max impropers/atom
  triclinic box = (-0.075000003 -0.044 -0.064000003) to (22.601092 22.632092 22.612092) with tilt (0 0 0)
  1 by 1 by 1 MPI processor grid
  reading bonds ...
  944 bonds
  reading angles ...
  1504 angles
  reading dihedrals ...
  1452 dihedrals
  reading impropers ...
  258 impropers
Finding 1-2 1-3 1-4 neighbors ...
  special bond factors lj:    0        0        0.5     
  special bond factors coul:  0        0        0.5     
     4 = max # of 1-2 neighbors
     5 = max # of 1-3 neighbors
     9 = max # of 1-4 neighbors
    11 = max # of special neighbors
  special bonds CPU = 0.001 seconds
  read_data CPU = 0.019 seconds

# openff-interchange writes the box as triclinic with zero tilt; PPPM stalls
# indefinitely in triclinic mode on this brew LAMMPS build, but works fine
# after change_box all ortho converts the zero-tilt box to orthogonal.
change_box      all ortho
Changing box ...
  orthogonal box = (-0.075000003 -0.044 -0.064000003) to (22.601092 22.632092 22.612092)
kspace_style    pppm 1.0e-4

min_style       cg
minimize        1.0e-4 1.0e-6 10000 100000
PPPM initialization ...
  using 12-bit tables for long-range coulomb
  G vector (1/distance) = 0.2053055
  grid = 8 8 8
  stencil order = 5
  estimated absolute RMS force accuracy = 0.025704958
  estimated relative force accuracy = 7.7409719e-05
  using double precision FFTW3
  3d grid and FFT values/proc = 2197 512
Generated 28 of 28 mixed pair_coeff terms from arithmetic mixing rule
Neighbor list info ...
  update: every = 1 steps, delay = 0 steps, check = yes
  max neighbors/atom: 2000, page size: 100000
  master list distance cutoff = 14
  ghost atom cutoff = 14
  binsize = 7, bins = 4 4 4
  1 neighbor lists, perpetual/occasional/extra = 1 0 0
  (1) pair lj/cut/coul/long, perpetual
      attributes: half, newton on
      pair build: half/bin/newton
      stencil: half/bin/3d
      bin: standard
Per MPI rank memory allocation (min/avg/max) = 16.46 | 16.46 | 16.46 Mbytes
   Step          Temp          E_pair         E_mol          TotEng         Press     
         0   0              4080.6936      20393.221      24473.915      138637.76    
       431   0             -3635.2775      3137.664      -497.61349      5421.4471    
Loop time of 11.6093 on 1 procs for 431 steps with 1014 atoms

97.4% CPU use with 1 MPI tasks x no OpenMP threads

Minimization stats:
  Stopping criterion = energy tolerance
  Energy initial, next-to-last, final = 
      24473.9146539012  -497.577302939042  -497.613485263021
  Force two-norm initial, final = 7419.9526 130.17423
  Force max component initial, final = 1352.5546 90.105609
  Final line search alpha, max atom move = 0.0049674742 0.44759729
  Iterations, force evaluations = 431 875

MPI task timing breakdown:
Section |  min time  |  avg time  |  max time  |%varavg| %total
---------------------------------------------------------------
Pair    | 10.906     | 10.906     | 10.906     |   0.0 | 93.94
Bond    | 0.2686     | 0.2686     | 0.2686     |   0.0 |  2.31
Kspace  | 0.24347    | 0.24347    | 0.24347    |   0.0 |  2.10
Neigh   | 0.13634    | 0.13634    | 0.13634    |   0.0 |  1.17
Comm    | 0.03235    | 0.03235    | 0.03235    |   0.0 |  0.28
Output  | 0          | 0          | 0          |   0.0 |  0.00
Modify  | 0          | 0          | 0          |   0.0 |  0.00
Other   |            | 0.0226     |            |       |  0.19

Nlocal:           1014 ave        1014 max        1014 min
Histogram: 1 0 0 0 0 0 0 0 0 0
Nghost:          10339 ave       10339 max       10339 min
Histogram: 1 0 0 0 0 0 0 0 0 0
Neighs:         506029 ave      506029 max      506029 min
Histogram: 1 0 0 0 0 0 0 0 0 0

Total # of neighbors = 506029
Ave neighs/atom = 499.04241
Ave special neighs/atom = 6.7613412
Neighbor list builds = 10
Dangerous builds = 0
velocity        all create 298.15 130363 dist gaussian
neighbor        2.0 bin
neigh_modify    every 1 delay 0 check yes
timestep        1.0

thermo_style    custom step time temp press vol density pe ke etotal
thermo          100
variable        tracked_temperature_K equal temp
variable        tracked_density_g_cm3 equal density
variable        tracked_volume_A3 equal vol
variable        tracked_pressure_atm equal press
fix             NPT_EQ all npt temp 298.15 298.15 100.0 iso 1.0 1.0 1000.0
fix             NPT_TRACE all ave/time 100 1 100 v_tracked_temperature_K v_tracked_density_g_cm3 v_tracked_volume_A3 v_tracked_pressure_atm file ${thermo_trace}
fix             NPT_TRACE all ave/time 100 1 100 v_tracked_temperature_K v_tracked_density_g_cm3 v_tracked_volume_A3 v_tracked_pressure_atm file npt_thermo.1.dat
run             5000
PPPM initialization ...
  using 12-bit tables for long-range coulomb
  G vector (1/distance) = 0.2053055
  grid = 8 8 8
  stencil order = 5
  estimated absolute RMS force accuracy = 0.025704958
  estimated relative force accuracy = 7.7409719e-05
  using double precision FFTW3
  3d grid and FFT values/proc = 2197 512
Generated 28 of 28 mixed pair_coeff terms from arithmetic mixing rule
Per MPI rank memory allocation (min/avg/max) = 15.34 | 15.34 | 15.34 Mbytes
   Step          Time           Temp          Press          Volume        Density         PotEng         KinEng         TotEng    
       431   431            298.15         8950.8952      11660.163      1.2006701     -497.61349      900.28199      402.6685     
       500   500            167.22305      3115.2458      11811.424      1.1852938     -47.494766      504.94012      457.44535    
       600   600            199.57749     -3740.2598      12385.22       1.1303803     -36.824899      602.63633      565.81143    
       700   700            257.76863     -3893.4248      12817.64       1.0922454     -57.994154      778.34799      720.35384    
       800   800            291.87663     -2731.474       13126.904      1.0665126     -18.718712      881.33918      862.62047    
       900   900            295.8158       891.64314      13403.149      1.0445313      70.593712      893.23372      963.82744    
      1000   1000           314.37047      391.08933      13710.169      1.0211404      61.889682      949.26068      1011.1504    
      1100   1100           298.64125      823.31468      13968.75       1.0022378      79.606675      901.76535      981.37203    
      1200   1200           292.13416     -1781.3098      14162.857      0.98850172     57.914874      882.11679      940.03167    
      1300   1300           280.56894     -994.78847      14279.763      0.980409       91.01163       847.19492      938.20655    
      1400   1400           300.86813     -995.67604      14357.496      0.97510101     84.617657      908.48953      993.10719    
      1500   1500           312.68056      294.36189      14375.641      0.97387019     90.516535      944.15791      1034.6744    
      1600   1600           306.09653     -2505.8246      14407.882      0.97169097     107.64682      924.27702      1031.9238    
      1700   1700           296.93653      288.0725       14419.135      0.97093263     94.40564       896.61784      991.02348    
      1800   1800           291.2394      -1425.4096      14444.367      0.96923653     63.619941      879.415        943.03494    
      1900   1900           295.86978     -553.59471      14411.559      0.97144299     41.276985      893.39672      934.6737     
      2000   2000           290.16329      162.01308      14364.159      0.97464865     92.252771      876.16563      968.4184     
      2100   2100           308.90187      745.19066      14417.084      0.97107071     81.860076      932.74792      1014.608     
      2200   2200           296.58303      299.31515      14536.428      0.96309825     119.6459       895.55042      1015.1963    
      2300   2300           289.75795     -649.87634      14720.418      0.95106052     130.88192      874.94169      1005.8236    
      2400   2400           293.40086     -9.3061223      14754.947      0.94883485     130.76723      885.94166      1016.7089    
      2500   2500           305.00944     -1021.4743      14684.731      0.9533718      124.72572      920.99449      1045.7202    
      2600   2600           309.14499     -520.66681      14538.007      0.96299366     115.501        933.48202      1048.983     
      2700   2700           299.44792     -81.319597      14421.48       0.97077473     102.84109      904.20114      1007.0422    
      2800   2800           299.68687     -904.96251      14381.221      0.9734923      79.709675      904.92267      984.63234    
      2900   2900           298.00839      1452.313       14339.71       0.9763104      90.855228      899.85438      990.70961    
      3000   3000           298.17409      2160.3787      14286.607      0.97993936     100.24503      900.35473      1000.5998    
      3100   3100           296.28718      935.0834       14188.913      0.98668649     108.12603      894.65709      1002.7831    
      3200   3200           290.40941     -1220.0114      14082.264      0.99415895     88.314722      876.90881      965.22353    
      3300   3300           291.64597     -2249.8444      14001.009      0.99992854     56.782614      880.64266      937.42528    
      3400   3400           294.18847     -1330.5263      13956.911      1.0030879      71.863698      888.31992      960.18362    
      3500   3500           312.03743     -476.13985      14010.742      0.99923387     67.75706       942.21591      1009.973     
      3600   3600           309.11188     -1011.6222      14095.476      0.99322705     86.261956      933.38206      1019.644     
      3700   3700           301.98775      261.61251      14110.657      0.99215851     74.637724      911.8703       986.50802    
      3800   3800           292.08391     -364.97677      14079.692      0.99434053     80.304485      881.96505      962.26954    
      3900   3900           300.61426     -1443.0002      13981.276      1.0013398      66.570399      907.72298      974.29338    
      4000   4000           287.49872     -1327.8294      13835.626      1.0118811      105.78634      868.11981      973.90615    
      4100   4100           305.58609     -348.31854      13736.177      1.019207       50.810379      922.73571      973.54609    
      4200   4200           301.95619      474.89919      13659.003      1.0249656      9.8769501      911.775        921.65195    
      4300   4300           299.42083      1971.5039      13596.457      1.0296806     -9.2499312      904.11934      894.8694     
      4400   4400           300.59868      798.88986      13599.291      1.0294661     -2.1937584      907.67592      905.48217    
      4500   4500           305.55775      238.7745       13655.899      1.0251986      15.997711      922.65014      938.64785    
      4600   4600           301.47439     -1730.8088      13762.756      1.0172387      71.305775      910.32019      981.62597    
      4700   4700           312.86508     -725.98182      13884.354      1.0083298      95.519371      944.71507      1040.2344    
      4800   4800           312.81376      133.91872      13973.924      1.0018666      60.176461      944.5601       1004.7366    
      4900   4900           307.29769     -2006.8368      14018.941      0.99864947     46.74209       927.904        974.64609    
      5000   5000           291.08691     -230.28349      13922.948      1.0055348      62.989417      878.95456      941.94397    
      5100   5100           297.57831      1481.1613      13763.67       1.0171712      33.307003      898.55573      931.86274    
      5200   5200           298.93831     -804.19286      13627.154      1.0273611      62.067061      902.66233      964.72939    
      5300   5300           307.15924     -922.71776      13503.586      1.0367623      64.194299      927.48595      991.68024    
      5400   5400           297.12414      2191.7959      13467.484      1.0395415      25.184169      897.18434      922.36851    
      5431   5431           297.01968     -1826.5426      13478.468      1.0386944      12.355674      896.86892      909.2246     
Loop time of 43.8067 on 1 procs for 5000 steps with 1014 atoms

Performance: 9.862 ns/day, 2.434 hours/ns, 114.138 timesteps/s, 115.736 katom-step/s
95.7% CPU use with 1 MPI tasks x no OpenMP threads

MPI task timing breakdown:
Section |  min time  |  avg time  |  max time  |%varavg| %total
---------------------------------------------------------------
Pair    | 37.417     | 37.417     | 37.417     |   0.0 | 85.41
Bond    | 1.8234     | 1.8234     | 1.8234     |   0.0 |  4.16
Kspace  | 1.8308     | 1.8308     | 1.8308     |   0.0 |  4.18
Neigh   | 1.9001     | 1.9001     | 1.9001     |   0.0 |  4.34
Comm    | 0.22465    | 0.22465    | 0.22465    |   0.0 |  0.51
Output  | 0.0040398  | 0.0040398  | 0.0040398  |   0.0 |  0.01
Modify  | 0.53614    | 0.53614    | 0.53614    |   0.0 |  1.22
Other   |            | 0.07046    |            |       |  0.16

Nlocal:           1014 ave        1014 max        1014 min
Histogram: 1 0 0 0 0 0 0 0 0 0
Nghost:           9599 ave        9599 max        9599 min
Histogram: 1 0 0 0 0 0 0 0 0 0
Neighs:         437950 ave      437950 max      437950 min
Histogram: 1 0 0 0 0 0 0 0 0 0

Total # of neighbors = 437950
Ave neighs/atom = 431.90335
Ave special neighs/atom = 6.7613412
Neighbor list builds = 119
Dangerous builds = 0
unfix           NPT_TRACE
unfix           NPT_EQ
write_restart   ${output_restart}
write_restart   ec_dmc_3_7_liclo4_1m_298K.npt.1.restart
System init for write_restart ...
PPPM initialization ...
  using 12-bit tables for long-range coulomb
  G vector (1/distance) = 0.21043849
  grid = 9 9 9
  stencil order = 5
  estimated absolute RMS force accuracy = 0.017582389
  estimated relative force accuracy = 5.2948842e-05
  using double precision FFTW3
  3d grid and FFT values/proc = 2744 729
Generated 28 of 28 mixed pair_coeff terms from arithmetic mixing rule
Total wall time: 0:00:55
