LAMMPS (22 Jul 2025 - Update 4)
# Restart continuation NPT chunk for composition tag=ec_dmc_3_7_liclo4_1m_298K
# Generated by scripts/curate_ff_md_data.py

read_restart    ${input_restart}
read_restart    ec_dmc_3_7_liclo4_1m_298K.npt.3.restart
Reading restart file ...
  restart file = 22 Jul 2025, LAMMPS = 22 Jul 2025
  restoring atom style full from restart
  orthogonal box = (-0.3813661 -0.3503661 -0.3703661) to (22.907458 22.938458 22.918458)
  1 by 2 by 2 MPI processor grid
  restoring pair style lj/cut/coul/long from restart
  restoring bond style harmonic from restart
  restoring angle style harmonic from restart
  restoring dihedral style opls from restart
  restoring improper style cvff from restart
  1014 atoms
  944 bonds
  1504 angles
  1452 dihedrals
  258 impropers
Finding 1-2 1-3 1-4 neighbors ...
  special bond factors lj:    0        0        0.5     
  special bond factors coul:  0        0        0.5     
     4 = max # of 1-2 neighbors
     5 = max # of 1-3 neighbors
     9 = max # of 1-4 neighbors
    11 = max # of special neighbors
  special bonds CPU = 0.002 seconds
  read_restart CPU = 0.008 seconds
kspace_style    pppm 1.0e-4
neighbor        2.0 bin
neigh_modify    every 1 delay 0 check yes
timestep        1.0

thermo_style    custom step time temp press vol density pe ke etotal
thermo          100
variable        tracked_temperature_K equal temp
variable        tracked_density_g_cm3 equal density
variable        tracked_volume_A3 equal vol
variable        tracked_pressure_atm equal press
fix             NPT_EQ all npt temp 298.15 298.15 100.0 iso 1.0 1.0 1000.0
fix             NPT_TRACE all ave/time 100 1 100 v_tracked_temperature_K v_tracked_density_g_cm3 v_tracked_volume_A3 v_tracked_pressure_atm file ${thermo_trace}
fix             NPT_TRACE all ave/time 100 1 100 v_tracked_temperature_K v_tracked_density_g_cm3 v_tracked_volume_A3 v_tracked_pressure_atm file npt_thermo.4.dat
run             5000
PPPM initialization ...
  using 12-bit tables for long-range coulomb
  G vector (1/distance) = 0.21201977
  grid = 9 9 9
  stencil order = 5
  estimated absolute RMS force accuracy = 0.016496326
  estimated relative force accuracy = 4.9678195e-05
  using double precision FFTW3
  3d grid and FFT values/proc = 1400 225
Generated 28 of 28 mixed pair_coeff terms from arithmetic mixing rule
Neighbor list info ...
  update: every = 1 steps, delay = 0 steps, check = yes
  max neighbors/atom: 2000, page size: 100000
  master list distance cutoff = 14
  ghost atom cutoff = 14
  binsize = 7, bins = 4 4 4
  1 neighbor lists, perpetual/occasional/extra = 1 0 0
  (1) pair lj/cut/coul/long, perpetual
      attributes: half, newton on
      pair build: half/bin/newton
      stencil: half/bin/3d
      bin: standard
Per MPI rank memory allocation (min/avg/max) = 13.36 | 13.37 | 13.37 Mbytes
   Step          Time           Temp          Press          Volume        Density         PotEng         KinEng         TotEng    
     15396   15396          298.42265      740.62687      12631.144      1.1083722     -46.728686      901.10528      854.37659    
     15400   15400          306.21678     -15.234848      12631.2        1.1083672     -70.172499      924.64012      854.46762    
     15500   15500          289.17324      756.73385      12574.141      1.1133968     -58.453249      873.17612      814.72287    
     15600   15600          288.40313     -1660.3109      12467.76       1.1228969     -92.217415      870.85074      778.63332    
     15700   15700          291.49779     -978.09653      12372.134      1.1315759     -105.6707       880.19525      774.52455    
     15800   15800          294.18592     -572.38082      12281.55       1.139922      -101.27567      888.31222      787.03655    
     15900   15900          312.20621      1822.4355      12234.514      1.1443044     -131.08816      942.72555      811.63739    
     16000   16000          305.15304      496.94699      12304.236      1.1378202     -99.928239      921.42809      821.49986    
     16100   16100          296.44646     -1574.6375      12503.955      1.1196464     -118.16364      895.13804      776.9744     
     16200   16200          289.4503      -2292.2169      12593.195      1.1117122     -119.61985      874.01272      754.39287    
     16300   16300          297.2318       1805.814       12531.63       1.1171738     -120.29571      897.50943      777.21372    
     16400   16400          308.76178      884.24632      12436.417      1.1257269     -103.51097      932.32491      828.81394    
     16500   16500          301.86832      3254.9149      12356.914      1.1329696     -81.674665      911.50967      829.835      
     16600   16600          301.55084      399.49643      12344.24       1.1341329     -106.88789      910.55102      803.66314    
     16700   16700          295.59811      1446.7985      12321.597      1.136217      -114.10634      892.57641      778.47007    
     16800   16800          294.28656     -1234.832       12318.747      1.1364799     -133.49562      888.6161       755.12048    
     16900   16900          298.40124      915.22284      12299.922      1.1382193     -130.6986       901.04063      770.34203    
     17000   17000          309.34631      1647.0965      12299.063      1.1382988     -106.84898      934.08992      827.24094    
     17100   17100          309.94294      629.04389      12331.736      1.1352829     -105.32766      935.89149      830.56383    
     17200   17200          292.24107      1621.2674      12332.398      1.1352219     -92.687404      882.43962      789.75222    
     17300   17300          301.83139      1760.4051      12361.164      1.1325801     -140.62269      911.39818      770.77549    
     17400   17400          293.3802      -562.11684      12393.33       1.1296405     -113.50088      885.87929      772.37841    
     17500   17500          287.34873     -877.19443      12403.727      1.1286937     -68.263745      867.66688      799.40314    
     17600   17600          299.81759      3031.1442      12372.699      1.1315242     -73.536529      905.31738      831.78085    
     17700   17700          307.23719      2115.2989      12344.131      1.1341429     -85.623605      927.7213       842.09769    
     17800   17800          291.8785       1696.4911      12313.155      1.136996      -118.00931      881.34482      763.33551    
     17900   17900          294.11665     -3975.7303      12330.932      1.1353568     -130.4746       888.10305      757.62845    
     18000   18000          290.19407      1479.6841      12312.382      1.1370674     -98.974525      876.25857      777.28404    
     18100   18100          305.51353      1370.643       12289.479      1.1391865     -104.31304      922.51661      818.20357    
     18200   18200          303.57242      1679.148       12312.82       1.137027      -84.715545      916.65532      831.93977    
     18300   18300          312.63296      797.81023      12288.178      1.1393071     -168.51676      944.01417      775.49741    
     18400   18400          300.55438      1175.4518      12225.105      1.1451851     -165.65892      907.54216      741.88324    
     18500   18500          294.38988     -2116.4238      12172.129      1.1501693     -136.84918      888.92809      752.07891    
     18600   18600          301.31559      935.95268      12134.407      1.1537447     -142.22868      909.84069      767.61201    
     18700   18700          296.1713       1854.9444      12179.523      1.149471      -116.28702      894.30719      778.02017    
     18800   18800          293.54348      556.74637      12306.944      1.1375698     -90.660498      886.37232      795.71183    
     18900   18900          306.53005     -293.68735      12420.255      1.1271917     -116.36353      925.58605      809.22252    
     19000   19000          299.60457     -740.32279      12437.594      1.1256203     -115.34334      904.67416      789.33081    
     19100   19100          290.25636      645.04967      12376.619      1.1311659     -117.0826       876.44667      759.36406    
     19200   19200          296.34881     -2641.516       12294.784      1.138695      -139.2486       894.84318      755.59458    
     19300   19300          294.29608      1540.6483      12153.919      1.1518925     -106.39275      888.64483      782.25208    
     19400   19400          299.92393      1461.211       12106.025      1.1564497     -79.06991       905.63848      826.56857    
     19500   19500          305.16932      1757.2646      12167.309      1.1506249     -96.55034       921.47726      824.92692    
     19600   19600          293.30138     -774.34976      12294.005      1.1387671     -122.11359      885.64129      763.5277     
     19700   19700          289.43491      349.90874      12398.925      1.1291308     -111.45582      873.96624      762.51041    
     19800   19800          297.86188     -1480.9963      12478.369      1.1219421     -116.4565       899.41199      782.95549    
     19900   19900          305.91622     -1478.423       12526.5        1.1176313     -108.41996      923.73256      815.3126     
     20000   20000          303.80348      1275.3968      12495.361      1.1204165     -86.925765      917.35302      830.42725    
     20100   20100          305.86887      712.43688      12448.237      1.1246579     -82.617503      923.58959      840.97209    
     20200   20200          300.8998       1604.8189      12391.023      1.1298509     -108.91711      908.58516      799.66805    
     20300   20300          292.37903      1418.7855      12329.554      1.1354837     -123.82175      882.8562       759.03445    
     20396   20396          298.59127     -836.65807      12267.727      1.1412064     -143.35055      901.61444      758.26389    
Loop time of 16.0556 on 4 procs for 5000 steps with 1014 atoms

Performance: 26.906 ns/day, 0.892 hours/ns, 311.417 timesteps/s, 315.777 katom-step/s
96.6% CPU use with 4 MPI tasks x no OpenMP threads

MPI task timing breakdown:
Section |  min time  |  avg time  |  max time  |%varavg| %total
---------------------------------------------------------------
Pair    | 9.1625     | 10.393     | 11.092     |  22.7 | 64.73
Bond    | 0.42747    | 0.45287    | 0.46954    |   2.3 |  2.82
Kspace  | 2.9539     | 3.6381     | 4.8738     |  38.4 | 22.66
Neigh   | 0.52274    | 0.52284    | 0.52291    |   0.0 |  3.26
Comm    | 0.62042    | 0.63218    | 0.64562    |   1.3 |  3.94
Output  | 0.002536   | 0.0033734  | 0.0036623  |   0.8 |  0.02
Modify  | 0.25103    | 0.27985    | 0.31547    |   4.4 |  1.74
Other   |            | 0.1332     |            |       |  0.83

Nlocal:          253.5 ave         276 max         242 min
Histogram: 1 1 1 0 0 0 0 0 0 1
Nghost:         6344.5 ave        6369 max        6308 min
Histogram: 1 0 0 0 0 0 1 1 0 1
Neighs:         120230 ave      126860 max      105149 min
Histogram: 1 0 0 0 0 0 0 0 1 2

Total # of neighbors = 480919
Ave neighs/atom = 474.27909
Ave special neighs/atom = 6.7613412
Neighbor list builds = 116
Dangerous builds = 0
unfix           NPT_TRACE
unfix           NPT_EQ
write_restart   ${output_restart}
write_restart   ec_dmc_3_7_liclo4_1m_298K.npt.4.restart
System init for write_restart ...
PPPM initialization ...
  using 12-bit tables for long-range coulomb
  G vector (1/distance) = 0.2127279
  grid = 9 9 9
  stencil order = 5
  estimated absolute RMS force accuracy = 0.016029064
  estimated relative force accuracy = 4.827105e-05
  using double precision FFTW3
  3d grid and FFT values/proc = 1400 225
Generated 28 of 28 mixed pair_coeff terms from arithmetic mixing rule
Total wall time: 0:00:16
