LAMMPS (22 Jul 2025 - Update 4)
# Restart continuation NPT chunk for composition tag=ec_dmc_3_7_liclo4_1m_298K
# Generated by scripts/curate_ff_md_data.py

read_restart    ${input_restart}
read_restart    ec_dmc_3_7_liclo4_1m_298K.npt.5.restart
Reading restart file ...
  restart file = 22 Jul 2025, LAMMPS = 22 Jul 2025
  restoring atom style full from restart
  orthogonal box = (-0.26333515 -0.23233514 -0.25233515) to (22.789427 22.820427 22.800427)
  1 by 2 by 2 MPI processor grid
  restoring pair style lj/cut/coul/long from restart
  restoring bond style harmonic from restart
  restoring angle style harmonic from restart
  restoring dihedral style opls from restart
  restoring improper style cvff from restart
  1014 atoms
  944 bonds
  1504 angles
  1452 dihedrals
  258 impropers
Finding 1-2 1-3 1-4 neighbors ...
  special bond factors lj:    0        0        0.5     
  special bond factors coul:  0        0        0.5     
     4 = max # of 1-2 neighbors
     5 = max # of 1-3 neighbors
     9 = max # of 1-4 neighbors
    11 = max # of special neighbors
  special bonds CPU = 0.001 seconds
  read_restart CPU = 0.010 seconds
kspace_style    pppm 1.0e-4
neighbor        2.0 bin
neigh_modify    every 1 delay 0 check yes
timestep        1.0

thermo_style    custom step time temp press vol density pe ke etotal
thermo          100
variable        tracked_temperature_K equal temp
variable        tracked_density_g_cm3 equal density
variable        tracked_volume_A3 equal vol
variable        tracked_pressure_atm equal press
fix             NPT_EQ all npt temp 298.15 298.15 100.0 iso 1.0 1.0 1000.0
fix             NPT_TRACE all ave/time 100 1 100 v_tracked_temperature_K v_tracked_density_g_cm3 v_tracked_volume_A3 v_tracked_pressure_atm file ${thermo_trace}
fix             NPT_TRACE all ave/time 100 1 100 v_tracked_temperature_K v_tracked_density_g_cm3 v_tracked_volume_A3 v_tracked_pressure_atm file npt_thermo.6.dat
run             5000
PPPM initialization ...
  using 12-bit tables for long-range coulomb
  G vector (1/distance) = 0.2127611
  grid = 9 9 9
  stencil order = 5
  estimated absolute RMS force accuracy = 0.016007442
  estimated relative force accuracy = 4.8205935e-05
  using double precision FFTW3
  3d grid and FFT values/proc = 1400 225
Generated 28 of 28 mixed pair_coeff terms from arithmetic mixing rule
Neighbor list info ...
  update: every = 1 steps, delay = 0 steps, check = yes
  max neighbors/atom: 2000, page size: 100000
  master list distance cutoff = 14
  ghost atom cutoff = 14
  binsize = 7, bins = 4 4 4
  1 neighbor lists, perpetual/occasional/extra = 1 0 0
  (1) pair lj/cut/coul/long, perpetual
      attributes: half, newton on
      pair build: half/bin/newton
      stencil: half/bin/3d
      bin: standard
Per MPI rank memory allocation (min/avg/max) = 13.37 | 13.37 | 13.37 Mbytes
   Step          Time           Temp          Press          Volume        Density         PotEng         KinEng         TotEng    
     25396   25396          289.26316      1450.0455      12250.926      1.1427715     -125.49133      873.44762      747.9563     
     25400   25400          291.77539     -2269.5066      12251.002      1.1427643     -132.65268      881.03346      748.38078    
     25500   25500          303.35346      252.15188      12240.041      1.1437877     -162.08089      915.99416      753.91326    
     25600   25600          298.16074     -1133.9152      12260.278      1.1418997     -103.07448      900.31442      797.23994    
     25700   25700          309.62528      2940.1979      12251.153      1.1427503     -101.95675      934.93229      832.97554    
     25800   25800          299.5041      -415.14748      12248.67       1.1429819     -103.51857      904.37078      800.85221    
     25900   25900          294.69838     -1225.6086      12253.227      1.1425568     -119.51742      889.85961      770.34219    
     26000   26000          291.31002     -3113.3384      12205.413      1.1470327     -113.68244      879.62827      765.94583    
     26100   26100          293.08909      2423.2031      12123.915      1.1547432     -120.27971      885.00028      764.72057    
     26200   26200          304.69415      492.93359      12118.512      1.155258      -152.28927      920.04244      767.75317    
     26300   26300          292.77957      2063.8342      12165.125      1.1508315     -165.81031      884.06564      718.25532    
     26400   26400          290.03061     -771.58759      12217.329      1.145914      -183.36493      875.76499      692.40005    
     26500   26500          287.97597     -832.988        12238.272      1.1439531     -135.04074      869.56088      734.52014    
     26600   26600          295.8929      -2682.594       12249.637      1.1428917     -122.74519      893.46655      770.72136    
     26700   26700          304.03315      1544.5565      12230.58       1.1446725     -122.52395      918.0465       795.52256    
     26800   26800          309.57069     -2313.7317      12216.515      1.1459903     -131.86223      934.76744      802.90521    
     26900   26900          301.66112     -1449.4008      12135.06       1.1536827     -145.28683      910.88403      765.59719    
     27000   27000          298.97092     -887.21037      12018.891      1.1648336     -189.29309      902.76079      713.4677     
     27100   27100          285.36008      1164.4098      11918.983      1.1745975     -144.72599      861.66204      716.93605    
     27200   27200          289.01645     -805.91434      11947.016      1.1718415     -129.38805      872.70268      743.31463    
     27300   27300          303.73173     -2044.2607      12097.831      1.1572329     -145.29882      917.13635      771.83754    
     27400   27400          304.97983     -1037.9898      12240.563      1.1437389     -110.66643      920.90507      810.23864    
     27500   27500          313.44623      192.09709      12328.375      1.1355924     -70.650131      946.46987      875.81974    
     27600   27600          315.3849      -696.47557      12361.335      1.1325645     -95.531661      952.32381      856.79215    
     27700   27700          310.50922      217.98592      12323.714      1.1360219     -128.47197      937.60142      809.12944    
     27800   27800          301.71287     -2279.8233      12233.688      1.1443816     -136.2475       911.0403       774.7928     
     27900   27900          297.83078     -2423.762       12153.268      1.1519542     -152.43186      899.3181       746.88624    
     28000   28000          301.37586     -1854.4881      12102.515      1.1567851     -187.71253      910.02268      722.31015    
     28100   28100          291.50513      1711.1988      12038.507      1.1629356     -163.52442      880.2174       716.69299    
     28200   28200          295.53574      1906.4039      11988.784      1.1677588     -109.33314      892.38807      783.05493    
     28300   28300          309.84638      495.75802      11958.696      1.1706969     -128.49295      935.59992      807.10697    
     28400   28400          296.77242      2347.6147      12013.481      1.1653581     -121.61715      896.1223       774.50515    
     28500   28500          302.97604      2504.4737      12135.649      1.1536267     -181.475        914.85452      733.37951    
     28600   28600          286.46879      878.25477      12255.197      1.1423731     -139.17746      865.00985      725.8324     
     28700   28700          297.76261     -1120.4176      12263.293      1.141619      -144.42738      899.11223      754.68485    
     28800   28800          296.33658      1196.8058      12197.766      1.1477519     -120.74004      894.80626      774.06622    
     28900   28900          290.63252     -591.46052      12131.855      1.1539875     -103.41468      877.58251      774.16784    
     29000   29000          294.81565      2716.4518      12072.678      1.159644      -130.66312      890.21371      759.55059    
     29100   29100          300.69608      2182.0761      12092.259      1.1577662     -162.50011      907.97004      745.46993    
     29200   29200          292.22211      1951.4874      12179.599      1.1494638     -156.42464      882.38235      725.95771    
     29300   29300          296.83405     -864.41996      12248.399      1.1430072     -163.49169      896.30838      732.81669    
     29400   29400          301.24163     -68.537625      12247.464      1.1430945     -120.18187      909.61735      789.43548    
     29500   29500          300.57568     -467.40774      12175.552      1.1498459     -108.27208      907.60647      799.33438    
     29600   29600          291.5555       336.37986      12079.608      1.1589787     -111.75501      880.3695       768.61449    
     29700   29700          298.14553      682.00846      12038.908      1.1628969     -154.67586      900.26848      745.59263    
     29800   29800          296.13775     -2020.6376      12034.61       1.1633122     -173.80489      894.20587      720.40098    
     29900   29900          277.38345      1679.9458      12014.598      1.1652499     -164.82464      837.57613      672.75149    
     30000   30000          289.688        794.99976      12009.896      1.1657061     -152.94291      874.73046      721.78755    
     30100   30100          303.60491      3785.7549      12012.279      1.1654748     -153.06658      916.75342      763.68684    
     30200   30200          297.14385     -2121.017       12076.41       1.1592856     -114.59575      897.24385      782.6481     
     30300   30300          303.90158      1035.1916      12113.998      1.1556885     -145.66614      917.64924      771.9831     
     30396   30396          291.33665     -2187.1119      12137.005      1.1534977     -142.1203       879.70867      737.58838    
Loop time of 15.4942 on 4 procs for 5000 steps with 1014 atoms

Performance: 27.881 ns/day, 0.861 hours/ns, 322.701 timesteps/s, 327.219 katom-step/s
98.1% CPU use with 4 MPI tasks x no OpenMP threads

MPI task timing breakdown:
Section |  min time  |  avg time  |  max time  |%varavg| %total
---------------------------------------------------------------
Pair    | 9.8665     | 10.71      | 11.873     |  22.2 | 69.12
Bond    | 0.45553    | 0.46522    | 0.4857     |   1.8 |  3.00
Kspace  | 1.7479     | 2.9052     | 3.7256     |  42.2 | 18.75
Neigh   | 0.44284    | 0.44289    | 0.44292    |   0.0 |  2.86
Comm    | 0.58832    | 0.59005    | 0.59308    |   0.3 |  3.81
Output  | 0.0017607  | 0.0045424  | 0.0054803  |   2.4 |  0.03
Modify  | 0.22622    | 0.25346    | 0.28569    |   4.2 |  1.64
Other   |            | 0.1226     |            |       |  0.79

Nlocal:          253.5 ave         260 max         247 min
Histogram: 1 0 0 0 1 1 0 0 0 1
Nghost:           6407 ave        6453 max        6377 min
Histogram: 2 0 0 0 1 0 0 0 0 1
Neighs:         121696 ave      135123 max      110823 min
Histogram: 1 0 1 0 1 0 0 0 0 1

Total # of neighbors = 486784
Ave neighs/atom = 480.06312
Ave special neighs/atom = 6.7613412
Neighbor list builds = 109
Dangerous builds = 0
unfix           NPT_TRACE
unfix           NPT_EQ
write_restart   ${output_restart}
write_restart   ec_dmc_3_7_liclo4_1m_298K.npt.6.restart
System init for write_restart ...
PPPM initialization ...
  using 12-bit tables for long-range coulomb
  G vector (1/distance) = 0.2129873
  grid = 9 9 9
  stencil order = 5
  estimated absolute RMS force accuracy = 0.015860784
  estimated relative force accuracy = 4.776428e-05
  using double precision FFTW3
  3d grid and FFT values/proc = 1400 225
Generated 28 of 28 mixed pair_coeff terms from arithmetic mixing rule
Total wall time: 0:00:15
