LAMMPS (22 Jul 2025 - Update 4)
# Restart continuation NPT chunk for composition tag=ec_dmc_3_7_liclo4_1m_298K
# Generated by scripts/curate_ff_md_data.py

read_restart    ${input_restart}
read_restart    ec_dmc_3_7_liclo4_1m_298K.npt.2.restart
Reading restart file ...
  restart file = 22 Jul 2025, LAMMPS = 22 Jul 2025
  restoring atom style full from restart
  orthogonal box = (-0.49336829 -0.46236829 -0.48236829) to (23.01946 23.05046 23.03046)
  1 by 2 by 2 MPI processor grid
  restoring pair style lj/cut/coul/long from restart
  restoring bond style harmonic from restart
  restoring angle style harmonic from restart
  restoring dihedral style opls from restart
  restoring improper style cvff from restart
  1014 atoms
  944 bonds
  1504 angles
  1452 dihedrals
  258 impropers
Finding 1-2 1-3 1-4 neighbors ...
  special bond factors lj:    0        0        0.5     
  special bond factors coul:  0        0        0.5     
     4 = max # of 1-2 neighbors
     5 = max # of 1-3 neighbors
     9 = max # of 1-4 neighbors
    11 = max # of special neighbors
  special bonds CPU = 0.005 seconds
  read_restart CPU = 0.012 seconds
kspace_style    pppm 1.0e-4
neighbor        2.0 bin
neigh_modify    every 1 delay 0 check yes
timestep        1.0

thermo_style    custom step time temp press vol density pe ke etotal
thermo          100
variable        tracked_temperature_K equal temp
variable        tracked_density_g_cm3 equal density
variable        tracked_volume_A3 equal vol
variable        tracked_pressure_atm equal press
fix             NPT_EQ all npt temp 298.15 298.15 100.0 iso 1.0 1.0 1000.0
fix             NPT_TRACE all ave/time 100 1 100 v_tracked_temperature_K v_tracked_density_g_cm3 v_tracked_volume_A3 v_tracked_pressure_atm file ${thermo_trace}
fix             NPT_TRACE all ave/time 100 1 100 v_tracked_temperature_K v_tracked_density_g_cm3 v_tracked_volume_A3 v_tracked_pressure_atm file npt_thermo.3.dat
run             5000
PPPM initialization ...
  using 12-bit tables for long-range coulomb
  G vector (1/distance) = 0.21132144
  grid = 9 9 9
  stencil order = 5
  estimated absolute RMS force accuracy = 0.016968598
  estimated relative force accuracy = 5.1100429e-05
  using double precision FFTW3
  3d grid and FFT values/proc = 1400 225
Generated 28 of 28 mixed pair_coeff terms from arithmetic mixing rule
Neighbor list info ...
  update: every = 1 steps, delay = 0 steps, check = yes
  max neighbors/atom: 2000, page size: 100000
  master list distance cutoff = 14
  ghost atom cutoff = 14
  binsize = 7, bins = 4 4 4
  1 neighbor lists, perpetual/occasional/extra = 1 0 0
  (1) pair lj/cut/coul/long, perpetual
      attributes: half, newton on
      pair build: half/bin/newton
      stencil: half/bin/3d
      bin: standard
Per MPI rank memory allocation (min/avg/max) = 13.35 | 13.36 | 13.36 Mbytes
   Step          Time           Temp          Press          Volume        Density         PotEng         KinEng         TotEng    
     10396   10396          310.19599      1235.2952      12999.14       1.076995      -53.606532      936.65558      883.04905    
     10400   10400          308.15568      1033.0046      12999.214      1.0769888     -48.734904      930.49473      881.75983    
     10500   10500          301.18562     -411.11337      13012.688      1.0758737     -53.04498       909.44823      856.40325    
     10600   10600          291.35315      1581.2583      12940.237      1.0818973     -69.076551      879.7585       810.68195    
     10700   10700          298.73951      217.38053      12838.301      1.0904877     -100.41134      902.06205      801.65071    
     10800   10800          298.92716      3454.1855      12768.685      1.096433      -95.639772      902.62867      806.9889     
     10900   10900          306.63164     -579.78159      12843.804      1.0900204     -95.689102      925.8928       830.2037     
     11000   11000          295.86326     -2260.0131      12944.965      1.0815022     -48.471064      893.37705      844.90599    
     11100   11100          307.61104     -62.264838      12913.921      1.0841021     -37.28305       928.85017      891.56712    
     11200   11200          317.10806      147.12335      12854.724      1.0890945     -51.650544      957.52698      905.87644    
     11300   11300          309.60882     -1238.7767      12770.207      1.0963023     -94.031637      934.8826       840.85096    
     11400   11400          302.84035      382.40376      12687.847      1.1034187     -110.71174      914.44479      803.73304    
     11500   11500          290.35285      1022.5798      12664.947      1.1054139     -98.096899      876.73802      778.64112    
     11600   11600          298.1657      -528.07858      12708.724      1.1016062     -115.02853      900.3294       785.30087    
     11700   11700          295.23295     -455.26782      12772.075      1.0961421     -77.040276      891.47377      814.43349    
     11800   11800          311.80566      658.22603      12836.276      1.0906596     -74.618652      941.51607      866.89742    
     11900   11900          298.46494     -221.51043      12901.102      1.0851793     -43.009539      901.23298      858.22344    
     12000   12000          299.55805     -1844.3923      12976.553      1.0788696     -80.091011      904.53367      824.44266    
     12100   12100          290.58184      561.30682      13016.872      1.0755279     -62.809978      877.42946      814.61948    
     12200   12200          299.84635     -61.473425      12990.218      1.0777347     -86.011341      905.40422      819.39288    
     12300   12300          293.14342      2910.9997      12921.905      1.0834322     -76.099276      885.1643       809.06503    
     12400   12400          290.45192      184.20246      12869.342      1.0878573     -71.584994      877.03717      805.45217    
     12500   12500          292.98217      1405.9317      12819.526      1.0920847     -73.508315      884.67742      811.1691     
     12600   12600          295.35533     -2064.588       12814.075      1.0925493     -66.666369      891.84331      825.17694    
     12700   12700          307.46876      997.48618      12766.915      1.0965851     -74.975445      928.42055      853.44511    
     12800   12800          309.10061     -48.992269      12726.048      1.1001065     -81.201913      933.34803      852.14612    
     12900   12900          295.86475      2833.3703      12703.611      1.1020496     -93.677114      893.38153      799.70442    
     13000   13000          296.9759      -914.83116      12667.793      1.1051655     -126.87394      896.73671      769.86277    
     13100   13100          296.64215     -1084.1798      12570.97       1.1136777     -126.99764      895.72893      768.7313     
     13200   13200          300.99847      317.21471      12447.893      1.124689      -129.25588      908.88311      779.62722    
     13300   13300          315.23718      289.71808      12449.372      1.1245553     -138.55467      951.87775      813.32308    
     13400   13400          317.63677     -769.03822      12544.088      1.1160643     -124.97861      959.12347      834.14486    
     13500   13500          303.98894      885.96199      12615.719      1.1097273     -124.75268      917.91302      793.16034    
     13600   13600          283.61459      30.167699      12613.613      1.1099126     -92.463586      856.39144      763.92786    
     13700   13700          304.01861     -1138.6521      12537.959      1.1166098     -145.06002      918.0026       772.94258    
     13800   13800          304.54133      4227.7547      12477.173      1.1220497     -113.27755      919.58098      806.30343    
     13900   13900          302.16628      1569.8046      12556.071      1.1149992     -89.913672      912.40939      822.49572    
     14000   14000          291.75962      811.12385      12645.029      1.1071551     -96.719564      880.98585      784.26629    
     14100   14100          287.98522     -2043.992       12752.76       1.0978023     -104.68344      869.58881      764.90537    
     14200   14200          291.14709      695.91021      12785.373      1.0950019     -68.238664      879.13628      810.89761    
     14300   14300          309.35742     -1967.1271      12768.09       1.0964841     -91.032357      934.12346      843.0911     
     14400   14400          296.52508      394.84046      12733.313      1.0994789     -58.390718      895.37544      836.98472    
     14500   14500          296.62728      1210.0535      12698.196      1.1025195     -89.256848      895.68403      806.42718    
     14600   14600          289.70085      177.66329      12675.504      1.1044932     -111.87847      874.76926      762.89079    
     14700   14700          279.75076     -2663.9468      12622.025      1.1091729     -92.472096      844.72436      752.25227    
     14800   14800          312.03114     -262.85782      12488.709      1.1210133     -118.59282      942.19694      823.60412    
     14900   14900          311.93555     -451.94217      12411.949      1.127946      -114.50752      941.90829      827.40077    
     15000   15000          302.77344      843.48469      12463.573      1.1232741     -124.66725      914.24276      789.57551    
     15100   15100          303.34571      1695.4638      12565.892      1.1141277     -147.1828       915.97074      768.78794    
     15200   15200          299.81463     -1057.5534      12655.269      1.1062593     -131.31016      905.30843      773.99827    
     15300   15300          307.40642     -505.65736      12643.915      1.1072526     -95.300635      928.2323       832.93167    
     15396   15396          298.42265      740.67145      12631.144      1.1083722     -46.725692      901.10528      854.37958    
Loop time of 17.1917 on 4 procs for 5000 steps with 1014 atoms

Performance: 25.128 ns/day, 0.955 hours/ns, 290.839 timesteps/s, 294.910 katom-step/s
93.2% CPU use with 4 MPI tasks x no OpenMP threads

MPI task timing breakdown:
Section |  min time  |  avg time  |  max time  |%varavg| %total
---------------------------------------------------------------
Pair    | 9.5592     | 10.435     | 11.311     |  19.3 | 60.70
Bond    | 0.43625    | 0.4642     | 0.51168    |   4.2 |  2.70
Kspace  | 3.7563     | 4.5901     | 5.3975     |  27.3 | 26.70
Neigh   | 0.49171    | 0.49209    | 0.49238    |   0.0 |  2.86
Comm    | 0.70154    | 0.71841    | 0.73094    |   1.3 |  4.18
Output  | 0.0018558  | 0.0029623  | 0.0033638  |   1.2 |  0.02
Modify  | 0.3111     | 0.3315     | 0.34885    |   2.4 |  1.93
Other   |            | 0.1578     |            |       |  0.92

Nlocal:          253.5 ave         257 max         249 min
Histogram: 1 0 1 0 0 0 0 0 0 2
Nghost:        6227.75 ave        6314 max        6147 min
Histogram: 2 0 0 0 0 0 0 0 0 2
Neighs:         116928 ave      126349 max      106571 min
Histogram: 1 0 0 0 0 2 0 0 0 1

Total # of neighbors = 467713
Ave neighs/atom = 461.25542
Ave special neighs/atom = 6.7613412
Neighbor list builds = 113
Dangerous builds = 0
unfix           NPT_TRACE
unfix           NPT_EQ
write_restart   ${output_restart}
write_restart   ec_dmc_3_7_liclo4_1m_298K.npt.3.restart
System init for write_restart ...
PPPM initialization ...
  using 12-bit tables for long-range coulomb
  G vector (1/distance) = 0.21201977
  grid = 9 9 9
  stencil order = 5
  estimated absolute RMS force accuracy = 0.016496326
  estimated relative force accuracy = 4.9678195e-05
  using double precision FFTW3
  3d grid and FFT values/proc = 1400 225
Generated 28 of 28 mixed pair_coeff terms from arithmetic mixing rule
Total wall time: 0:00:17
