LAMMPS (22 Jul 2025 - Update 4)
# Restart continuation NPT chunk for composition tag=ec_dmc_3_7_liclo4_1m_298K
# Generated by scripts/curate_ff_md_data.py

read_restart    ${input_restart}
read_restart    ec_dmc_3_7_liclo4_1m_298K.npt.4.restart
Reading restart file ...
  restart file = 22 Jul 2025, LAMMPS = 22 Jul 2025
  restoring atom style full from restart
  orthogonal box = (-0.26860189 -0.23760189 -0.25760189) to (22.794694 22.825694 22.805694)
  1 by 2 by 2 MPI processor grid
  restoring pair style lj/cut/coul/long from restart
  restoring bond style harmonic from restart
  restoring angle style harmonic from restart
  restoring dihedral style opls from restart
  restoring improper style cvff from restart
  1014 atoms
  944 bonds
  1504 angles
  1452 dihedrals
  258 impropers
Finding 1-2 1-3 1-4 neighbors ...
  special bond factors lj:    0        0        0.5     
  special bond factors coul:  0        0        0.5     
     4 = max # of 1-2 neighbors
     5 = max # of 1-3 neighbors
     9 = max # of 1-4 neighbors
    11 = max # of special neighbors
  special bonds CPU = 0.004 seconds
  read_restart CPU = 0.010 seconds
kspace_style    pppm 1.0e-4
neighbor        2.0 bin
neigh_modify    every 1 delay 0 check yes
timestep        1.0

thermo_style    custom step time temp press vol density pe ke etotal
thermo          100
variable        tracked_temperature_K equal temp
variable        tracked_density_g_cm3 equal density
variable        tracked_volume_A3 equal vol
variable        tracked_pressure_atm equal press
fix             NPT_EQ all npt temp 298.15 298.15 100.0 iso 1.0 1.0 1000.0
fix             NPT_TRACE all ave/time 100 1 100 v_tracked_temperature_K v_tracked_density_g_cm3 v_tracked_volume_A3 v_tracked_pressure_atm file ${thermo_trace}
fix             NPT_TRACE all ave/time 100 1 100 v_tracked_temperature_K v_tracked_density_g_cm3 v_tracked_volume_A3 v_tracked_pressure_atm file npt_thermo.5.dat
run             5000
PPPM initialization ...
  using 12-bit tables for long-range coulomb
  G vector (1/distance) = 0.2127279
  grid = 9 9 9
  stencil order = 5
  estimated absolute RMS force accuracy = 0.016029064
  estimated relative force accuracy = 4.827105e-05
  using double precision FFTW3
  3d grid and FFT values/proc = 1400 225
Generated 28 of 28 mixed pair_coeff terms from arithmetic mixing rule
Neighbor list info ...
  update: every = 1 steps, delay = 0 steps, check = yes
  max neighbors/atom: 2000, page size: 100000
  master list distance cutoff = 14
  ghost atom cutoff = 14
  binsize = 7, bins = 4 4 4
  1 neighbor lists, perpetual/occasional/extra = 1 0 0
  (1) pair lj/cut/coul/long, perpetual
      attributes: half, newton on
      pair build: half/bin/newton
      stencil: half/bin/3d
      bin: standard
Per MPI rank memory allocation (min/avg/max) = 13.37 | 13.37 | 13.37 Mbytes
   Step          Time           Temp          Press          Volume        Density         PotEng         KinEng         TotEng    
     20396   20396          298.59127     -836.65105      12267.727      1.1412064     -143.35089      901.61444      758.26355    
     20400   20400          288.63652     -713.75766      12267.672      1.1412115     -110.82412      871.55547      760.73135    
     20500   20500          298.90638     -609.43762      12239.975      1.1437938     -138.76348      902.56592      763.80244    
     20600   20600          298.26589     -825.6931       12269.943      1.1410002     -130.16959      900.63192      770.46232    
     20700   20700          299.3183      -676.91887      12307.897      1.1374818     -118.00901      903.80975      785.80074    
     20800   20800          305.0389       992.14141      12259.675      1.1419559     -141.31334      921.08344      779.7701     
     20900   20900          289.01205      3.5022202      12227.115      1.1449969     -133.78858      872.68939      738.90081    
     21000   21000          293.74228     -1462.7599      12207.788      1.1468096     -175.77333      886.9726       711.19928    
     21100   21100          291.84939     -2439.5155      12187.705      1.1486994     -139.80805      881.25691      741.44886    
     21200   21200          303.8392      -903.96352      12127.678      1.1543849     -123.20705      917.46086      794.2538     
     21300   21300          297.18313     -532.53565      12083.734      1.158583      -111.95537      897.36245      785.40708    
     21400   21400          301.37245      17.762232      12046.337      1.1621797     -156.0547       910.01236      753.95767    
     21500   21500          304.93372     -1029.7839      12020.454      1.1646821     -198.1054       920.76585      722.66045    
     21600   21600          297.53599      1032.8084      11991.333      1.1675106     -170.70922      898.42796      727.71874    
     21700   21700          305.19285      2937.1025      12022.7        1.1644646     -127.62371      921.54831      793.9246     
     21800   21800          311.58038      986.48584      12139.731      1.1532388     -131.81544      940.83584      809.0204     
     21900   21900          299.08287     -1432.8371      12272.145      1.1407956     -133.91064      903.09884      769.1882     
     22000   22000          292.41604     -1543.9658      12318.555      1.1364976     -134.27861      882.96794      748.68933    
     22100   22100          280.44617      1741.2007      12318.96       1.1364603     -88.80055       846.8242       758.02365    
     22200   22200          304.86474     -1133.9396      12324.725      1.1359287     -111.16992      920.55755      809.38762    
     22300   22300          312.17661     -163.94789      12301.667      1.1380578     -116.39435      942.63618      826.24183    
     22400   22400          307.45462     -1379.5713      12323.539      1.136038      -122.95451      928.37784      805.42333    
     22500   22500          294.11216     -275.77794      12383.329      1.1305528     -106.89243      888.08948      781.19705    
     22600   22600          296.36991     -558.96528      12416.694      1.127515      -135.74846      894.90691      759.15845    
     22700   22700          287.25542      2664.689       12354.491      1.1331918     -112.67462      867.38516      754.71054    
     22800   22800          306.31949      1242.7684      12249.741      1.142882      -119.56332      924.95025      805.38693    
     22900   22900          304.59494      2300.5887      12092.065      1.1577848     -92.865874      919.74287      826.87699    
     23000   23000          309.66043      702.02301      11982.848      1.1683373     -152.66519      935.03843      782.37324    
     23100   23100          288.53081      1518.0845      11894.926      1.1769731     -123.41025      871.23627      747.82602    
     23200   23200          290.63341     -527.95295      11866.069      1.1798354     -137.21558      877.58519      740.36962    
     23300   23300          301.79966      91.693209      11834.972      1.1829355     -178.56096      911.30237      732.74141    
     23400   23400          287.07759      1691.1737      11855.439      1.1808933     -179.47897      866.84819      687.36922    
     23500   23500          278.33832      189.82322      11924.038      1.1740996     -175.45306      840.4594       665.00634    
     23600   23600          293.27179     -209.70021      12031.653      1.1635981     -177.2862       885.55195      708.26575    
     23700   23700          298.41516      562.21057      12106.792      1.1563764     -169.72151      901.08266      731.36115    
     23800   23800          305.65768     -2062.6858      12190.469      1.1484389     -152.87531      922.95187      770.07656    
     23900   23900          301.59427     -4067.9682      12223.637      1.1453227     -117.92879      910.68218      792.75339    
     24000   24000          302.71665     -1193.5369      12192.619      1.1482364     -143.21414      914.07126      770.85711    
     24100   24100          299.98161      2962.7953      12166.649      1.1506873     -176.42552      905.81264      729.38712    
     24200   24200          301.96078      838.85502      12163.162      1.1510172     -189.24104      911.78887      722.54783    
     24300   24300          299.43842     -522.77189      12172.683      1.1501169     -115.31627      904.17245      788.85617    
     24400   24400          305.07655      161.53802      12155.838      1.1517107     -106.28476      921.19712      814.91236    
     24500   24500          303.07148      1807.1429      12133.827      1.1537999     -134.60661      915.1427       780.53609    
     24600   24600          287.0028      -884.15606      12130.449      1.1541212     -120.10385      866.62235      746.5185     
     24700   24700          296.46161      943.47162      12132.196      1.153955      -139.8635       895.18379      755.3203     
     24800   24800          309.6707       198.95568      12092.816      1.1577129     -152.52362      935.06944      782.54582    
     24900   24900          321.10702     -338.59069      12019.751      1.1647503     -138.7174       969.6021       830.8847     
     25000   25000          318.03824      1304.0932      11944.551      1.1720832     -134.05934      960.33574      826.27641    
     25100   25100          298.37136      783.96297      11952.967      1.171258      -148.05675      900.9504       752.89365    
     25200   25200          294.56101     -3722.0299      12056.273      1.1612219     -162.74632      889.44481      726.69849    
     25300   25300          299.04301     -3466.6033      12181.323      1.1493012     -182.52475      902.97847      720.45372    
     25396   25396          289.26316      1450.0427      12250.926      1.1427715     -125.49143      873.44762      747.9562     
Loop time of 15.6354 on 4 procs for 5000 steps with 1014 atoms

Performance: 27.630 ns/day, 0.869 hours/ns, 319.787 timesteps/s, 324.264 katom-step/s
97.2% CPU use with 4 MPI tasks x no OpenMP threads

MPI task timing breakdown:
Section |  min time  |  avg time  |  max time  |%varavg| %total
---------------------------------------------------------------
Pair    | 9.6703     | 10.559     | 11.312     |  18.2 | 67.54
Bond    | 0.44646    | 0.46076    | 0.47667    |   1.6 |  2.95
Kspace  | 2.4235     | 3.1536     | 4.0323     |  32.6 | 20.17
Neigh   | 0.45302    | 0.45332    | 0.45354    |   0.0 |  2.90
Comm    | 0.61789    | 0.62673    | 0.63402    |   0.8 |  4.01
Output  | 0.001679   | 0.0023422  | 0.0025798  |   0.8 |  0.01
Modify  | 0.22657    | 0.25727    | 0.2912     |   4.6 |  1.65
Other   |            | 0.1219     |            |       |  0.78

Nlocal:          253.5 ave         263 max         246 min
Histogram: 2 0 0 0 0 0 0 1 0 1
Nghost:        6335.75 ave        6399 max        6271 min
Histogram: 1 0 1 0 0 0 0 1 0 1
Neighs:         120529 ave      134796 max      106785 min
Histogram: 1 0 0 0 1 1 0 0 0 1

Total # of neighbors = 482117
Ave neighs/atom = 475.46055
Ave special neighs/atom = 6.7613412
Neighbor list builds = 111
Dangerous builds = 0
unfix           NPT_TRACE
unfix           NPT_EQ
write_restart   ${output_restart}
write_restart   ec_dmc_3_7_liclo4_1m_298K.npt.5.restart
System init for write_restart ...
PPPM initialization ...
  using 12-bit tables for long-range coulomb
  G vector (1/distance) = 0.2127611
  grid = 9 9 9
  stencil order = 5
  estimated absolute RMS force accuracy = 0.016007442
  estimated relative force accuracy = 4.8205935e-05
  using double precision FFTW3
  3d grid and FFT values/proc = 1400 225
Generated 28 of 28 mixed pair_coeff terms from arithmetic mixing rule
Total wall time: 0:00:15
