LAMMPS (22 Jul 2025 - Update 4)
# Restart continuation NPT chunk for composition tag=ec_dmc_3_7_liclo4_1m_298K
# Generated by scripts/curate_ff_md_data.py

read_restart    ${input_restart}
read_restart    ec_dmc_3_7_liclo4_1m_298K.npt.1.restart
Reading restart file ...
  restart file = 22 Jul 2025, LAMMPS = 22 Jul 2025
  restoring atom style full from restart
  orthogonal box = (-0.636129 -0.60512899 -0.625129) to (23.162221 23.193221 23.173221)
  1 by 1 by 1 MPI processor grid
  restoring pair style lj/cut/coul/long from restart
  restoring bond style harmonic from restart
  restoring angle style harmonic from restart
  restoring dihedral style opls from restart
  restoring improper style cvff from restart
  1014 atoms
  944 bonds
  1504 angles
  1452 dihedrals
  258 impropers
Finding 1-2 1-3 1-4 neighbors ...
  special bond factors lj:    0        0        0.5     
  special bond factors coul:  0        0        0.5     
     4 = max # of 1-2 neighbors
     5 = max # of 1-3 neighbors
     9 = max # of 1-4 neighbors
    11 = max # of special neighbors
  special bonds CPU = 0.001 seconds
  read_restart CPU = 0.005 seconds
kspace_style    pppm 1.0e-4
neighbor        2.0 bin
neigh_modify    every 1 delay 0 check yes
timestep        1.0

thermo_style    custom step time temp press vol density pe ke etotal
thermo          100
variable        tracked_temperature_K equal temp
variable        tracked_density_g_cm3 equal density
variable        tracked_volume_A3 equal vol
variable        tracked_pressure_atm equal press
fix             NPT_EQ all npt temp 298.15 298.15 100.0 iso 1.0 1.0 1000.0
fix             NPT_TRACE all ave/time 100 1 100 v_tracked_temperature_K v_tracked_density_g_cm3 v_tracked_volume_A3 v_tracked_pressure_atm file ${thermo_trace}
fix             NPT_TRACE all ave/time 100 1 100 v_tracked_temperature_K v_tracked_density_g_cm3 v_tracked_volume_A3 v_tracked_pressure_atm file npt_thermo.2.dat
run             5000
PPPM initialization ...
  using 12-bit tables for long-range coulomb
  G vector (1/distance) = 0.21043849
  grid = 9 9 9
  stencil order = 5
  estimated absolute RMS force accuracy = 0.017582389
  estimated relative force accuracy = 5.2948842e-05
  using double precision FFTW3
  3d grid and FFT values/proc = 2744 729
Generated 28 of 28 mixed pair_coeff terms from arithmetic mixing rule
Neighbor list info ...
  update: every = 1 steps, delay = 0 steps, check = yes
  max neighbors/atom: 2000, page size: 100000
  master list distance cutoff = 14
  ghost atom cutoff = 14
  binsize = 7, bins = 4 4 4
  1 neighbor lists, perpetual/occasional/extra = 1 0 0
  (1) pair lj/cut/coul/long, perpetual
      attributes: half, newton on
      pair build: half/bin/newton
      stencil: half/bin/3d
      bin: standard
Per MPI rank memory allocation (min/avg/max) = 14.87 | 14.87 | 14.87 Mbytes
   Step          Time           Temp          Press          Volume        Density         PotEng         KinEng         TotEng    
      5431   5431           297.01968     -1826.9902      13478.468      1.0386944      12.495103      896.86892      909.36403    
      5500   5500           294.78569     -466.2831       13477.84       1.0387427      18.325566      890.12324      908.4488     
      5600   5600           303.51113     -628.75796      13446.969      1.0411274      8.1706689      916.47026      924.64093    
      5700   5700           304.64331     -690.57126      13457.948      1.0402781      64.33465       919.88894      984.22359    
      5800   5800           305.62914      309.22577      13479.578      1.0386088      40.538995      922.8657       963.40469    
      5900   5900           298.52944     -372.31305      13498.108      1.037183       18.994681      901.42774      920.42242    
      6000   6000           290.60183     -310.52805      13505.361      1.036626       27.956633      877.48983      905.44646    
      6100   6100           303.22212      1122.5575      13557.56       1.0326348     -7.3587989      915.59757      908.23877    
      6200   6200           294.56576      0.90439419     13595.849      1.0297267      27.279638      889.45915      916.73879    
      6300   6300           298.62625     -818.15068      13598.146      1.0295527      27.608833      901.72004      929.32888    
      6400   6400           315.3583       1012.8016      13526.928      1.0349732     -11.625745      952.24348      940.61773    
      6500   6500           302.76025      247.69839      13432.038      1.0422848      6.5120176      914.2029       920.71492    
      6600   6600           300.52254      978.92214      13279.043      1.0542935     -45.073792      907.44602      862.37223    
      6700   6700           300.67203      1681.1127      13111.63       1.067755      -54.449789      907.8974       853.44761    
      6800   6800           299.51895      2256.3808      13058.244      1.0721203     -46.535973      904.4156       857.87963    
      6900   6900           313.62849      293.8884       13205.403      1.0601728     -51.154246      947.02023      895.86599    
      7000   7000           311.35434      1585.5249      13404.538      1.044423       5.9124157      940.15329      946.0657     
      7100   7100           295.78752     -391.05414      13593.555      1.0299004      66.25873       893.14835      959.40708    
      7200   7200           294.24424     -1149.2024      13691.565      1.022528       25.773396      888.48829      914.26169    
      7300   7300           290.9536      -878.0262       13699.592      1.0219289     -15.461054      878.55203      863.09098    
      7400   7400           298.3805       555.23727      13613.258      1.0284099     -14.783633      900.97799      886.19435    
      7500   7500           308.71311      931.22716      13473.287      1.0390938     -10.737324      932.17793      921.4406     
      7600   7600           303.28151     -731.64429      13384.277      1.0460041      9.0225177      915.77689      924.79941    
      7700   7700           291.48786     -987.1777       13345.052      1.0490786     -4.9335382      880.16526      875.23172    
      7800   7800           287.40625      817.74646      13241.631      1.0572722     -17.021596      867.84058      850.81898    
      7900   7900           284.60809      906.0642       13132.87       1.0660281      5.3116767      859.39136      864.70303    
      8000   8000           300.95825      1463.0599      13072.808      1.0709259     -22.370911      908.76166      886.39075    
      8100   8100           308.36462      1067.1806      13093.862      1.0692039     -49.553626      931.12564      881.57201    
      8200   8200           295.35962      2159.8163      13085.288      1.0699045     -27.211545      891.85627      864.64473    
      8300   8300           296.15754      1202.1712      13079.6        1.0703697     -39.065775      894.26563      855.19986    
      8400   8400           297.05546     -639.38487      13096.891      1.0689566     -31.419731      896.97697      865.55724    
      8500   8500           304.97999     -544.45842      13083.611      1.0700416     -55.535563      920.90557      865.37       
      8600   8600           287.84469      806.01944      13014.794      1.0756996     -53.771344      869.16449      815.39315    
      8700   8700           277.18346     -81.177874      12990.314      1.0777267     -29.996394      836.97224      806.97584    
      8800   8800           299.80949      2136.4481      12947.788      1.0812664     -47.985439      905.29293      857.30749    
      8900   8900           302.67777      3019.6339      12882.021      1.0867867     -39.589827      913.95387      874.36405    
      9000   9000           305.30213      291.08248      12816.648      1.0923299     -60.632783      921.87826      861.24548    
      9100   9100           290.0776      -771.48143      12798.08       1.0939147     -52.133534      875.9069       823.77337    
      9200   9200           297.14978     -68.418394      12839.293      1.0904034     -77.646906      897.26176      819.61485    
      9300   9300           299.0213       260.01071      12887.073      1.0863606     -67.865228      902.91293      835.0477     
      9400   9400           315.72712      1121.1733      12894.994      1.0856933     -55.187161      953.35717      898.17001    
      9500   9500           302.58754      1904.2695      12874.66       1.087408      -26.733374      913.68141      886.94804    
      9600   9600           300.96681     -97.127598      12911.107      1.0843384     -58.388362      908.78752      850.39916    
      9700   9700           285.37075     -958.44982      12936.038      1.0822486     -36.95009       861.69427      824.74418    
      9800   9800           309.43569      771.19708      12837.335      1.0905697     -108.22175      934.35981      826.13805    
      9900   9900           301.36043      688.27868      12682.471      1.1038865     -54.25474       909.97609      855.72135    
     10000   10000          305.49561      1459.6863      12577.905      1.1130636     -47.688472      922.46249      874.77402    
     10100   10100          301.81918      592.65341      12607.939      1.1104122     -64.622499      911.36131      846.73881    
     10200   10200          291.10105     -1374.4394      12670.541      1.1049259     -68.761082      878.99726      810.23618    
     10300   10300          295.91295     -3031.4868      12744.354      1.0985263     -75.644386      893.52708      817.8827     
     10400   10400          296.135       -738.40296      12797.378      1.0939747     -24.173926      894.19758      870.02366    
     10431   10431          298.57212     -492.52503      12808.929      1.0929882     -13.850226      901.55659      887.70637    
Loop time of 63.9772 on 1 procs for 5000 steps with 1014 atoms

Performance: 6.752 ns/day, 3.554 hours/ns, 78.153 timesteps/s, 79.247 katom-step/s
97.0% CPU use with 1 MPI tasks x no OpenMP threads

MPI task timing breakdown:
Section |  min time  |  avg time  |  max time  |%varavg| %total
---------------------------------------------------------------
Pair    | 55.263     | 55.263     | 55.263     |   0.0 | 86.38
Bond    | 2.3826     | 2.3826     | 2.3826     |   0.0 |  3.72
Kspace  | 2.5204     | 2.5204     | 2.5204     |   0.0 |  3.94
Neigh   | 2.5614     | 2.5614     | 2.5614     |   0.0 |  4.00
Comm    | 0.29766    | 0.29766    | 0.29766    |   0.0 |  0.47
Output  | 0.0012222  | 0.0012222  | 0.0012222  |   0.0 |  0.00
Modify  | 0.85998    | 0.85998    | 0.85998    |   0.0 |  1.34
Other   |            | 0.09155    |            |       |  0.14

Nlocal:           1014 ave        1014 max        1014 min
Histogram: 1 0 0 0 0 0 0 0 0 0
Nghost:           9828 ave        9828 max        9828 min
Histogram: 1 0 0 0 0 0 0 0 0 0
Neighs:         461325 ave      461325 max      461325 min
Histogram: 1 0 0 0 0 0 0 0 0 0

Total # of neighbors = 461325
Ave neighs/atom = 454.95562
Ave special neighs/atom = 6.7613412
Neighbor list builds = 121
Dangerous builds = 0
unfix           NPT_TRACE
unfix           NPT_EQ
write_restart   ${output_restart}
write_restart   ec_dmc_3_7_liclo4_1m_298K.npt.2.restart
System init for write_restart ...
PPPM initialization ...
  using 12-bit tables for long-range coulomb
  G vector (1/distance) = 0.2116801
  grid = 9 9 9
  stencil order = 5
  estimated absolute RMS force accuracy = 0.016724601
  estimated relative force accuracy = 5.0365639e-05
  using double precision FFTW3
  3d grid and FFT values/proc = 2744 729
Generated 28 of 28 mixed pair_coeff terms from arithmetic mixing rule
Total wall time: 0:01:04
