Title

1014 atoms
944 bonds
1504 angles
1452 dihedrals
258 impropers

8 atom types
6 bond types
7 angle types
12 dihedral types
1 improper types
-0.07500000300000001 22.601091690000001 xlo xhi
-0.044000000000000004 22.6320917 ylo yhi
-0.06400000304 22.61209169 zlo zhi
0.0 0.0 0.0 xy xz yz

Masses

1	12.01078
2	15.99943
3	12.01078
4	15.99943
5	1.007947
6	6.9412
7	15.99943
8	35.4532


Pair Coeffs

1	0.10884061	3.3795318
2	0.16846514	3.0251065
3	0.086879315	3.4806469
4	0.2102061	3.0398122
5	0.016409246	2.5832257
6	0.0279896	1.8263424
7	0.15	3.1805084
8	0.272	4.1818786

Bond Coeffs

1	215.30139056395	1.533627603844
2	227.0371466687	1.436323905911
3	357.8191474159	1.094206460752
4	291.34206305815	1.356061963393
5	762.0385000435	1.225002296183
6	300	1.483


Angle Coeffs

1	91.51855890415	108.1730591511
2	66.75631831595	109.9380527584
3	63.3100334572	123.6058900035
4	36.776637850755	108.3543135269
5	119.8958895535	112.8736161145
6	84.54765779845	120.1049996386
7	52.5	109.4


Dihedral Coeffs

1 1	0.111302960584	3	0
2 1	0.438911435509	1	180
3 1	1.763607254567	2	180
4 1	-0.01533770820035	3	0
5 1	0.4191503124266	2	0
6 1	0.1311347012225	3	0
7 1	0.436546671918	1	0
8 1	0.2631113656674667	3	0
9 1	0.2279946533057	3	0
10 1	0.3021951447071	2	180
11 1	1.350045656671	1	180
12 1	3.481871717726	2	180


Improper Coeffs

1 4.305232227926667	-1	2


Atoms

1	1	1	0.0955	11.964001	0.89600003	17.155001
2	1	1	0.0955	11.91	0.98699999	18.665001
3	1	2	-0.4048	12.894	0.0040000002	19.021
4	1	3	0.8478	13.94	0.22499999	18.135
5	1	4	-0.5484	15.191001	0.059	18.336
6	1	2	-0.4048	13.353	0.67699999	16.945
7	1	5	0.0798	11.616	1.8410001	16.718
8	1	5	0.0798	11.4	-0	16.795
9	1	5	0.0798	12.3	1.9990001	18.940001
10	1	5	0.0798	10.936001	0.75999999	19.094999
11	2	1	0.0955	8.0559998	11.642	5.1240005
12	2	1	0.0955	7.6270003	12.737001	6.0770006
13	2	2	-0.4048	8.8839998	13.052	6.6950006
14	2	3	0.8478	9.7910004	13.069	5.6440001
15	2	4	-0.5484	10.838001	13.791	5.5170007
16	2	2	-0.4048	9.3339996	12.119001	4.7199998
17	2	5	0.0798	7.3460002	11.584	4.2880001
18	2	5	0.0798	8.1890001	10.675	5.6690001
19	2	5	0.0798	7.3099999	13.605	5.4470005
20	2	5	0.0798	6.882	12.429	6.8090005
21	3	1	0.0955	8.4379997	16.888	19.795
22	3	1	0.0955	9.2320004	15.607	19.655001
23	3	2	-0.4048	10.519	16.135	19.302
24	3	3	0.8478	10.692	17.221001	20.148001
25	3	4	-0.5484	11.782	17.671	20.643002
26	3	2	-0.4048	9.4130001	17.750999	20.368002
27	3	5	0.0798	7.5819998	16.719	20.461002
28	3	5	0.0798	8.1540003	17.285999	18.789
29	3	5	0.0798	9.2980003	15.158	20.678001
30	3	5	0.0798	8.8529997	14.923	18.898001
31	4	1	0.0955	1.925	2.2309999	4.1459999
32	4	1	0.0955	0.52399999	2.8010001	4.0960002
33	4	2	-0.4048	0.092	2.3169999	2.8150001
34	4	3	0.8478	0.53799999	1.003	2.773
35	4	4	-0.5484	-0.0050000004	0.0040000002	2.1900001
36	4	2	-0.4048	1.73	0.97400004	3.5109999
37	4	5	0.0798	2.2420001	2.128	5.1920004
38	4	5	0.0798	2.6229999	2.8440001	3.5230002
39	4	5	0.0798	-0.064000003	2.28	4.8920002
40	4	5	0.0798	0.47900003	3.888	4.1539998
41	5	1	0.0955	17.684999	3.592	3.931
42	5	1	0.0955	16.601999	2.7149999	4.52
43	5	2	-0.4048	17.174	2.4189999	5.8030005
44	5	3	0.8478	17.697001	3.6300001	6.2360001
45	5	4	-0.5484	17.795	4.0630002	7.4349999
46	5	2	-0.4048	18.108999	4.3109999	5.0819998
47	5	5	0.0798	17.252001	4.2459998	3.1630001
48	5	5	0.0798	18.538	2.9700003	3.562
49	5	5	0.0798	15.706	3.368	4.6700001
50	5	5	0.0798	16.396	1.8099999	3.95
51	6	1	0.0955	4.704	2.052	19.742001
52	6	1	0.0955	3.6670003	3.1440001	19.898001
53	6	2	-0.4048	4.4070001	4.0960002	20.677002
54	6	3	0.8478	5.6660004	4.118	20.091999
55	6	4	-0.5484	6.4759998	5.1030006	20
56	6	2	-0.4048	5.8920002	2.823	19.606001
57	6	5	0.0798	4.4829998	1.461	18.844
58	6	5	0.0798	4.776	1.4420002	20.676001
59	6	5	0.0798	3.4949999	3.5710001	18.879
60	6	5	0.0798	2.7550004	2.829	20.403002
61	7	1	0.0955	12.45	7.3010006	1.858
62	7	1	0.0955	11.846	8.007	0.66399997
63	7	2	-0.4048	11.139001	6.9200001	0.049000002
64	7	3	0.8478	10.539	6.2529998	1.108
65	7	4	-0.5484	9.4250002	5.625	1.115
66	7	2	-0.4048	11.403	6.4020004	2.201
67	7	5	0.0798	12.654	8.0310001	2.652
68	7	5	0.0798	13.348	6.7080002	1.552
69	7	5	0.0798	11.099	8.7370005	1.066
70	7	5	0.0798	12.574	8.4510002	-0.012
71	8	1	0.0955	14.582	8.1590004	5.0799999
72	8	1	0.0955	16.075001	8.2639999	5.309
73	8	2	-0.4048	16.34	9.5430002	4.7129998
74	8	3	0.8478	15.297001	10.35	5.1459999
75	8	4	-0.5484	15.318001	11.604	5.3889999
76	8	2	-0.4048	14.182	9.5089998	5.2719998
77	8	5	0.0798	14.144	7.4800005	5.823
78	8	5	0.0798	14.367	7.8660007	4.0219998
79	8	5	0.0798	16.225	8.3459997	6.4140005
80	8	5	0.0798	16.659	7.4710007	4.8429999
81	9	1	0.0955	1.001	4.447	7.1259999
82	9	1	0.0955	2.138	4.994	6.2880001
83	9	2	-0.4048	3.2460001	4.7610002	7.1700001
84	9	3	0.8478	3.0239999	3.4890003	7.6780005
85	9	4	-0.5484	3.8910003	2.6129999	8.0200005
86	9	2	-0.4048	1.6320001	3.335	7.7480001
87	9	5	0.0798	0.17300001	4.1479998	6.4700003
88	9	5	0.0798	0.70599997	5.1820002	7.9159999
89	9	5	0.0798	2.2379999	4.3179998	5.4029999
90	9	5	0.0798	2.04	6.0470004	6.0300007
91	10	1	0.0955	8.8299999	19.785999	1.5600001
92	10	1	0.0955	9.6820002	18.632	2.0439999
93	10	2	-0.4048	8.8809996	18.158001	3.1370001
94	10	3	0.8478	7.5809999	18.184999	2.651
95	10	4	-0.5484	6.6129999	17.402	2.944
96	10	2	-0.4048	7.5229998	19.259001	1.753
97	10	5	0.0798	9.0500002	19.987	0.50400001
98	10	5	0.0798	8.96	20.677002	2.224
99	10	5	0.0798	9.6709995	17.863001	1.233
100	10	5	0.0798	10.682	18.917	2.368
101	11	1	0.0955	6.4850001	0.69800007	14.072
102	11	1	0.0955	6.8460007	2.132	14.394001
103	11	2	-0.4048	7.6900001	1.937	15.539
104	11	3	0.8478	8.4899998	0.85500002	15.2
105	11	4	-0.5484	9.698	0.625	15.551
106	11	2	-0.4048	7.7060003	0.035	14.376
107	11	5	0.0798	6.2150002	0.616	13.011
108	11	5	0.0798	5.6919999	0.32699999	14.768
109	11	5	0.0798	7.4749999	2.5030003	13.546
110	11	5	0.0798	5.994	2.77	14.622001
111	12	1	0.0955	16.631001	3.184	11.452
112	12	1	0.0955	16.354	4.0739999	12.644
113	12	2	-0.4048	17.691	4.46	12.998
114	12	3	0.8478	18.305	4.7350001	11.784
115	12	4	-0.5484	19.218	5.5949998	11.538
116	12	2	-0.4048	17.721001	3.8699999	10.848
117	12	5	0.0798	15.745	3.151	10.805
118	12	5	0.0798	16.982	2.1760001	11.787
119	12	5	0.0798	15.814	4.974	12.255
120	12	5	0.0798	15.844001	3.5769999	13.468
121	13	1	0.0955	12.251	16.841999	4.8920002
122	13	1	0.0955	12.02	16.164	3.5580001
123	13	2	-0.4048	13.274001	15.486001	3.3900001
124	13	3	0.8478	13.551001	14.954	4.6420002
125	13	4	-0.5484	14.171	13.871001	4.9200001
126	13	2	-0.4048	13.008001	15.85	5.5739999
127	13	5	0.0798	11.286	17.040001	5.375
128	13	5	0.0798	12.886	17.754	4.7639999
129	13	5	0.0798	11.219	15.4	3.7219999
130	13	5	0.0798	11.815	16.847	2.7360001
131	14	1	0.0955	20.136002	8.2749996	19.469
132	14	1	0.0955	18.665001	8.4250002	19.792999
133	14	2	-0.4048	18.707001	9.5559998	20.676001
134	14	3	0.8478	19.596001	10.434	20.073002
135	14	4	-0.5484	19.580999	11.712	20.096001
136	14	2	-0.4048	20.542	9.6370001	19.412001
137	14	5	0.0798	20.249002	7.763	18.504999
138	14	5	0.0798	20.674999	7.7740002	20.311001
139	14	5	0.0798	18.157	8.7299995	18.844999
140	14	5	0.0798	18.219	7.5539999	20.271
141	15	1	0.0955	2.8440001	16.629999	8.7690001
142	15	1	0.0955	1.5900002	17.472	8.6719999
143	15	2	-0.4048	0.61000001	16.452	8.4289999
144	15	3	0.8478	0.95099998	15.428	9.302
145	15	4	-0.5484	0.17399999	14.599	9.8870001
146	15	2	-0.4048	2.346	15.474	9.4300003
147	15	5	0.0798	3.599	17.162001	9.3629999
148	15	5	0.0798	3.2000003	16.337	7.7500005
149	15	5	0.0798	1.4130001	17.902	9.6899996
150	15	5	0.0798	1.6070001	18.216	7.8769999
151	16	1	0.0955	14.823	8.375	12.936
152	16	1	0.0955	14.457001	9.3950005	11.879
153	16	2	-0.4048	15.651001	10.193	11.863001
154	16	3	0.8478	16.684999	9.2690001	11.913
155	16	4	-0.5484	17.848	9.3570004	11.388
156	16	2	-0.4048	16.207001	8.1890001	12.667
157	16	5	0.0798	14.237001	7.4590006	12.78
158	16	5	0.0798	14.711	8.8120003	13.959
159	16	5	0.0798	14.385	8.8409996	10.91
160	16	5	0.0798	13.575	9.9890003	12.113
161	17	1	0.0955	7.2140002	12.561001	11.997
162	17	1	0.0955	6.0320001	11.642	12.221001
163	17	2	-0.4048	6.3070006	10.624	11.247
164	17	3	0.8478	7.6710005	10.393	11.363
165	17	4	-0.5484	8.3030005	9.2969999	11.183
166	17	2	-0.4048	8.2440004	11.619	11.726
167	17	5	0.0798	7.4050002	13.142	12.91
168	17	5	0.0798	7.0550003	13.193001	11.088
169	17	5	0.0798	6.1550002	11.203001	13.242001
170	17	5	0.0798	5.0620003	12.108001	12.056
171	18	1	0.0955	9.1009998	11.484001	16.690001
172	18	1	0.0955	10.570001	11.154001	16.849001
173	18	2	-0.4048	11.084	11.648001	15.603
174	18	3	0.8478	10.442	12.866	15.422
175	18	4	-0.5484	10.890001	13.916	14.847001
176	18	2	-0.4048	9.1739998	12.727001	16.003
177	18	5	0.0798	8.6359997	11.577	17.68
178	18	5	0.0798	8.6000004	10.736	16.027
179	18	5	0.0798	10.956	11.801	17.676001
180	18	5	0.0798	10.781001	10.094	16.983
181	19	1	0.0955	4.8070002	13.175	9.4659996
182	19	1	0.0955	3.5469999	13.047	8.6350002
183	19	2	-0.4048	3.684	14.191	7.7780004
184	19	3	0.8478	5.0209999	14.187001	7.4050002
185	19	4	-0.5484	5.533	14.580001	6.302
186	19	2	-0.4048	5.7270002	13.654001	8.493
187	19	5	0.0798	5.0879998	12.19	9.8610001
188	19	5	0.0798	4.6789999	13.956001	10.256
189	19	5	0.0798	3.6630001	12.122001	8.0179996
190	19	5	0.0798	2.6240001	13.08	9.2110004
191	20	1	0.0955	13.631	18.707001	17.733999
192	20	1	0.0955	13.764	20.172003	17.375999
193	20	2	-0.4048	12.396001	20.494001	17.087
194	20	3	0.8478	11.672	19.868	18.091999
195	20	4	-0.5484	10.577001	20.249002	18.631001
196	20	2	-0.4048	12.385	18.705999	18.419001
197	20	5	0.0798	14.467	18.41	18.381001
198	20	5	0.0798	13.534001	18.084	16.809999
199	20	5	0.0798	14.067	20.705002	18.312
200	20	5	0.0798	14.416	20.370003	16.525999
201	21	1	0.0955	12.766	14.252	8.2889996
202	21	1	0.0955	13.137001	13.475	9.5340004
203	21	2	-0.4048	12.203001	14.028	10.474
204	21	3	0.8478	11.007	14.101	9.7720003
205	21	4	-0.5484	9.8179998	13.976001	10.224
206	21	2	-0.4048	11.355	14.345001	8.4359999
207	21	5	0.0798	13.060001	13.681001	7.3990006
208	21	5	0.0798	13.200001	15.282001	8.3249998
209	21	5	0.0798	12.860001	12.409	9.3409996
210	21	5	0.0798	14.167	13.611001	9.8590002
211	22	1	0.0955	13.564	10.844001	19.709999
212	22	1	0.0955	14.73	11.809	19.705999
213	22	2	-0.4048	14.081	13.000001	19.235001
214	22	3	0.8478	12.878	13.035001	19.924999
215	22	4	-0.5484	12.22	14.06	20.312002
216	22	2	-0.4048	12.506	11.698	20.127001
217	22	5	0.0798	13.759001	10.036	20.427999
218	22	5	0.0798	13.348	10.483	18.674
219	22	5	0.0798	15.025	11.961001	20.774
220	22	5	0.0798	15.555	11.514	19.059
221	23	1	0.0955	3.9660001	3.9200001	12.497
222	23	1	0.0955	4.8070002	5.0949998	12.948
223	23	2	-0.4048	4.296	5.2870007	14.275
224	23	3	0.8478	4.1799998	4.0029998	14.791001
225	23	4	-0.5484	4.3210001	3.625	16.004
226	23	2	-0.4048	3.872	3.174	13.704
227	23	5	0.0798	4.494	3.3730001	11.705
228	23	5	0.0798	2.9419999	4.2589998	12.203001
229	23	5	0.0798	5.8610005	4.7259998	13.02
230	23	5	0.0798	4.6939998	5.9890003	12.337
231	24	1	0.0955	12.623	1.507	3.628
232	24	1	0.0955	13.205	0.59799999	2.5670002
233	24	2	-0.4048	13.83	1.5650001	1.71
234	24	3	0.8478	14.446	2.4530001	2.5810001
235	24	4	-0.5484	15.527	3.112	2.4030001
236	24	2	-0.4048	13.640001	2.4949999	3.7279999
237	24	5	0.0798	12.491001	0.94400001	4.5609999
238	24	5	0.0798	11.685	1.9920001	3.2590003
239	24	5	0.0798	14.003	-0.0070000002	3.0650001
240	24	5	0.0798	12.468	-0	2.033
241	25	1	0.0955	11.466	4.7459998	10.987
242	25	1	0.0955	10.697001	5.8179998	10.245
243	25	2	-0.4048	11.561001	6.0229998	9.1160002
244	25	3	0.8478	11.937	4.744	8.7299995
245	25	4	-0.5484	12.197	4.3210001	7.552
246	25	2	-0.4048	11.98	3.98	9.9040003
247	25	5	0.0798	10.777	4.1700001	11.619
248	25	5	0.0798	12.323	5.1940002	11.548
249	25	5	0.0798	9.75	5.3430004	9.8870001
250	25	5	0.0798	10.545	6.7350001	10.811
251	26	1	0.0955	5.5170007	11.723	15.476
252	26	1	0.0955	4.5110002	10.624	15.209
253	26	2	-0.4048	4.4829998	9.9809999	16.493
254	26	3	0.8478	4.4629998	11.027001	17.403999
255	26	4	-0.5484	3.901	11.063	18.552
256	26	2	-0.4048	5.1929998	12.069	16.816
257	26	5	0.0798	5.349	12.552	14.775
258	26	5	0.0798	6.559	11.317	15.45
259	26	5	0.0798	3.5250001	11.125001	15.039
260	26	5	0.0798	4.7969999	9.934	14.417
261	27	1	0.0955	5.2800007	17.532	7.1430006
262	27	1	0.0955	6.6469998	17.981001	6.6729999
263	27	2	-0.4048	7.4629998	17.499001	7.7509999
264	27	3	0.8478	6.9679999	16.231001	8.0209999
265	27	4	-0.5484	7.6079998	15.206001	8.4379997
266	27	2	-0.4048	5.5949998	16.282	7.744
267	27	5	0.0798	4.6110001	17.426001	6.2779999
268	27	5	0.0798	4.8889999	18.222	7.9310007
269	27	5	0.0798	6.8810005	17.386999	5.7540007
270	27	5	0.0798	6.7460003	19.056999	6.5390005
271	28	1	0.0955	2.346	14.686001	19.811001
272	28	1	0.0955	3.8460002	14.5	19.726999
273	28	2	-0.4048	3.914	13.190001	19.143999
274	28	3	0.8478	2.9449999	13.202	18.150999
275	28	4	-0.5484	2.9519999	12.581	17.034
276	28	2	-0.4048	1.926	14.047001	18.612
277	28	5	0.0798	2.109	15.757	19.822001
278	28	5	0.0798	1.929	14.124001	20.683001
279	28	5	0.0798	4.2199998	15.244001	18.98
280	28	5	0.0798	4.3590002	14.544	20.687
281	29	1	0.0955	0.85299999	9.691	11.182001
282	29	1	0.0955	2.2019999	9.191	11.652001
283	29	2	-0.4048	1.846	8.6389999	12.928
284	29	3	0.8478	0.65800005	7.96	12.692001
285	29	4	-0.5484	0.23	6.8979998	13.262
286	29	2	-0.4048	-0.0040000002	8.6730003	11.683001
287	29	5	0.0798	0.84300005	9.7469997	10.086001
288	29	5	0.0798	0.59500003	10.657	11.684
289	29	5	0.0798	2.49	8.3540001	10.968
290	29	5	0.0798	2.9620001	9.9659996	11.743001
291	30	1	0.0955	16.356001	8.2189999	1.7470001
292	30	1	0.0955	17.489	9.1350002	1.336
293	30	2	-0.4048	16.753	10.32	0.995
294	30	3	0.8478	15.807	10.443	2.0020001
295	30	4	-0.5484	15.312	11.514	2.493
296	30	2	-0.4048	15.484	9.1359997	2.395
297	30	5	0.0798	16.737	7.4480004	2.4289999
298	30	5	0.0798	15.838001	7.8049998	0.84600002
299	30	5	0.0798	18.087	9.3400002	2.2590001
300	30	5	0.0798	18.080999	8.7709999	0.49900001
301	31	1	0.1266165	4.2020001	19.604	16.385
302	31	2	-0.3889835	5.5320001	19.315001	16.802
303	31	3	0.7551165	5.8590002	19.690001	18.098
304	31	4	-0.5800835	4.967	20.248001	18.790001
305	31	2	-0.3889835	7.1420002	19.438999	18.575001
306	31	1	0.1266165	7.4940004	19.813999	19.893
307	31	5	0.0582835	4.0370002	20.684002	16.496
308	31	5	0.0582835	3.964	19.202	15.384001
309	31	5	0.0582835	3.5539999	19.063	17.132
310	31	5	0.0582835	7.5570006	18.934999	20.561001
311	31	5	0.0582835	8.4549999	20.360001	19.806
312	31	5	0.0582835	6.6880007	20.459999	20.346001
313	32	1	0.1266165	18.150999	7.1279998	14.959001
314	32	2	-0.3889835	17.813999	8.2620001	14.167
315	32	3	0.7551165	16.799999	9.0710001	14.66
316	32	4	-0.5800835	16.267	8.7419996	15.753001
317	32	2	-0.3889835	16.417999	10.198001	13.938
318	32	1	0.1266165	15.386	11.034001	14.425
319	32	5	0.0582835	17.243999	6.5229998	15.091
320	32	5	0.0582835	19.024	6.5720005	14.573001
321	32	5	0.0582835	18.440001	7.5640006	15.958
322	32	5	0.0582835	15.79	11.981	14.83
323	32	5	0.0582835	14.694	11.189001	13.573
324	32	5	0.0582835	14.866	10.548	15.301
325	33	1	0.1266165	10.644001	11.202001	9.6029997
326	33	2	-0.3889835	9.323	10.828	9.9790001
327	33	3	0.7551165	8.4390001	10.582	8.9370003
328	33	4	-0.5800835	8.8710003	10.707001	7.7610006
329	33	2	-0.3889835	7.1300001	10.212001	9.2299995
330	33	1	0.1266165	6.2150002	9.9569998	8.1809998
331	33	5	0.0582835	10.578001	12.098	8.9709997
332	33	5	0.0582835	11.332001	11.294001	10.463
333	33	5	0.0582835	11.005	10.342001	8.9689999
334	33	5	0.0582835	6.0219998	8.8730001	8.0670004
335	33	5	0.0582835	5.302	10.534	8.4289999
336	33	5	0.0582835	6.6529999	10.275001	7.191
337	34	1	0.1266165	6.1260004	15.961	11.131
338	34	2	-0.3889835	5.579	14.966001	11.99
339	34	3	0.7551165	4.4590001	15.34	12.721
340	34	4	-0.5800835	4.0240002	16.511999	12.567
341	34	2	-0.3889835	3.8710001	14.418	13.582
342	34	1	0.1266165	2.7290001	14.781	14.334001
343	34	5	0.0582835	6.3740005	16.84	11.742
344	34	5	0.0582835	6.954	15.587	10.504
345	34	5	0.0582835	5.2740002	16.232	10.444001
346	34	5	0.0582835	1.8120002	14.314001	13.928001
347	34	5	0.0582835	2.944	14.474	15.377001
348	34	5	0.0582835	2.543	15.891	14.257001
349	35	1	0.1266165	15.166	19.547001	6.3950005
350	35	2	-0.3889835	13.806	19.125	6.3950005
351	35	3	0.7551165	12.984	19.715	7.3449998
352	35	4	-0.5800835	13.5	20.565002	8.1190004
353	35	2	-0.3889835	11.643	19.35	7.4040003
354	35	1	0.1266165	10.79	19.941999	8.3660002
355	35	5	0.0582835	15.582	19.358999	7.3940001
356	35	5	0.0582835	15.754	19.121	5.5630007
357	35	5	0.0582835	15.109	20.662001	6.2340002
358	35	5	0.0582835	10.107001	20.679001	7.902
359	35	5	0.0582835	10.254001	19.101999	8.8520002
360	35	5	0.0582835	11.391	20.539	9.1110001
361	36	1	0.1266165	17.459	12.534	4.322
362	36	2	-0.3889835	16.75	13.273	5.3109999
363	36	3	0.7551165	16.657	14.642	5.0999999
364	36	4	-0.5800835	17.202	15.113	4.066
365	36	2	-0.3889835	15.978001	15.427	6.0260005
366	36	1	0.1266165	15.874	16.825001	5.8270001
367	36	5	0.0582835	18.472	12.953	4.2459998
368	36	5	0.0582835	17.423	11.442001	4.4860001
369	36	5	0.0582835	16.908001	12.753	3.3640001
370	36	5	0.0582835	14.855	17.113001	5.5050001
371	36	5	0.0582835	16.17	17.290001	6.789
372	36	5	0.0582835	16.545	17.153	4.9819999
373	37	1	0.1266165	8.3140001	0.58099997	2.5940001
374	37	2	-0.3889835	8.4510002	0.48500001	4.0079999
375	37	3	0.7551165	7.3850007	0.96399999	4.757
376	37	4	-0.5800835	6.3969998	1.4380001	4.1350002
377	37	2	-0.3889835	7.4489999	0.903	6.1459999
378	37	1	0.1266165	6.3709998	1.386	6.9260001
379	37	5	0.0582835	8.1429996	1.635	2.339
380	37	5	0.0582835	9.1440001	0.10200001	2.0439999
381	37	5	0.0582835	7.375	-0	2.3670001
382	37	5	0.0582835	5.7840004	0.55599999	7.3629999
383	37	5	0.0582835	6.8249998	2.0450001	7.6929998
384	37	5	0.0582835	5.6370001	1.946	6.2779999
385	38	1	0.1266165	0.74800009	8.7460003	19.952
386	38	2	-0.3889835	0.62199998	7.9180002	18.801001
387	38	3	0.7551165	0.83800006	6.5619998	18.999001
388	38	4	-0.5800835	1.126	6.178	20.164001
389	38	2	-0.3889835	0.73199999	5.6919999	17.917999
390	38	1	0.1266165	0.94999999	4.3060002	18.101
391	38	5	0.0582835	1.756	8.6020002	20.367001
392	38	5	0.0582835	0.47400001	9.8000002	19.763
393	38	5	0.0582835	-0.0020000001	8.3249998	20.681
394	38	5	0.0582835	-0.001	3.7400002	18.076
395	38	5	0.0582835	1.653	4.0019999	17.299999
396	38	5	0.0582835	1.375	4.1059999	19.127001
397	39	1	0.1266165	10.500001	8.1660004	4.0450001
398	39	2	-0.3889835	11.012	9.309	3.368
399	39	3	0.7551165	10.129	10.366	3.2019999
400	39	4	-0.5800835	8.9610004	10.231	3.6559999
401	39	2	-0.3889835	10.560001	11.516	2.549
402	39	1	0.1266165	9.6730003	12.604	2.3699999
403	39	5	0.0582835	9.618	7.8109999	3.4949999
404	39	5	0.0582835	11.266001	7.3930001	4.2350001
405	39	5	0.0582835	10.163001	8.5640001	5.0440001
406	39	5	0.0582835	9.915	13.44	3.053
407	39	5	0.0582835	9.75	12.885	1.3
408	39	5	0.0582835	8.6219997	12.304	2.6470003
409	40	1	0.1266165	1.3740001	11.919001	4.6069999
410	40	2	-0.3889835	2.688	12.460001	4.678
411	40	3	0.7551165	3.4089999	12.469	3.4920001
412	40	4	-0.5800835	2.8510001	12.002	2.4630001
413	40	2	-0.3889835	4.7020001	12.983	3.4860001
414	40	1	0.1266165	5.4520006	12.999	2.286
415	40	5	0.0582835	1.4490001	10.890001	4.2270002
416	40	5	0.0582835	0.80900007	12.022	5.5510001
417	40	5	0.0582835	0.85500002	12.551001	3.8299999
418	40	5	0.0582835	5.5229998	14.021	1.867
419	40	5	0.0582835	6.441	12.568001	2.5420001
420	40	5	0.0582835	4.9299998	12.399	1.487
421	41	1	0.1266165	0.47000003	7.3189998	1.707
422	41	2	-0.3889835	0.003	8.2530003	2.674
423	41	3	0.7551165	0.63300008	8.217	3.9110003
424	41	4	-0.5800835	1.5540001	7.3720002	4.0739999
425	41	2	-0.3889835	0.229	9.1009998	4.9060001
426	41	1	0.1266165	0.86000001	9.0780001	6.1719999
427	41	5	0.0582835	0.368	6.3099999	2.1289999
428	41	5	0.0582835	0.003	7.4520006	0.71399999
429	41	5	0.0582835	1.567	7.5550003	1.601
430	41	5	0.0582835	1.538	9.9429998	6.302
431	41	5	0.0582835	0.041000001	9.0550003	6.9180007
432	41	5	0.0582835	1.529	8.1739998	6.2620001
433	42	1	0.1266165	7.2399998	7.3439999	14.909
434	42	2	-0.3889835	6.1420007	7.6900001	14.071001
435	42	3	0.7551165	6.4070005	7.744	12.71
436	42	4	-0.5800835	7.5809999	7.4889998	12.33
437	42	2	-0.3889835	5.381	8.0760002	11.831001
438	42	1	0.1266165	5.632	8.1370001	10.439
439	42	5	0.0582835	8.0459995	8.0690002	14.731001
440	42	5	0.0582835	6.9569998	7.2210002	15.969
441	42	5	0.0582835	7.5739999	6.3369999	14.527
442	42	5	0.0582835	5.1999998	7.2670002	9.9110003
443	42	5	0.0582835	5.21	9.1029997	10.098
444	42	5	0.0582835	6.7399998	8.073	10.237001
445	43	1	0.1266165	2.9630003	7.6990004	15.175
446	43	2	-0.3889835	2.178	6.9289999	14.271001
447	43	3	0.7551165	1.998	5.5929999	14.605
448	43	4	-0.5800835	2.5369999	5.1760001	15.665001
449	43	2	-0.3889835	1.2410001	4.7789998	13.768
450	43	1	0.1266165	1.0470001	3.4150002	14.092001
451	43	5	0.0582835	3.9470003	7.2180004	15.267
452	43	5	0.0582835	2.997	8.7720003	14.916
453	43	5	0.0582835	2.424	7.6040001	16.160999
454	43	5	0.0582835	0.021	3.2290003	14.46
455	43	5	0.0582835	1.285	2.849	13.169001
456	43	5	0.0582835	1.717	3.1159999	14.948
457	44	1	0.1266165	0.62099999	1.041	8.585
458	44	2	-0.3889835	1.9910001	1.223	8.2449999
459	44	3	0.7551165	2.3610001	0.82700008	6.9670005
460	44	4	-0.5800835	1.4670001	0.345	6.2220001
461	44	2	-0.3889835	3.6849999	0.97600007	6.566
462	44	1	0.1266165	4.0799999	0.57800001	5.2670002
463	44	5	0.0582835	0.37599999	-0.022	8.4549999
464	44	5	0.0582835	0.35800004	1.457	9.5740004
465	44	5	0.0582835	0.061000004	1.635	7.8060002
466	44	5	0.0582835	4.2509999	1.452	4.6100001
467	44	5	0.0582835	4.987	-0.044	5.4039998
468	44	5	0.0582835	3.2520003	0	4.7639999
469	45	1	0.1266165	13.974	16.158001	19.618999
470	45	2	-0.3889835	15.292	16.658001	19.423
471	45	3	0.7551165	16.326	15.829	19.834
472	45	4	-0.5800835	16.02	14.717001	20.341
473	45	2	-0.3889835	17.642	16.253	19.673
474	45	1	0.1266165	18.709999	15.421	20.087002
475	45	5	0.0582835	13.850001	15.935	20.688
476	45	5	0.0582835	13.192	16.811001	19.190001
477	45	5	0.0582835	13.957	15.187	19.046
478	45	5	0.0582835	19.223	14.961	19.221001
479	45	5	0.0582835	19.378	16.065001	20.693001
480	45	5	0.0582835	18.319	14.548	20.684002
481	46	1	0.1266165	13.467001	7.0560002	15.387
482	46	2	-0.3889835	13.044	6.1550002	14.369
483	46	3	0.7551165	13.394001	4.8239999	14.549
484	46	4	-0.5800835	14.049	4.5250001	15.582
485	46	2	-0.3889835	13.014001	3.8870001	13.593
486	46	1	0.1266165	13.362001	2.5250003	13.759001
487	46	5	0.0582835	14.560001	6.9829998	15.474
488	46	5	0.0582835	13.083	8.0830002	15.247001
489	46	5	0.0582835	13.004	6.6459999	16.33
490	46	5	0.0582835	12.487	1.9170001	14.056
491	46	5	0.0582835	13.803	2.2060001	12.794
492	46	5	0.0582835	14.093	2.4070001	14.61
493	47	1	0.1266165	20.195	13.347	9.9750004
494	47	2	-0.3889835	20.557001	14.721001	9.8950005
495	47	3	0.7551165	20.068001	15.541	10.903
496	47	4	-0.5800835	19.353001	15.01	11.794
497	47	2	-0.3889835	20.382002	16.896	10.890001
498	47	1	0.1266165	19.892	17.747	11.909
499	47	5	0.0582835	19.098	13.284	9.9860001
500	47	5	0.0582835	20.685001	12.723	9.2060003
501	47	5	0.0582835	20.583	13.016	10.98
502	47	5	0.0582835	20.692001	18.025999	12.622
503	47	5	0.0582835	19.452999	18.621	11.389
504	47	5	0.0582835	19.125999	17.207001	12.537001
505	48	1	0.1266165	6.9419999	7.7570004	3.721
506	48	2	-0.3889835	7.533	6.5500002	3.2500002
507	48	3	0.7551165	6.7670007	5.7989998	2.3699999
508	48	4	-0.5800835	5.6269999	6.2379999	2.0639999
509	48	2	-0.3889835	7.2810001	4.6069999	1.8690001
510	48	1	0.1266165	6.513	3.8280001	0.97000003
511	48	5	0.0582835	5.9890003	7.5029998	4.204
512	48	5	0.0582835	7.6259999	8.3640003	4.3410001
513	48	5	0.0582835	6.724	8.3430004	2.7830002
514	48	5	0.0582835	6.8970003	3.908	-0.064000003
515	48	5	0.0582835	6.5469999	2.7920003	1.364
516	48	5	0.0582835	5.4570003	4.2179999	0.91500008
517	49	1	0.1266165	7.848	0.39500001	19.542999
518	49	2	-0.3889835	7.842	1.816	19.455
519	49	3	0.7551165	8.6789999	2.3710001	18.497
520	49	4	-0.5800835	9.3669996	1.585	17.792999
521	49	2	-0.3889835	8.7250004	3.7550001	18.354
522	49	1	0.1266165	9.5719995	4.3379998	17.382999
523	49	5	0.0582835	8.8789997	0.07	19.738001
524	49	5	0.0582835	7.099	-0	20.252001
525	49	5	0.0582835	7.553	0.052000001	18.51
526	49	5	0.0582835	8.9949999	4.717	16.517
527	49	5	0.0582835	10.133	5.1360006	17.91
528	49	5	0.0582835	10.265001	3.562	16.947001
529	50	1	0.1266165	8.9160004	6.7729998	19.659
530	50	2	-0.3889835	8.3669996	7.763	20.521
531	50	3	0.7551165	7.6760001	8.7959995	19.900999
532	50	4	-0.5800835	7.5920005	8.7729998	18.645
533	50	2	-0.3889835	7.112	9.8000002	20.681999
534	50	1	0.1266165	6.4039998	10.861	20.068001
535	50	5	0.0582835	9.5860004	7.2740002	18.947001
536	50	5	0.0582835	9.3719997	5.9260006	20.202999
537	50	5	0.0582835	8.026	6.3730001	19.094
538	50	5	0.0582835	5.3119998	10.754	20.209999
539	50	5	0.0582835	6.8090005	11.792001	20.511999
540	50	5	0.0582835	6.5510006	10.835	18.948999
541	51	1	0.1266165	3.9190001	8.4729996	18.653
542	51	2	-0.3889835	3.9360001	7.3800001	17.742001
543	51	3	0.7551165	5.026	6.526	17.834
544	51	4	-0.5800835	5.9000006	6.783	18.702999
545	51	2	-0.3889835	5.1090002	5.4349999	16.974001
546	51	1	0.1266165	6.2129998	4.5539999	17.052999
547	51	5	0.0582835	4.8410001	9.0530005	18.507
548	51	5	0.0582835	2.9879999	9.0670004	18.605
549	51	5	0.0582835	3.9590001	7.9870005	19.67
550	51	5	0.0582835	5.9310002	3.5929999	17.524
551	51	5	0.0582835	6.5799999	4.434	16.014
552	51	5	0.0582835	7.0090003	4.98	17.729
553	52	1	0.1266165	15.486001	5.3380003	9.6700001
554	52	2	-0.3889835	16.452	6.0430002	10.442
555	52	3	0.7551165	17.49	6.6300006	9.7309999
556	52	4	-0.5800835	17.493	6.4930005	8.4790001
557	52	2	-0.3889835	18.471001	7.3360004	10.42
558	52	1	0.1266165	19.537001	7.9400005	9.7130003
559	52	5	0.0582835	16.009001	4.5609999	9.0959997
560	52	5	0.0582835	14.633001	4.9710002	10.27
561	52	5	0.0582835	15.089001	6.1100001	8.9510002
562	52	5	0.0582835	19.416	9.0389996	9.6599998
563	52	5	0.0582835	20.462999	7.6329999	10.239
564	52	5	0.0582835	19.537001	7.6009998	8.6370001
565	53	1	0.1266165	16.194	2.2880001	18.405001
566	53	2	-0.3889835	16.790001	3.5440001	18.712
567	53	3	0.7551165	18.160999	3.6340001	18.51
568	53	4	-0.5800835	18.757999	2.612	18.079
569	53	2	-0.3889835	18.811001	4.8319998	18.788
570	53	1	0.1266165	20.208	4.9419999	18.589001
571	53	5	0.0582835	16.695	1.5170001	19.007
572	53	5	0.0582835	15.093001	2.296	18.490999
573	53	5	0.0582835	16.448999	2.1170001	17.32
574	53	5	0.0582835	20.441999	5.5419998	17.688999
575	53	5	0.0582835	20.612	5.3860002	19.52
576	53	5	0.0582835	20.657001	3.928	18.381001
577	54	1	0.1266165	13.849	14.443001	12.805
578	54	2	-0.3889835	13.901	15.079001	11.532001
579	54	3	0.7551165	12.877001	15.973	11.255001
580	54	4	-0.5800835	11.995	16.146999	12.138
581	54	2	-0.3889835	12.863001	16.632	10.029
582	54	1	0.1266165	11.826	17.546	9.7279997
583	54	5	0.0582835	12.887	13.919	12.885
584	54	5	0.0582835	14.734	13.817	13.015001
585	54	5	0.0582835	13.855	15.297001	13.542
586	54	5	0.0582835	12.181	18.593	9.7810001
587	54	5	0.0582835	11.457	17.266001	8.7209997
588	54	5	0.0582835	11.008	17.483	10.503
589	55	1	0.1266165	1.258	14.027	0.73700005
590	55	2	-0.3889835	1.462	14.636001	2.007
591	55	3	0.7551165	2.7410002	15.113	2.257
592	55	4	-0.5800835	3.6070001	14.969	1.3530002
593	55	2	-0.3889835	3.0139999	15.72	3.4790001
594	55	1	0.1266165	4.3119998	16.212	3.7509999
595	55	5	0.0582835	1.973	13.199	0.63700008
596	55	5	0.0582835	0.20400001	13.751	0.55000001
597	55	5	0.0582835	1.5350001	14.831	-0.0040000002
598	55	5	0.0582835	4.3460002	17.316999	3.701
599	55	5	0.0582835	4.5819998	15.816001	4.75
600	55	5	0.0582835	5.0370002	15.868	2.9579999
601	56	1	0.1266165	10.426001	0.38499999	6.9230003
602	56	2	-0.3889835	9.1009998	0.017000001	7.2940006
603	56	3	0.7551165	8.6199999	0.574	8.4709997
604	56	4	-0.5800835	9.3839998	1.348	9.1079998
605	56	2	-0.3889835	7.3330002	0.25799999	8.8959999
606	56	1	0.1266165	6.8260002	0.81600004	10.093001
607	56	5	0.0582835	11.098	0.11300001	7.7480001
608	56	5	0.0582835	10.726	-0.0070000002	5.9350004
609	56	5	0.0582835	10.389	1.5089999	6.8460007
610	56	5	0.0582835	6.0830002	1.609	9.8870001
611	56	5	0.0582835	6.4050002	-0.032000002	10.668
612	56	5	0.0582835	7.6490002	1.337	10.663
613	57	1	0.1266165	10.183	18.638	13.039
614	57	2	-0.3889835	9.4589996	18.104	11.936001
615	57	3	0.7551165	8.9309998	19.030001	11.047
616	57	4	-0.5800835	9.1309996	20.250999	11.285
617	57	2	-0.3889835	8.2110004	18.58	9.9449997
618	57	1	0.1266165	7.665	19.51	9.0279999
619	57	5	0.0582835	9.5159998	19.318001	13.587
620	57	5	0.0582835	10.662001	17.862	13.662
621	57	5	0.0582835	11.004	19.247	12.563
622	57	5	0.0582835	8.2390003	19.531	8.0819998
623	57	5	0.0582835	6.6079998	19.209	8.8850002
624	57	5	0.0582835	7.7470007	20.559002	9.4359999
625	58	1	0.1266165	3.6030002	0.95600003	12.086
626	58	2	-0.3889835	4.0819998	1.002	13.425001
627	58	3	0.7551165	3.1159999	0.972	14.421
628	58	4	-0.5800835	1.9090002	0.90899998	14.064001
629	58	2	-0.3889835	3.5120001	1.013	15.754
630	58	1	0.1266165	2.54	0.98400003	16.783001
631	58	5	0.0582835	2.915	1.8010001	11.941
632	58	5	0.0582835	4.4109998	0.88600004	11.336001
633	58	5	0.0582835	3.0090001	-0.001	12.037
634	58	5	0.0582835	2.513	-0.001	17.285999
635	58	5	0.0582835	2.802	1.814	17.469999
636	58	5	0.0582835	1.506	1.113	16.35
637	59	1	0.1266165	1.0700001	18.108	15.807
638	59	2	-0.3889835	1.2810001	16.882999	16.499001
639	59	3	0.7551165	0.85799998	15.733	15.848
640	59	4	-0.5800835	0.32600001	15.865001	14.713
641	59	2	-0.3889835	1.033	14.498	16.465
642	59	1	0.1266165	0.60600001	13.315	15.815
643	59	5	0.0582835	-0.0040000002	18.195999	15.59
644	59	5	0.0582835	1.5089999	18.981001	16.323
645	59	5	0.0582835	1.622	17.976	14.834
646	59	5	0.0582835	1.464	12.738	15.422
647	59	5	0.0582835	0.016000001	12.753	16.566999
648	59	5	0.0582835	-0.011	13.567	14.905
649	60	1	0.1266165	18.797001	19.569	7.3780003
650	60	2	-0.3889835	17.985001	19.131001	8.4619999
651	60	3	0.7551165	18.224001	19.737	9.6870003
652	60	4	-0.5800835	19.128	20.613001	9.7410002
653	60	2	-0.3889835	17.468	19.358	10.792
654	60	1	0.1266165	17.698	19.965	12.05
655	60	5	0.0582835	19.849001	19.412001	7.6539998
656	60	5	0.0582835	18.504999	19.127001	6.408
657	60	5	0.0582835	18.604	20.678001	7.3180003
658	60	5	0.0582835	16.895	20.681	12.306
659	60	5	0.0582835	17.783001	19.132	12.776001
660	60	5	0.0582835	18.638	20.587999	12.019
661	61	1	0.1266165	5.1020002	4.4640002	9.3629999
662	61	2	-0.3889835	3.8010001	4.0079999	9.717
663	61	3	0.7551165	2.902	4.9829998	10.127
664	61	4	-0.5800835	3.306	6.1770005	10.154
665	61	2	-0.3889835	1.612	4.6100001	10.488
666	61	1	0.1266165	0.68300003	5.5910006	10.909
667	61	5	0.0582835	5.5229998	4.9959998	10.227001
668	61	5	0.0582835	5.7470007	3.6660001	8.9549999
669	61	5	0.0582835	4.9190001	5.2090001	8.5369997
670	61	5	0.0582835	-0.075000003	5.7930002	10.127
671	61	5	0.0582835	0.24000001	5.2060003	11.849001
672	61	5	0.0582835	1.2	6.5810003	11.067
673	62	1	0.1266165	17.433001	20.088001	0.56300002
674	62	2	-0.3889835	16.145	20.305002	-0.003
675	62	3	0.7551165	15.069	19.813999	0.72300005
676	62	4	-0.5800835	15.315	19.223	1.8080001
677	62	2	-0.3889835	13.780001	19.989	0.23
678	62	1	0.1266165	12.671	19.493999	0.95600003
679	62	5	0.0582835	17.563999	19.007	0.708
680	62	5	0.0582835	18.246	20.579002	-0.0020000001
681	62	5	0.0582835	17.377001	20.582001	1.5750002
682	62	5	0.0582835	12.113	20.313	1.45
683	62	5	0.0582835	12.056	18.931999	0.22499999
684	62	5	0.0582835	13.018	18.834	1.803
685	63	1	0.1266165	13.027	1.698	9.1569996
686	63	2	-0.3889835	12.671	1.982	10.505
687	63	3	0.7551165	11.595	1.2690001	11.016001
688	63	4	-0.5800835	11.027001	0.442	10.255001
689	63	2	-0.3889835	11.191	1.495	12.328
690	63	1	0.1266165	10.096001	0.778	12.865
691	63	5	0.0582835	12.146	1.882	8.526
692	63	5	0.0582835	13.944	2.2190001	8.8290005
693	63	5	0.0582835	13.245	0.59200001	9.1540003
694	63	5	0.0582835	10.432	-0.0020000001	13.575
695	63	5	0.0582835	9.4390001	1.5369999	13.336
696	63	5	0.0582835	9.5600004	0.211	12.05
697	64	1	0.1266165	13.044	14.123	16.922001
698	64	2	-0.3889835	14.450001	13.921	17.023001
699	64	3	0.7551165	14.877	12.600001	17.037001
700	64	4	-0.5800835	13.999	11.7	16.962
701	64	2	-0.3889835	16.238001	12.327	17.132999
702	64	1	0.1266165	16.691	10.986	17.15
703	64	5	0.0582835	12.564	13.601	17.761999
704	64	5	0.0582835	12.764	15.186	16.819
705	64	5	0.0582835	12.757	13.601	15.965
706	64	5	0.0582835	17.159	10.706	16.187
707	64	5	0.0582835	17.391001	10.914001	18.006001
708	64	5	0.0582835	15.821	10.278	17.261999
709	65	1	0.1266165	2.8210001	5.2220006	2.378
710	65	2	-0.3889835	3.8929999	4.289	2.4590001
711	65	3	0.7551165	4.9050002	4.599	3.3570001
712	65	4	-0.5800835	4.7950001	5.6660004	4.0170002
713	65	2	-0.3889835	5.9850001	3.7320004	3.49
714	65	1	0.1266165	7.026	4.0320001	4.4000001
715	65	5	0.0582835	3.2420001	6.2030001	2.1170001
716	65	5	0.0582835	1.998	4.8839998	1.7220001
717	65	5	0.0582835	2.418	5.2740002	3.4300003
718	65	5	0.0582835	6.9740005	3.3900001	5.3000002
719	65	5	0.0582835	7.9699998	3.9050002	3.8320003
720	65	5	0.0582835	6.915	5.0840001	4.7919998
721	66	1	0.1266165	3.6429999	9.7110004	0.926
722	66	2	-0.3889835	4.9660001	10.233001	0.97800004
723	66	3	0.7551165	5.9920001	9.2989998	0.94200003
724	66	4	-0.5800835	5.6739998	8.0819998	0.86800003
725	66	2	-0.3889835	7.3119998	9.7360001	0.98900008
726	66	1	0.1266165	8.3710003	8.7980003	0.954
727	66	5	0.0582835	3.5190001	9.0120001	1.7640001
728	66	5	0.0582835	2.868	10.496	0.86100006
729	66	5	0.0582835	3.6140001	9.125	-0.037
730	66	5	0.0582835	8.8769999	8.7959995	-0.031000001
731	66	5	0.0582835	9.0480003	9.0740004	1.7869999
732	66	5	0.0582835	7.9720001	7.7500005	1.072
733	67	1	0.1266165	20.056	11.962	6.0700006
734	67	2	-0.3889835	20.422001	13.329	5.9159999
735	67	3	0.7551165	19.968	14.196	6.9000001
736	67	4	-0.5800835	19.277	13.711	7.835
737	67	2	-0.3889835	20.287001	15.548	6.8140001
738	67	1	0.1266165	19.832001	16.447001	7.8070002
739	67	5	0.0582835	18.959999	11.906	6.1170001
740	67	5	0.0582835	20.52	11.299	5.3170004
741	67	5	0.0582835	20.473001	11.675	7.0770001
742	67	5	0.0582835	20.653999	16.754999	8.4820004
743	67	5	0.0582835	19.381001	17.299	7.2610002
744	67	5	0.0582835	19.083	15.942	8.4820004
745	68	1	0.1266165	12.748001	11.721	0.67699999
746	68	2	-0.3889835	13.626001	12.610001	-0.0060000001
747	68	3	0.7551165	13.956001	13.778	0.66799998
748	68	4	-0.5800835	13.458	13.955001	1.811
749	68	2	-0.3889835	14.809	14.694	0.061000004
750	68	1	0.1266165	15.156001	15.890001	0.73199999
751	68	5	0.0582835	11.826	12.268	0.91500008
752	68	5	0.0582835	12.593001	10.766	0.142
753	68	5	0.0582835	13.284	11.487001	1.6400001
754	68	5	0.0582835	16.194	15.853	1.115
755	68	5	0.0582835	14.995001	16.705999	-0
756	68	5	0.0582835	14.517001	16.025	1.652
757	69	1	0.1266165	5.3730006	17.969999	0.74100006
758	69	2	-0.3889835	4.1609998	18.018	-0.0040000002
759	69	3	0.7551165	3.0150003	17.613001	0.66700006
760	69	4	-0.5800835	3.1389999	17.24	1.864
761	69	2	-0.3889835	1.7940001	17.632999	0.001
762	69	1	0.1266165	0.616	17.223	0.66900009
763	69	5	0.0582835	5.513	16.940001	1.097
764	69	5	0.0582835	6.2360001	18.391001	0.19500001
765	69	5	0.0582835	5.177	18.634001	1.631
766	69	5	0.0582835	-0.021	18.089001	0.93300009
767	69	5	0.0582835	0.114	16.51	-0.014
768	69	5	0.0582835	0.87099999	16.743999	1.658
769	70	1	0.1266165	20.269001	19.764999	4.4920001
770	70	2	-0.3889835	20.678001	18.620001	3.7520001
771	70	3	0.7551165	20.095001	17.415001	4.1209998
772	70	4	-0.5800835	19.264999	17.431999	5.0679998
773	70	2	-0.3889835	20.447002	16.253	3.441
774	70	1	0.1266165	19.863001	15.016001	3.8039999
775	70	5	0.0582835	20.480001	19.577	5.5539999
776	70	5	0.0582835	20.688	20.709	4.099
777	70	5	0.0582835	19.152	19.802999	4.3499999
778	70	5	0.0582835	19.111	14.69	3.0610001
779	70	5	0.0582835	20.706001	14.303001	3.908
780	70	5	0.0582835	19.285999	15.121001	4.7670002
781	71	1	0.1266165	9.4289999	17.268	15.828
782	71	2	-0.3889835	8.2580004	17.044001	16.606001
783	71	3	0.7551165	8.0430002	15.737	17.021
784	71	4	-0.5800835	8.8889999	14.867	16.681
785	71	2	-0.3889835	6.9180007	15.443	17.785999
786	71	1	0.1266165	6.6830006	14.116	18.218
787	71	5	0.0582835	9.382	16.615999	14.945001
788	71	5	0.0582835	9.6049995	18.336	15.604
789	71	5	0.0582835	10.273	16.917	16.488001
790	71	5	0.0582835	6.8959999	13.999	19.297001
791	71	5	0.0582835	5.6269999	13.897	17.959999
792	71	5	0.0582835	7.3930001	13.404001	17.707001
793	72	1	0.1266165	18.858999	14.649	14.157
794	72	2	-0.3889835	19.882999	15.526	14.615001
795	72	3	0.7551165	19.469	16.584999	15.41
796	72	4	-0.5800835	18.238001	16.684	15.659
797	72	2	-0.3889835	20.416	17.483	15.894001
798	72	1	0.1266165	20.011002	18.569	16.705999
799	72	5	0.0582835	18.122999	15.246	13.601
800	72	5	0.0582835	19.249001	13.773001	13.609
801	72	5	0.0582835	18.375	14.271001	15.102
802	72	5	0.0582835	20.281	18.403	17.767
803	72	5	0.0582835	20.495003	19.466999	16.273001
804	72	5	0.0582835	18.886999	18.660999	16.709
805	73	1	0.1266165	15.036	5.3699999	6.6129999
806	73	2	-0.3889835	15.646	4.1339998	6.9689999
807	73	3	0.7551165	14.913	2.9890001	6.6869998
808	73	4	-0.5800835	13.784	3.1350002	6.1479998
809	73	2	-0.3889835	15.447001	1.745	7.0079999
810	73	1	0.1266165	14.714001	0.56699997	6.7280002
811	73	5	0.0582835	14.066	5.4320002	7.1259999
812	73	5	0.0582835	15.696	6.2420006	6.77
813	73	5	0.0582835	14.851	5.2789998	5.5050001
814	73	5	0.0582835	15.134	0.026000001	5.8590002
815	73	5	0.0582835	14.735001	-0.031000001	7.6609998
816	73	5	0.0582835	13.659	0.824	6.4210005
817	74	1	0.1266165	0.66600001	10.058001	15.536001
818	74	2	-0.3889835	0.086000003	11.096	14.752001
819	74	3	0.7551165	0.84399998	11.546	13.68
820	74	4	-0.5800835	1.9680001	11.009001	13.49
821	74	2	-0.3889835	0.34099999	12.559	12.870001
822	74	1	0.1266165	1.1	13.032	11.773
823	74	5	0.0582835	1.6360002	10.414	15.909
824	74	5	0.0582835	-0.014	9.6700001	16.316
825	74	5	0.0582835	0.84899998	9.224	14.799
826	74	5	0.0582835	0.68800002	12.670001	10.811
827	74	5	0.0582835	1.096	14.137	11.856001
828	74	5	0.0582835	2.1470001	12.614001	11.811
829	75	1	0.1266165	19.34	17.358	1.035
830	75	2	-0.3889835	18.469999	16.413	1.648
831	75	3	0.7551165	18.392	15.169	1.0369999
832	75	4	-0.5800835	19.087	14.98	0.003
833	75	2	-0.3889835	17.562	14.195	1.5820001
834	75	1	0.1266165	17.469	12.921	0.972
835	75	5	0.0582835	19.018	17.490999	-0.0070000002
836	75	5	0.0582835	19.440001	18.295	1.61
837	75	5	0.0582835	20.347002	16.85	1.036
838	75	5	0.0582835	18.007999	12.152	1.558
839	75	5	0.0582835	16.385	12.71	0.87700003
840	75	5	0.0582835	17.982	12.928	-0.032000002
841	76	1	0.1266165	16.292	0.73400009	15.086001
842	76	2	-0.3889835	16.636999	2.1140001	15.043
843	76	3	0.7551165	17.993999	2.402	14.989
844	76	4	-0.5800835	18.799	1.433	14.983
845	76	2	-0.3889835	18.405001	3.7310002	14.946001
846	76	1	0.1266165	19.784	4.0440001	14.891
847	76	5	0.0582835	16.787001	0.285	15.958
848	76	5	0.0582835	15.203	0.55500001	15.032
849	76	5	0.0582835	16.753	0.30399999	14.151
850	76	5	0.0582835	20.081001	4.3850002	13.881001
851	76	5	0.0582835	19.951	4.8109999	15.673
852	76	5	0.0582835	20.403999	3.1200001	15.074
853	77	1	0.1266165	11.363	8.0019999	13.225001
854	77	2	-0.3889835	12.109001	7.2620006	12.265
855	77	3	0.7551165	12.381	7.9150004	11.07
856	77	4	-0.5800835	11.951	9.0909996	10.934
857	77	2	-0.3889835	13.106001	7.2530003	10.084
858	77	1	0.1266165	13.393001	7.902	8.8590002
859	77	5	0.0582835	10.415	8.3050003	12.76
860	77	5	0.0582835	11.256	7.4760003	14.191
861	77	5	0.0582835	11.984	8.9250002	13.408001
862	77	5	0.0582835	14.454001	8.2110004	8.8039999
863	77	5	0.0582835	13.109001	7.1850004	8.0629997
864	77	5	0.0582835	12.81	8.8649998	8.7790003
865	78	1	0.1266165	1.788	20.311001	1.6140001
866	78	2	-0.3889835	3.1440001	20.634001	1.9060001
867	78	3	0.7551165	3.6600003	20.096001	3.0770001
868	78	4	-0.5800835	2.8980002	19.378	3.777
869	78	2	-0.3889835	4.9780002	20.370003	3.427
870	78	1	0.1266165	5.5209999	19.830999	4.618
871	78	5	0.0582835	1.17	20.639	2.46
872	78	5	0.0582835	1.4560001	20.683001	0.62800002
873	78	5	0.0582835	1.774	19.184	1.5750002
874	78	5	0.0582835	6.2199998	19	4.4039998
875	78	5	0.0582835	6.006	20.679001	5.1410003
876	78	5	0.0582835	4.7069998	19.365	5.2449999
877	79	1	0.1266165	14.022001	6.8319998	19.646999
878	79	2	-0.3889835	13.332	7.8640003	18.951
879	79	3	0.7551165	12.188	8.3549995	19.565001
880	79	4	-0.5800835	11.857	7.8540001	20.673
881	79	2	-0.3889835	11.462001	9.3649998	18.941999
882	79	1	0.1266165	10.293001	9.8780003	19.554001
883	79	5	0.0582835	13.32	6.0019999	19.809999
884	79	5	0.0582835	14.973001	6.5430002	19.165001
885	79	5	0.0582835	14.273	7.2909999	20.646
886	79	5	0.0582835	10.469	10.882	19.983
887	79	5	0.0582835	9.5139999	9.875	18.766001
888	79	5	0.0582835	9.9980001	9.2379999	20.434999
889	80	1	0.1266165	5.4980001	15.853	15.758
890	80	2	-0.3889835	6.6160007	15.014	15.485
891	80	3	0.7551165	7.415	15.394	14.415001
892	80	4	-0.5800835	7.092	16.434	13.782
893	80	2	-0.3889835	8.526	14.621	14.089001
894	80	1	0.1266165	9.3520002	14.992	13.002
895	80	5	0.0582835	4.881	15.904001	14.851
896	80	5	0.0582835	4.9510002	15.563001	16.673
897	80	5	0.0582835	5.9520001	16.868	15.941
898	80	5	0.0582835	10.311001	15.421	13.35
899	80	5	0.0582835	9.4840002	14.075001	12.395
900	80	5	0.0582835	8.8690004	15.82	12.406
901	81	1	0.1266165	19.865	0.89099997	6.7059999
902	81	2	-0.3889835	19.943001	2.171	6.0869999
903	81	3	0.7551165	19.795	3.2650003	6.927
904	81	4	-0.5800835	19.606001	3.0420003	8.1520004
905	81	2	-0.3889835	19.860001	4.5479999	6.3910003
906	81	1	0.1266165	19.711	5.6750007	7.2329998
907	81	5	0.0582835	18.896	0.81900001	7.2189999
908	81	5	0.0582835	20.083	0.057999998	6.0139999
909	81	5	0.0582835	20.681999	0.91000009	7.4830003
910	81	5	0.0582835	20.679001	6.1820002	7.4050002
911	81	5	0.0582835	18.965	6.3270001	6.7360001
912	81	5	0.0582835	19.368	5.3570004	8.2589998
913	82	1	0.1266165	10.887001	4.145	4.6110001
914	82	2	-0.3889835	12.125	4.079	3.9130001
915	82	3	0.7551165	12.05	4.152	2.529
916	82	4	-0.5800835	10.907001	4.2670002	2.01
917	82	2	-0.3889835	13.221001	4.0939999	1.78
918	82	1	0.1266165	13.163	4.1659999	0.368
919	82	5	0.0582835	10.246	3.3310003	4.2459998
920	82	5	0.0582835	11.008	4.1789999	5.7090001
921	82	5	0.0582835	10.438	5.1279998	4.2880001
922	82	5	0.0582835	13.505	5.1520004	-0.0020000001
923	82	5	0.0582835	13.783001	3.3269999	-0.0040000002
924	82	5	0.0582835	12.095001	4.0830002	0.013
925	83	1	0.1266165	13.846001	20.011002	13.242001
926	83	2	-0.3889835	13.859	18.683001	12.731
927	83	3	0.7551165	14.66	18.466	11.618
928	83	4	-0.5800835	15.301	19.448	11.157
929	83	2	-0.3889835	14.722	17.191999	11.063
930	83	1	0.1266165	15.533	16.952	9.9280005
931	83	5	0.0582835	13.525	20.684002	12.435001
932	83	5	0.0582835	13.271	20.110001	14.181
933	83	5	0.0582835	14.926	20.227001	13.482
934	83	5	0.0582835	16.450001	16.393999	10.197
935	83	5	0.0582835	14.892	16.408001	9.2069998
936	83	5	0.0582835	15.907001	17.926001	9.5
937	84	1	0.1266165	1.069	15.201	5.2729998
938	84	2	-0.3889835	1.602	16.488001	4.98
939	84	3	0.7551165	1.029	17.555	5.6590004
940	84	4	-0.5800835	0.096000001	17.302	6.467
941	84	2	-0.3889835	1.5	18.843	5.4220004
942	84	1	0.1266165	0.92699999	19.941999	6.1040001
943	84	5	0.0582835	-0.0080000004	15.222	5.0609999
944	84	5	0.0582835	1.62	14.379	4.7810001
945	84	5	0.0582835	1.2130001	15.089001	6.3860006
946	84	5	0.0582835	1.601	20.323	6.8950005
947	84	5	0.0582835	0.70500004	20.699001	5.3260002
948	84	5	0.0582835	-0.0050000004	19.622	6.6529999
949	85	1	0.1266165	15.782	13.631	7.6730003
950	85	2	-0.3889835	15.862001	12.628001	8.6789999
951	85	3	0.7551165	16.542999	12.979001	9.8369999
952	85	4	-0.5800835	17.028999	14.14	9.9020004
953	85	2	-0.3889835	16.660999	12.048	10.865001
954	85	1	0.1266165	17.351999	12.388	12.052001
955	85	5	0.0582835	16.806	13.931	7.408
956	85	5	0.0582835	15.152	13.337001	6.8140001
957	85	5	0.0582835	15.276001	14.498	8.1850004
958	85	5	0.0582835	16.652	12.561001	12.892
959	85	5	0.0582835	18.056999	11.555	12.242001
960	85	5	0.0582835	17.893	13.37	11.925
961	86	1	0.1266165	8.8409996	5.6409998	6.0980005
962	86	2	-0.3889835	8	5.6810002	7.2449999
963	86	3	0.7551165	8.342	4.823	8.2819996
964	86	4	-0.5800835	9.3529997	4.0879998	8.125
965	86	2	-0.3889835	7.5640006	4.8080001	9.4359999
966	86	1	0.1266165	7.8969998	3.9400003	10.502
967	86	5	0.0582835	8.8520002	4.6100001	5.7189999
968	86	5	0.0582835	8.585	6.4060001	5.3430004
969	86	5	0.0582835	9.8660002	5.8870001	6.4959998
970	86	5	0.0582835	8.3459997	4.493	11.349
971	86	5	0.0582835	6.9559999	3.421	10.775
972	86	5	0.0582835	8.6960001	3.211	10.181
973	87	6	1	4.164	7.3649998	5.4250002
974	88	6	1	18.476	1.063	4.6599998
975	89	6	1	18.330999	17.483999	9.8769999
976	90	6	1	2.8400002	15.550001	17.295
977	91	6	1	9.3540001	3.7119999	20.461002
978	92	6	1	16.155001	20.35	9.2709999
979	93	6	1	3.3730001	17.139	15.871
980	94	7	-0.58	14.732	18.738001	15.086001
981	94	8	1.32	16.399	18.582001	15.287
982	94	7	-0.58	16.985001	17.541	14.067
983	94	7	-0.58	16.782	17.879	16.795
984	94	7	-0.58	17.158001	20.099001	15.127
985	95	7	-0.58	3.1920002	9.5909996	4.875
986	95	8	1.32	4.6700001	10.388	4.7140002
987	95	7	-0.58	4.605	11.819	5.6430001
988	95	7	-0.58	4.9640002	10.836	3.0929999
989	95	7	-0.58	5.9359999	9.408	5.3010006
990	96	7	-0.58	5.0190001	17.917999	13.942001
991	96	8	1.32	6.0970001	19.171	13.605
992	96	7	-0.58	7.4040003	18.521	12.718
993	96	7	-0.58	6.7309999	19.85	15.037001
994	96	7	-0.58	5.335	20.368999	12.662
995	97	7	-0.58	10.067	10.335001	11.989001
996	97	8	1.32	10.303	10.983	13.527001
997	97	7	-0.58	11.793001	11.818	13.527001
998	97	7	-0.58	10.397	9.7580004	14.712
999	97	7	-0.58	9.0559998	12.083	13.904
1000	98	7	-0.58	11.579	7.2639999	6.4090004
1001	98	8	1.32	10.548	8.3109999	7.237
1002	98	7	-0.58	10.965	9.9119997	6.8119998
1003	98	7	-0.58	10.732001	8.1599998	8.927
1004	98	7	-0.58	8.9289999	8.0270004	6.7849998
1005	99	7	-0.58	1.182	11.049	8.1719999
1006	99	8	1.32	2.5580001	10.106	8.4230003
1007	99	7	-0.58	3.4159999	10.764	9.7440004
1008	99	7	-0.58	3.592	10.14	7.0650001
1009	99	7	-0.58	2.1159999	8.5030003	8.7969999
1010	100	7	-0.58	19.027	15.167	17.041
1011	100	8	1.32	17.826	13.996	17.212999
1012	100	7	-0.58	16.455	14.509	16.334
1013	100	7	-0.58	17.358	13.818001	18.844999
1014	100	7	-0.58	18.358999	12.506	16.579

Bonds

1	1	1	2
2	2	1	6
3	3	1	7
4	3	1	8
5	2	2	3
6	3	2	9
7	3	2	10
8	4	3	4
9	5	4	5
10	4	4	6
11	1	11	12
12	2	11	16
13	3	11	17
14	3	11	18
15	2	12	13
16	3	12	19
17	3	12	20
18	4	13	14
19	5	14	15
20	4	14	16
21	1	21	22
22	2	21	26
23	3	21	27
24	3	21	28
25	2	22	23
26	3	22	29
27	3	22	30
28	4	23	24
29	5	24	25
30	4	24	26
31	1	31	32
32	2	31	36
33	3	31	37
34	3	31	38
35	2	32	33
36	3	32	39
37	3	32	40
38	4	33	34
39	5	34	35
40	4	34	36
41	1	41	42
42	2	41	46
43	3	41	47
44	3	41	48
45	2	42	43
46	3	42	49
47	3	42	50
48	4	43	44
49	5	44	45
50	4	44	46
51	1	51	52
52	2	51	56
53	3	51	57
54	3	51	58
55	2	52	53
56	3	52	59
57	3	52	60
58	4	53	54
59	5	54	55
60	4	54	56
61	1	61	62
62	2	61	66
63	3	61	67
64	3	61	68
65	2	62	63
66	3	62	69
67	3	62	70
68	4	63	64
69	5	64	65
70	4	64	66
71	1	71	72
72	2	71	76
73	3	71	77
74	3	71	78
75	2	72	73
76	3	72	79
77	3	72	80
78	4	73	74
79	5	74	75
80	4	74	76
81	1	81	82
82	2	81	86
83	3	81	87
84	3	81	88
85	2	82	83
86	3	82	89
87	3	82	90
88	4	83	84
89	5	84	85
90	4	84	86
91	1	91	92
92	2	91	96
93	3	91	97
94	3	91	98
95	2	92	93
96	3	92	99
97	3	92	100
98	4	93	94
99	5	94	95
100	4	94	96
101	1	101	102
102	2	101	106
103	3	101	107
104	3	101	108
105	2	102	103
106	3	102	109
107	3	102	110
108	4	103	104
109	5	104	105
110	4	104	106
111	1	111	112
112	2	111	116
113	3	111	117
114	3	111	118
115	2	112	113
116	3	112	119
117	3	112	120
118	4	113	114
119	5	114	115
120	4	114	116
121	1	121	122
122	2	121	126
123	3	121	127
124	3	121	128
125	2	122	123
126	3	122	129
127	3	122	130
128	4	123	124
129	5	124	125
130	4	124	126
131	1	131	132
132	2	131	136
133	3	131	137
134	3	131	138
135	2	132	133
136	3	132	139
137	3	132	140
138	4	133	134
139	5	134	135
140	4	134	136
141	1	141	142
142	2	141	146
143	3	141	147
144	3	141	148
145	2	142	143
146	3	142	149
147	3	142	150
148	4	143	144
149	5	144	145
150	4	144	146
151	1	151	152
152	2	151	156
153	3	151	157
154	3	151	158
155	2	152	153
156	3	152	159
157	3	152	160
158	4	153	154
159	5	154	155
160	4	154	156
161	1	161	162
162	2	161	166
163	3	161	167
164	3	161	168
165	2	162	163
166	3	162	169
167	3	162	170
168	4	163	164
169	5	164	165
170	4	164	166
171	1	171	172
172	2	171	176
173	3	171	177
174	3	171	178
175	2	172	173
176	3	172	179
177	3	172	180
178	4	173	174
179	5	174	175
180	4	174	176
181	1	181	182
182	2	181	186
183	3	181	187
184	3	181	188
185	2	182	183
186	3	182	189
187	3	182	190
188	4	183	184
189	5	184	185
190	4	184	186
191	1	191	192
192	2	191	196
193	3	191	197
194	3	191	198
195	2	192	193
196	3	192	199
197	3	192	200
198	4	193	194
199	5	194	195
200	4	194	196
201	1	201	202
202	2	201	206
203	3	201	207
204	3	201	208
205	2	202	203
206	3	202	209
207	3	202	210
208	4	203	204
209	5	204	205
210	4	204	206
211	1	211	212
212	2	211	216
213	3	211	217
214	3	211	218
215	2	212	213
216	3	212	219
217	3	212	220
218	4	213	214
219	5	214	215
220	4	214	216
221	1	221	222
222	2	221	226
223	3	221	227
224	3	221	228
225	2	222	223
226	3	222	229
227	3	222	230
228	4	223	224
229	5	224	225
230	4	224	226
231	1	231	232
232	2	231	236
233	3	231	237
234	3	231	238
235	2	232	233
236	3	232	239
237	3	232	240
238	4	233	234
239	5	234	235
240	4	234	236
241	1	241	242
242	2	241	246
243	3	241	247
244	3	241	248
245	2	242	243
246	3	242	249
247	3	242	250
248	4	243	244
249	5	244	245
250	4	244	246
251	1	251	252
252	2	251	256
253	3	251	257
254	3	251	258
255	2	252	253
256	3	252	259
257	3	252	260
258	4	253	254
259	5	254	255
260	4	254	256
261	1	261	262
262	2	261	266
263	3	261	267
264	3	261	268
265	2	262	263
266	3	262	269
267	3	262	270
268	4	263	264
269	5	264	265
270	4	264	266
271	1	271	272
272	2	271	276
273	3	271	277
274	3	271	278
275	2	272	273
276	3	272	279
277	3	272	280
278	4	273	274
279	5	274	275
280	4	274	276
281	1	281	282
282	2	281	286
283	3	281	287
284	3	281	288
285	2	282	283
286	3	282	289
287	3	282	290
288	4	283	284
289	5	284	285
290	4	284	286
291	1	291	292
292	2	291	296
293	3	291	297
294	3	291	298
295	2	292	293
296	3	292	299
297	3	292	300
298	4	293	294
299	5	294	295
300	4	294	296
301	2	301	302
302	3	301	307
303	3	301	308
304	3	301	309
305	4	302	303
306	5	303	304
307	4	303	305
308	2	305	306
309	3	306	310
310	3	306	311
311	3	306	312
312	2	313	314
313	3	313	319
314	3	313	320
315	3	313	321
316	4	314	315
317	5	315	316
318	4	315	317
319	2	317	318
320	3	318	322
321	3	318	323
322	3	318	324
323	2	325	326
324	3	325	331
325	3	325	332
326	3	325	333
327	4	326	327
328	5	327	328
329	4	327	329
330	2	329	330
331	3	330	334
332	3	330	335
333	3	330	336
334	2	337	338
335	3	337	343
336	3	337	344
337	3	337	345
338	4	338	339
339	5	339	340
340	4	339	341
341	2	341	342
342	3	342	346
343	3	342	347
344	3	342	348
345	2	349	350
346	3	349	355
347	3	349	356
348	3	349	357
349	4	350	351
350	5	351	352
351	4	351	353
352	2	353	354
353	3	354	358
354	3	354	359
355	3	354	360
356	2	361	362
357	3	361	367
358	3	361	368
359	3	361	369
360	4	362	363
361	5	363	364
362	4	363	365
363	2	365	366
364	3	366	370
365	3	366	371
366	3	366	372
367	2	373	374
368	3	373	379
369	3	373	380
370	3	373	381
371	4	374	375
372	5	375	376
373	4	375	377
374	2	377	378
375	3	378	382
376	3	378	383
377	3	378	384
378	2	385	386
379	3	385	391
380	3	385	392
381	3	385	393
382	4	386	387
383	5	387	388
384	4	387	389
385	2	389	390
386	3	390	394
387	3	390	395
388	3	390	396
389	2	397	398
390	3	397	403
391	3	397	404
392	3	397	405
393	4	398	399
394	5	399	400
395	4	399	401
396	2	401	402
397	3	402	406
398	3	402	407
399	3	402	408
400	2	409	410
401	3	409	415
402	3	409	416
403	3	409	417
404	4	410	411
405	5	411	412
406	4	411	413
407	2	413	414
408	3	414	418
409	3	414	419
410	3	414	420
411	2	421	422
412	3	421	427
413	3	421	428
414	3	421	429
415	4	422	423
416	5	423	424
417	4	423	425
418	2	425	426
419	3	426	430
420	3	426	431
421	3	426	432
422	2	433	434
423	3	433	439
424	3	433	440
425	3	433	441
426	4	434	435
427	5	435	436
428	4	435	437
429	2	437	438
430	3	438	442
431	3	438	443
432	3	438	444
433	2	445	446
434	3	445	451
435	3	445	452
436	3	445	453
437	4	446	447
438	5	447	448
439	4	447	449
440	2	449	450
441	3	450	454
442	3	450	455
443	3	450	456
444	2	457	458
445	3	457	463
446	3	457	464
447	3	457	465
448	4	458	459
449	5	459	460
450	4	459	461
451	2	461	462
452	3	462	466
453	3	462	467
454	3	462	468
455	2	469	470
456	3	469	475
457	3	469	476
458	3	469	477
459	4	470	471
460	5	471	472
461	4	471	473
462	2	473	474
463	3	474	478
464	3	474	479
465	3	474	480
466	2	481	482
467	3	481	487
468	3	481	488
469	3	481	489
470	4	482	483
471	5	483	484
472	4	483	485
473	2	485	486
474	3	486	490
475	3	486	491
476	3	486	492
477	2	493	494
478	3	493	499
479	3	493	500
480	3	493	501
481	4	494	495
482	5	495	496
483	4	495	497
484	2	497	498
485	3	498	502
486	3	498	503
487	3	498	504
488	2	505	506
489	3	505	511
490	3	505	512
491	3	505	513
492	4	506	507
493	5	507	508
494	4	507	509
495	2	509	510
496	3	510	514
497	3	510	515
498	3	510	516
499	2	517	518
500	3	517	523
501	3	517	524
502	3	517	525
503	4	518	519
504	5	519	520
505	4	519	521
506	2	521	522
507	3	522	526
508	3	522	527
509	3	522	528
510	2	529	530
511	3	529	535
512	3	529	536
513	3	529	537
514	4	530	531
515	5	531	532
516	4	531	533
517	2	533	534
518	3	534	538
519	3	534	539
520	3	534	540
521	2	541	542
522	3	541	547
523	3	541	548
524	3	541	549
525	4	542	543
526	5	543	544
527	4	543	545
528	2	545	546
529	3	546	550
530	3	546	551
531	3	546	552
532	2	553	554
533	3	553	559
534	3	553	560
535	3	553	561
536	4	554	555
537	5	555	556
538	4	555	557
539	2	557	558
540	3	558	562
541	3	558	563
542	3	558	564
543	2	565	566
544	3	565	571
545	3	565	572
546	3	565	573
547	4	566	567
548	5	567	568
549	4	567	569
550	2	569	570
551	3	570	574
552	3	570	575
553	3	570	576
554	2	577	578
555	3	577	583
556	3	577	584
557	3	577	585
558	4	578	579
559	5	579	580
560	4	579	581
561	2	581	582
562	3	582	586
563	3	582	587
564	3	582	588
565	2	589	590
566	3	589	595
567	3	589	596
568	3	589	597
569	4	590	591
570	5	591	592
571	4	591	593
572	2	593	594
573	3	594	598
574	3	594	599
575	3	594	600
576	2	601	602
577	3	601	607
578	3	601	608
579	3	601	609
580	4	602	603
581	5	603	604
582	4	603	605
583	2	605	606
584	3	606	610
585	3	606	611
586	3	606	612
587	2	613	614
588	3	613	619
589	3	613	620
590	3	613	621
591	4	614	615
592	5	615	616
593	4	615	617
594	2	617	618
595	3	618	622
596	3	618	623
597	3	618	624
598	2	625	626
599	3	625	631
600	3	625	632
601	3	625	633
602	4	626	627
603	5	627	628
604	4	627	629
605	2	629	630
606	3	630	634
607	3	630	635
608	3	630	636
609	2	637	638
610	3	637	643
611	3	637	644
612	3	637	645
613	4	638	639
614	5	639	640
615	4	639	641
616	2	641	642
617	3	642	646
618	3	642	647
619	3	642	648
620	2	649	650
621	3	649	655
622	3	649	656
623	3	649	657
624	4	650	651
625	5	651	652
626	4	651	653
627	2	653	654
628	3	654	658
629	3	654	659
630	3	654	660
631	2	661	662
632	3	661	667
633	3	661	668
634	3	661	669
635	4	662	663
636	5	663	664
637	4	663	665
638	2	665	666
639	3	666	670
640	3	666	671
641	3	666	672
642	2	673	674
643	3	673	679
644	3	673	680
645	3	673	681
646	4	674	675
647	5	675	676
648	4	675	677
649	2	677	678
650	3	678	682
651	3	678	683
652	3	678	684
653	2	685	686
654	3	685	691
655	3	685	692
656	3	685	693
657	4	686	687
658	5	687	688
659	4	687	689
660	2	689	690
661	3	690	694
662	3	690	695
663	3	690	696
664	2	697	698
665	3	697	703
666	3	697	704
667	3	697	705
668	4	698	699
669	5	699	700
670	4	699	701
671	2	701	702
672	3	702	706
673	3	702	707
674	3	702	708
675	2	709	710
676	3	709	715
677	3	709	716
678	3	709	717
679	4	710	711
680	5	711	712
681	4	711	713
682	2	713	714
683	3	714	718
684	3	714	719
685	3	714	720
686	2	721	722
687	3	721	727
688	3	721	728
689	3	721	729
690	4	722	723
691	5	723	724
692	4	723	725
693	2	725	726
694	3	726	730
695	3	726	731
696	3	726	732
697	2	733	734
698	3	733	739
699	3	733	740
700	3	733	741
701	4	734	735
702	5	735	736
703	4	735	737
704	2	737	738
705	3	738	742
706	3	738	743
707	3	738	744
708	2	745	746
709	3	745	751
710	3	745	752
711	3	745	753
712	4	746	747
713	5	747	748
714	4	747	749
715	2	749	750
716	3	750	754
717	3	750	755
718	3	750	756
719	2	757	758
720	3	757	763
721	3	757	764
722	3	757	765
723	4	758	759
724	5	759	760
725	4	759	761
726	2	761	762
727	3	762	766
728	3	762	767
729	3	762	768
730	2	769	770
731	3	769	775
732	3	769	776
733	3	769	777
734	4	770	771
735	5	771	772
736	4	771	773
737	2	773	774
738	3	774	778
739	3	774	779
740	3	774	780
741	2	781	782
742	3	781	787
743	3	781	788
744	3	781	789
745	4	782	783
746	5	783	784
747	4	783	785
748	2	785	786
749	3	786	790
750	3	786	791
751	3	786	792
752	2	793	794
753	3	793	799
754	3	793	800
755	3	793	801
756	4	794	795
757	5	795	796
758	4	795	797
759	2	797	798
760	3	798	802
761	3	798	803
762	3	798	804
763	2	805	806
764	3	805	811
765	3	805	812
766	3	805	813
767	4	806	807
768	5	807	808
769	4	807	809
770	2	809	810
771	3	810	814
772	3	810	815
773	3	810	816
774	2	817	818
775	3	817	823
776	3	817	824
777	3	817	825
778	4	818	819
779	5	819	820
780	4	819	821
781	2	821	822
782	3	822	826
783	3	822	827
784	3	822	828
785	2	829	830
786	3	829	835
787	3	829	836
788	3	829	837
789	4	830	831
790	5	831	832
791	4	831	833
792	2	833	834
793	3	834	838
794	3	834	839
795	3	834	840
796	2	841	842
797	3	841	847
798	3	841	848
799	3	841	849
800	4	842	843
801	5	843	844
802	4	843	845
803	2	845	846
804	3	846	850
805	3	846	851
806	3	846	852
807	2	853	854
808	3	853	859
809	3	853	860
810	3	853	861
811	4	854	855
812	5	855	856
813	4	855	857
814	2	857	858
815	3	858	862
816	3	858	863
817	3	858	864
818	2	865	866
819	3	865	871
820	3	865	872
821	3	865	873
822	4	866	867
823	5	867	868
824	4	867	869
825	2	869	870
826	3	870	874
827	3	870	875
828	3	870	876
829	2	877	878
830	3	877	883
831	3	877	884
832	3	877	885
833	4	878	879
834	5	879	880
835	4	879	881
836	2	881	882
837	3	882	886
838	3	882	887
839	3	882	888
840	2	889	890
841	3	889	895
842	3	889	896
843	3	889	897
844	4	890	891
845	5	891	892
846	4	891	893
847	2	893	894
848	3	894	898
849	3	894	899
850	3	894	900
851	2	901	902
852	3	901	907
853	3	901	908
854	3	901	909
855	4	902	903
856	5	903	904
857	4	903	905
858	2	905	906
859	3	906	910
860	3	906	911
861	3	906	912
862	2	913	914
863	3	913	919
864	3	913	920
865	3	913	921
866	4	914	915
867	5	915	916
868	4	915	917
869	2	917	918
870	3	918	922
871	3	918	923
872	3	918	924
873	2	925	926
874	3	925	931
875	3	925	932
876	3	925	933
877	4	926	927
878	5	927	928
879	4	927	929
880	2	929	930
881	3	930	934
882	3	930	935
883	3	930	936
884	2	937	938
885	3	937	943
886	3	937	944
887	3	937	945
888	4	938	939
889	5	939	940
890	4	939	941
891	2	941	942
892	3	942	946
893	3	942	947
894	3	942	948
895	2	949	950
896	3	949	955
897	3	949	956
898	3	949	957
899	4	950	951
900	5	951	952
901	4	951	953
902	2	953	954
903	3	954	958
904	3	954	959
905	3	954	960
906	2	961	962
907	3	961	967
908	3	961	968
909	3	961	969
910	4	962	963
911	5	963	964
912	4	963	965
913	2	965	966
914	3	966	970
915	3	966	971
916	3	966	972
917	6	980	981
918	6	981	982
919	6	981	983
920	6	981	984
921	6	985	986
922	6	986	987
923	6	986	988
924	6	986	989
925	6	990	991
926	6	991	992
927	6	991	993
928	6	991	994
929	6	995	996
930	6	996	997
931	6	996	998
932	6	996	999
933	6	1000	1001
934	6	1001	1002
935	6	1001	1003
936	6	1001	1004
937	6	1005	1006
938	6	1006	1007
939	6	1006	1008
940	6	1006	1009
941	6	1010	1011
942	6	1011	1012
943	6	1011	1013
944	6	1011	1014

Angles

1	1	1	2	3
2	2	1	2	9
3	2	1	2	10
4	1	1	6	4
5	1	2	1	6
6	2	2	1	7
7	2	2	1	8
8	1	2	3	4
9	2	3	2	9
10	2	3	2	10
11	3	3	4	5
12	1	3	4	6
13	3	5	4	6
14	2	6	1	7
15	2	6	1	8
16	4	7	1	8
17	4	9	2	10
18	1	11	12	13
19	2	11	12	19
20	2	11	12	20
21	1	11	16	14
22	1	12	11	16
23	2	12	11	17
24	2	12	11	18
25	1	12	13	14
26	2	13	12	19
27	2	13	12	20
28	3	13	14	15
29	1	13	14	16
30	3	15	14	16
31	2	16	11	17
32	2	16	11	18
33	4	17	11	18
34	4	19	12	20
35	1	21	22	23
36	2	21	22	29
37	2	21	22	30
38	1	21	26	24
39	1	22	21	26
40	2	22	21	27
41	2	22	21	28
42	1	22	23	24
43	2	23	22	29
44	2	23	22	30
45	3	23	24	25
46	1	23	24	26
47	3	25	24	26
48	2	26	21	27
49	2	26	21	28
50	4	27	21	28
51	4	29	22	30
52	1	31	32	33
53	2	31	32	39
54	2	31	32	40
55	1	31	36	34
56	1	32	31	36
57	2	32	31	37
58	2	32	31	38
59	1	32	33	34
60	2	33	32	39
61	2	33	32	40
62	3	33	34	35
63	1	33	34	36
64	3	35	34	36
65	2	36	31	37
66	2	36	31	38
67	4	37	31	38
68	4	39	32	40
69	1	41	42	43
70	2	41	42	49
71	2	41	42	50
72	1	41	46	44
73	1	42	41	46
74	2	42	41	47
75	2	42	41	48
76	1	42	43	44
77	2	43	42	49
78	2	43	42	50
79	3	43	44	45
80	1	43	44	46
81	3	45	44	46
82	2	46	41	47
83	2	46	41	48
84	4	47	41	48
85	4	49	42	50
86	1	51	52	53
87	2	51	52	59
88	2	51	52	60
89	1	51	56	54
90	1	52	51	56
91	2	52	51	57
92	2	52	51	58
93	1	52	53	54
94	2	53	52	59
95	2	53	52	60
96	3	53	54	55
97	1	53	54	56
98	3	55	54	56
99	2	56	51	57
100	2	56	51	58
101	4	57	51	58
102	4	59	52	60
103	1	61	62	63
104	2	61	62	69
105	2	61	62	70
106	1	61	66	64
107	1	62	61	66
108	2	62	61	67
109	2	62	61	68
110	1	62	63	64
111	2	63	62	69
112	2	63	62	70
113	3	63	64	65
114	1	63	64	66
115	3	65	64	66
116	2	66	61	67
117	2	66	61	68
118	4	67	61	68
119	4	69	62	70
120	1	71	72	73
121	2	71	72	79
122	2	71	72	80
123	1	71	76	74
124	1	72	71	76
125	2	72	71	77
126	2	72	71	78
127	1	72	73	74
128	2	73	72	79
129	2	73	72	80
130	3	73	74	75
131	1	73	74	76
132	3	75	74	76
133	2	76	71	77
134	2	76	71	78
135	4	77	71	78
136	4	79	72	80
137	1	81	82	83
138	2	81	82	89
139	2	81	82	90
140	1	81	86	84
141	1	82	81	86
142	2	82	81	87
143	2	82	81	88
144	1	82	83	84
145	2	83	82	89
146	2	83	82	90
147	3	83	84	85
148	1	83	84	86
149	3	85	84	86
150	2	86	81	87
151	2	86	81	88
152	4	87	81	88
153	4	89	82	90
154	1	91	92	93
155	2	91	92	99
156	2	91	92	100
157	1	91	96	94
158	1	92	91	96
159	2	92	91	97
160	2	92	91	98
161	1	92	93	94
162	2	93	92	99
163	2	93	92	100
164	3	93	94	95
165	1	93	94	96
166	3	95	94	96
167	2	96	91	97
168	2	96	91	98
169	4	97	91	98
170	4	99	92	100
171	1	101	102	103
172	2	101	102	109
173	2	101	102	110
174	1	101	106	104
175	1	102	101	106
176	2	102	101	107
177	2	102	101	108
178	1	102	103	104
179	2	103	102	109
180	2	103	102	110
181	3	103	104	105
182	1	103	104	106
183	3	105	104	106
184	2	106	101	107
185	2	106	101	108
186	4	107	101	108
187	4	109	102	110
188	1	111	112	113
189	2	111	112	119
190	2	111	112	120
191	1	111	116	114
192	1	112	111	116
193	2	112	111	117
194	2	112	111	118
195	1	112	113	114
196	2	113	112	119
197	2	113	112	120
198	3	113	114	115
199	1	113	114	116
200	3	115	114	116
201	2	116	111	117
202	2	116	111	118
203	4	117	111	118
204	4	119	112	120
205	1	121	122	123
206	2	121	122	129
207	2	121	122	130
208	1	121	126	124
209	1	122	121	126
210	2	122	121	127
211	2	122	121	128
212	1	122	123	124
213	2	123	122	129
214	2	123	122	130
215	3	123	124	125
216	1	123	124	126
217	3	125	124	126
218	2	126	121	127
219	2	126	121	128
220	4	127	121	128
221	4	129	122	130
222	1	131	132	133
223	2	131	132	139
224	2	131	132	140
225	1	131	136	134
226	1	132	131	136
227	2	132	131	137
228	2	132	131	138
229	1	132	133	134
230	2	133	132	139
231	2	133	132	140
232	3	133	134	135
233	1	133	134	136
234	3	135	134	136
235	2	136	131	137
236	2	136	131	138
237	4	137	131	138
238	4	139	132	140
239	1	141	142	143
240	2	141	142	149
241	2	141	142	150
242	1	141	146	144
243	1	142	141	146
244	2	142	141	147
245	2	142	141	148
246	1	142	143	144
247	2	143	142	149
248	2	143	142	150
249	3	143	144	145
250	1	143	144	146
251	3	145	144	146
252	2	146	141	147
253	2	146	141	148
254	4	147	141	148
255	4	149	142	150
256	1	151	152	153
257	2	151	152	159
258	2	151	152	160
259	1	151	156	154
260	1	152	151	156
261	2	152	151	157
262	2	152	151	158
263	1	152	153	154
264	2	153	152	159
265	2	153	152	160
266	3	153	154	155
267	1	153	154	156
268	3	155	154	156
269	2	156	151	157
270	2	156	151	158
271	4	157	151	158
272	4	159	152	160
273	1	161	162	163
274	2	161	162	169
275	2	161	162	170
276	1	161	166	164
277	1	162	161	166
278	2	162	161	167
279	2	162	161	168
280	1	162	163	164
281	2	163	162	169
282	2	163	162	170
283	3	163	164	165
284	1	163	164	166
285	3	165	164	166
286	2	166	161	167
287	2	166	161	168
288	4	167	161	168
289	4	169	162	170
290	1	171	172	173
291	2	171	172	179
292	2	171	172	180
293	1	171	176	174
294	1	172	171	176
295	2	172	171	177
296	2	172	171	178
297	1	172	173	174
298	2	173	172	179
299	2	173	172	180
300	3	173	174	175
301	1	173	174	176
302	3	175	174	176
303	2	176	171	177
304	2	176	171	178
305	4	177	171	178
306	4	179	172	180
307	1	181	182	183
308	2	181	182	189
309	2	181	182	190
310	1	181	186	184
311	1	182	181	186
312	2	182	181	187
313	2	182	181	188
314	1	182	183	184
315	2	183	182	189
316	2	183	182	190
317	3	183	184	185
318	1	183	184	186
319	3	185	184	186
320	2	186	181	187
321	2	186	181	188
322	4	187	181	188
323	4	189	182	190
324	1	191	192	193
325	2	191	192	199
326	2	191	192	200
327	1	191	196	194
328	1	192	191	196
329	2	192	191	197
330	2	192	191	198
331	1	192	193	194
332	2	193	192	199
333	2	193	192	200
334	3	193	194	195
335	1	193	194	196
336	3	195	194	196
337	2	196	191	197
338	2	196	191	198
339	4	197	191	198
340	4	199	192	200
341	1	201	202	203
342	2	201	202	209
343	2	201	202	210
344	1	201	206	204
345	1	202	201	206
346	2	202	201	207
347	2	202	201	208
348	1	202	203	204
349	2	203	202	209
350	2	203	202	210
351	3	203	204	205
352	1	203	204	206
353	3	205	204	206
354	2	206	201	207
355	2	206	201	208
356	4	207	201	208
357	4	209	202	210
358	1	211	212	213
359	2	211	212	219
360	2	211	212	220
361	1	211	216	214
362	1	212	211	216
363	2	212	211	217
364	2	212	211	218
365	1	212	213	214
366	2	213	212	219
367	2	213	212	220
368	3	213	214	215
369	1	213	214	216
370	3	215	214	216
371	2	216	211	217
372	2	216	211	218
373	4	217	211	218
374	4	219	212	220
375	1	221	222	223
376	2	221	222	229
377	2	221	222	230
378	1	221	226	224
379	1	222	221	226
380	2	222	221	227
381	2	222	221	228
382	1	222	223	224
383	2	223	222	229
384	2	223	222	230
385	3	223	224	225
386	1	223	224	226
387	3	225	224	226
388	2	226	221	227
389	2	226	221	228
390	4	227	221	228
391	4	229	222	230
392	1	231	232	233
393	2	231	232	239
394	2	231	232	240
395	1	231	236	234
396	1	232	231	236
397	2	232	231	237
398	2	232	231	238
399	1	232	233	234
400	2	233	232	239
401	2	233	232	240
402	3	233	234	235
403	1	233	234	236
404	3	235	234	236
405	2	236	231	237
406	2	236	231	238
407	4	237	231	238
408	4	239	232	240
409	1	241	242	243
410	2	241	242	249
411	2	241	242	250
412	1	241	246	244
413	1	242	241	246
414	2	242	241	247
415	2	242	241	248
416	1	242	243	244
417	2	243	242	249
418	2	243	242	250
419	3	243	244	245
420	1	243	244	246
421	3	245	244	246
422	2	246	241	247
423	2	246	241	248
424	4	247	241	248
425	4	249	242	250
426	1	251	252	253
427	2	251	252	259
428	2	251	252	260
429	1	251	256	254
430	1	252	251	256
431	2	252	251	257
432	2	252	251	258
433	1	252	253	254
434	2	253	252	259
435	2	253	252	260
436	3	253	254	255
437	1	253	254	256
438	3	255	254	256
439	2	256	251	257
440	2	256	251	258
441	4	257	251	258
442	4	259	252	260
443	1	261	262	263
444	2	261	262	269
445	2	261	262	270
446	1	261	266	264
447	1	262	261	266
448	2	262	261	267
449	2	262	261	268
450	1	262	263	264
451	2	263	262	269
452	2	263	262	270
453	3	263	264	265
454	1	263	264	266
455	3	265	264	266
456	2	266	261	267
457	2	266	261	268
458	4	267	261	268
459	4	269	262	270
460	1	271	272	273
461	2	271	272	279
462	2	271	272	280
463	1	271	276	274
464	1	272	271	276
465	2	272	271	277
466	2	272	271	278
467	1	272	273	274
468	2	273	272	279
469	2	273	272	280
470	3	273	274	275
471	1	273	274	276
472	3	275	274	276
473	2	276	271	277
474	2	276	271	278
475	4	277	271	278
476	4	279	272	280
477	1	281	282	283
478	2	281	282	289
479	2	281	282	290
480	1	281	286	284
481	1	282	281	286
482	2	282	281	287
483	2	282	281	288
484	1	282	283	284
485	2	283	282	289
486	2	283	282	290
487	3	283	284	285
488	1	283	284	286
489	3	285	284	286
490	2	286	281	287
491	2	286	281	288
492	4	287	281	288
493	4	289	282	290
494	1	291	292	293
495	2	291	292	299
496	2	291	292	300
497	1	291	296	294
498	1	292	291	296
499	2	292	291	297
500	2	292	291	298
501	1	292	293	294
502	2	293	292	299
503	2	293	292	300
504	3	293	294	295
505	1	293	294	296
506	3	295	294	296
507	2	296	291	297
508	2	296	291	298
509	4	297	291	298
510	4	299	292	300
511	5	301	302	303
512	2	302	301	307
513	2	302	301	308
514	2	302	301	309
515	3	302	303	304
516	6	302	303	305
517	5	303	305	306
518	3	304	303	305
519	2	305	306	310
520	2	305	306	311
521	2	305	306	312
522	4	307	301	308
523	4	307	301	309
524	4	308	301	309
525	4	310	306	311
526	4	310	306	312
527	4	311	306	312
528	5	313	314	315
529	2	314	313	319
530	2	314	313	320
531	2	314	313	321
532	3	314	315	316
533	6	314	315	317
534	5	315	317	318
535	3	316	315	317
536	2	317	318	322
537	2	317	318	323
538	2	317	318	324
539	4	319	313	320
540	4	319	313	321
541	4	320	313	321
542	4	322	318	323
543	4	322	318	324
544	4	323	318	324
545	5	325	326	327
546	2	326	325	331
547	2	326	325	332
548	2	326	325	333
549	3	326	327	328
550	6	326	327	329
551	5	327	329	330
552	3	328	327	329
553	2	329	330	334
554	2	329	330	335
555	2	329	330	336
556	4	331	325	332
557	4	331	325	333
558	4	332	325	333
559	4	334	330	335
560	4	334	330	336
561	4	335	330	336
562	5	337	338	339
563	2	338	337	343
564	2	338	337	344
565	2	338	337	345
566	3	338	339	340
567	6	338	339	341
568	5	339	341	342
569	3	340	339	341
570	2	341	342	346
571	2	341	342	347
572	2	341	342	348
573	4	343	337	344
574	4	343	337	345
575	4	344	337	345
576	4	346	342	347
577	4	346	342	348
578	4	347	342	348
579	5	349	350	351
580	2	350	349	355
581	2	350	349	356
582	2	350	349	357
583	3	350	351	352
584	6	350	351	353
585	5	351	353	354
586	3	352	351	353
587	2	353	354	358
588	2	353	354	359
589	2	353	354	360
590	4	355	349	356
591	4	355	349	357
592	4	356	349	357
593	4	358	354	359
594	4	358	354	360
595	4	359	354	360
596	5	361	362	363
597	2	362	361	367
598	2	362	361	368
599	2	362	361	369
600	3	362	363	364
601	6	362	363	365
602	5	363	365	366
603	3	364	363	365
604	2	365	366	370
605	2	365	366	371
606	2	365	366	372
607	4	367	361	368
608	4	367	361	369
609	4	368	361	369
610	4	370	366	371
611	4	370	366	372
612	4	371	366	372
613	5	373	374	375
614	2	374	373	379
615	2	374	373	380
616	2	374	373	381
617	3	374	375	376
618	6	374	375	377
619	5	375	377	378
620	3	376	375	377
621	2	377	378	382
622	2	377	378	383
623	2	377	378	384
624	4	379	373	380
625	4	379	373	381
626	4	380	373	381
627	4	382	378	383
628	4	382	378	384
629	4	383	378	384
630	5	385	386	387
631	2	386	385	391
632	2	386	385	392
633	2	386	385	393
634	3	386	387	388
635	6	386	387	389
636	5	387	389	390
637	3	388	387	389
638	2	389	390	394
639	2	389	390	395
640	2	389	390	396
641	4	391	385	392
642	4	391	385	393
643	4	392	385	393
644	4	394	390	395
645	4	394	390	396
646	4	395	390	396
647	5	397	398	399
648	2	398	397	403
649	2	398	397	404
650	2	398	397	405
651	3	398	399	400
652	6	398	399	401
653	5	399	401	402
654	3	400	399	401
655	2	401	402	406
656	2	401	402	407
657	2	401	402	408
658	4	403	397	404
659	4	403	397	405
660	4	404	397	405
661	4	406	402	407
662	4	406	402	408
663	4	407	402	408
664	5	409	410	411
665	2	410	409	415
666	2	410	409	416
667	2	410	409	417
668	3	410	411	412
669	6	410	411	413
670	5	411	413	414
671	3	412	411	413
672	2	413	414	418
673	2	413	414	419
674	2	413	414	420
675	4	415	409	416
676	4	415	409	417
677	4	416	409	417
678	4	418	414	419
679	4	418	414	420
680	4	419	414	420
681	5	421	422	423
682	2	422	421	427
683	2	422	421	428
684	2	422	421	429
685	3	422	423	424
686	6	422	423	425
687	5	423	425	426
688	3	424	423	425
689	2	425	426	430
690	2	425	426	431
691	2	425	426	432
692	4	427	421	428
693	4	427	421	429
694	4	428	421	429
695	4	430	426	431
696	4	430	426	432
697	4	431	426	432
698	5	433	434	435
699	2	434	433	439
700	2	434	433	440
701	2	434	433	441
702	3	434	435	436
703	6	434	435	437
704	5	435	437	438
705	3	436	435	437
706	2	437	438	442
707	2	437	438	443
708	2	437	438	444
709	4	439	433	440
710	4	439	433	441
711	4	440	433	441
712	4	442	438	443
713	4	442	438	444
714	4	443	438	444
715	5	445	446	447
716	2	446	445	451
717	2	446	445	452
718	2	446	445	453
719	3	446	447	448
720	6	446	447	449
721	5	447	449	450
722	3	448	447	449
723	2	449	450	454
724	2	449	450	455
725	2	449	450	456
726	4	451	445	452
727	4	451	445	453
728	4	452	445	453
729	4	454	450	455
730	4	454	450	456
731	4	455	450	456
732	5	457	458	459
733	2	458	457	463
734	2	458	457	464
735	2	458	457	465
736	3	458	459	460
737	6	458	459	461
738	5	459	461	462
739	3	460	459	461
740	2	461	462	466
741	2	461	462	467
742	2	461	462	468
743	4	463	457	464
744	4	463	457	465
745	4	464	457	465
746	4	466	462	467
747	4	466	462	468
748	4	467	462	468
749	5	469	470	471
750	2	470	469	475
751	2	470	469	476
752	2	470	469	477
753	3	470	471	472
754	6	470	471	473
755	5	471	473	474
756	3	472	471	473
757	2	473	474	478
758	2	473	474	479
759	2	473	474	480
760	4	475	469	476
761	4	475	469	477
762	4	476	469	477
763	4	478	474	479
764	4	478	474	480
765	4	479	474	480
766	5	481	482	483
767	2	482	481	487
768	2	482	481	488
769	2	482	481	489
770	3	482	483	484
771	6	482	483	485
772	5	483	485	486
773	3	484	483	485
774	2	485	486	490
775	2	485	486	491
776	2	485	486	492
777	4	487	481	488
778	4	487	481	489
779	4	488	481	489
780	4	490	486	491
781	4	490	486	492
782	4	491	486	492
783	5	493	494	495
784	2	494	493	499
785	2	494	493	500
786	2	494	493	501
787	3	494	495	496
788	6	494	495	497
789	5	495	497	498
790	3	496	495	497
791	2	497	498	502
792	2	497	498	503
793	2	497	498	504
794	4	499	493	500
795	4	499	493	501
796	4	500	493	501
797	4	502	498	503
798	4	502	498	504
799	4	503	498	504
800	5	505	506	507
801	2	506	505	511
802	2	506	505	512
803	2	506	505	513
804	3	506	507	508
805	6	506	507	509
806	5	507	509	510
807	3	508	507	509
808	2	509	510	514
809	2	509	510	515
810	2	509	510	516
811	4	511	505	512
812	4	511	505	513
813	4	512	505	513
814	4	514	510	515
815	4	514	510	516
816	4	515	510	516
817	5	517	518	519
818	2	518	517	523
819	2	518	517	524
820	2	518	517	525
821	3	518	519	520
822	6	518	519	521
823	5	519	521	522
824	3	520	519	521
825	2	521	522	526
826	2	521	522	527
827	2	521	522	528
828	4	523	517	524
829	4	523	517	525
830	4	524	517	525
831	4	526	522	527
832	4	526	522	528
833	4	527	522	528
834	5	529	530	531
835	2	530	529	535
836	2	530	529	536
837	2	530	529	537
838	3	530	531	532
839	6	530	531	533
840	5	531	533	534
841	3	532	531	533
842	2	533	534	538
843	2	533	534	539
844	2	533	534	540
845	4	535	529	536
846	4	535	529	537
847	4	536	529	537
848	4	538	534	539
849	4	538	534	540
850	4	539	534	540
851	5	541	542	543
852	2	542	541	547
853	2	542	541	548
854	2	542	541	549
855	3	542	543	544
856	6	542	543	545
857	5	543	545	546
858	3	544	543	545
859	2	545	546	550
860	2	545	546	551
861	2	545	546	552
862	4	547	541	548
863	4	547	541	549
864	4	548	541	549
865	4	550	546	551
866	4	550	546	552
867	4	551	546	552
868	5	553	554	555
869	2	554	553	559
870	2	554	553	560
871	2	554	553	561
872	3	554	555	556
873	6	554	555	557
874	5	555	557	558
875	3	556	555	557
876	2	557	558	562
877	2	557	558	563
878	2	557	558	564
879	4	559	553	560
880	4	559	553	561
881	4	560	553	561
882	4	562	558	563
883	4	562	558	564
884	4	563	558	564
885	5	565	566	567
886	2	566	565	571
887	2	566	565	572
888	2	566	565	573
889	3	566	567	568
890	6	566	567	569
891	5	567	569	570
892	3	568	567	569
893	2	569	570	574
894	2	569	570	575
895	2	569	570	576
896	4	571	565	572
897	4	571	565	573
898	4	572	565	573
899	4	574	570	575
900	4	574	570	576
901	4	575	570	576
902	5	577	578	579
903	2	578	577	583
904	2	578	577	584
905	2	578	577	585
906	3	578	579	580
907	6	578	579	581
908	5	579	581	582
909	3	580	579	581
910	2	581	582	586
911	2	581	582	587
912	2	581	582	588
913	4	583	577	584
914	4	583	577	585
915	4	584	577	585
916	4	586	582	587
917	4	586	582	588
918	4	587	582	588
919	5	589	590	591
920	2	590	589	595
921	2	590	589	596
922	2	590	589	597
923	3	590	591	592
924	6	590	591	593
925	5	591	593	594
926	3	592	591	593
927	2	593	594	598
928	2	593	594	599
929	2	593	594	600
930	4	595	589	596
931	4	595	589	597
932	4	596	589	597
933	4	598	594	599
934	4	598	594	600
935	4	599	594	600
936	5	601	602	603
937	2	602	601	607
938	2	602	601	608
939	2	602	601	609
940	3	602	603	604
941	6	602	603	605
942	5	603	605	606
943	3	604	603	605
944	2	605	606	610
945	2	605	606	611
946	2	605	606	612
947	4	607	601	608
948	4	607	601	609
949	4	608	601	609
950	4	610	606	611
951	4	610	606	612
952	4	611	606	612
953	5	613	614	615
954	2	614	613	619
955	2	614	613	620
956	2	614	613	621
957	3	614	615	616
958	6	614	615	617
959	5	615	617	618
960	3	616	615	617
961	2	617	618	622
962	2	617	618	623
963	2	617	618	624
964	4	619	613	620
965	4	619	613	621
966	4	620	613	621
967	4	622	618	623
968	4	622	618	624
969	4	623	618	624
970	5	625	626	627
971	2	626	625	631
972	2	626	625	632
973	2	626	625	633
974	3	626	627	628
975	6	626	627	629
976	5	627	629	630
977	3	628	627	629
978	2	629	630	634
979	2	629	630	635
980	2	629	630	636
981	4	631	625	632
982	4	631	625	633
983	4	632	625	633
984	4	634	630	635
985	4	634	630	636
986	4	635	630	636
987	5	637	638	639
988	2	638	637	643
989	2	638	637	644
990	2	638	637	645
991	3	638	639	640
992	6	638	639	641
993	5	639	641	642
994	3	640	639	641
995	2	641	642	646
996	2	641	642	647
997	2	641	642	648
998	4	643	637	644
999	4	643	637	645
1000	4	644	637	645
1001	4	646	642	647
1002	4	646	642	648
1003	4	647	642	648
1004	5	649	650	651
1005	2	650	649	655
1006	2	650	649	656
1007	2	650	649	657
1008	3	650	651	652
1009	6	650	651	653
1010	5	651	653	654
1011	3	652	651	653
1012	2	653	654	658
1013	2	653	654	659
1014	2	653	654	660
1015	4	655	649	656
1016	4	655	649	657
1017	4	656	649	657
1018	4	658	654	659
1019	4	658	654	660
1020	4	659	654	660
1021	5	661	662	663
1022	2	662	661	667
1023	2	662	661	668
1024	2	662	661	669
1025	3	662	663	664
1026	6	662	663	665
1027	5	663	665	666
1028	3	664	663	665
1029	2	665	666	670
1030	2	665	666	671
1031	2	665	666	672
1032	4	667	661	668
1033	4	667	661	669
1034	4	668	661	669
1035	4	670	666	671
1036	4	670	666	672
1037	4	671	666	672
1038	5	673	674	675
1039	2	674	673	679
1040	2	674	673	680
1041	2	674	673	681
1042	3	674	675	676
1043	6	674	675	677
1044	5	675	677	678
1045	3	676	675	677
1046	2	677	678	682
1047	2	677	678	683
1048	2	677	678	684
1049	4	679	673	680
1050	4	679	673	681
1051	4	680	673	681
1052	4	682	678	683
1053	4	682	678	684
1054	4	683	678	684
1055	5	685	686	687
1056	2	686	685	691
1057	2	686	685	692
1058	2	686	685	693
1059	3	686	687	688
1060	6	686	687	689
1061	5	687	689	690
1062	3	688	687	689
1063	2	689	690	694
1064	2	689	690	695
1065	2	689	690	696
1066	4	691	685	692
1067	4	691	685	693
1068	4	692	685	693
1069	4	694	690	695
1070	4	694	690	696
1071	4	695	690	696
1072	5	697	698	699
1073	2	698	697	703
1074	2	698	697	704
1075	2	698	697	705
1076	3	698	699	700
1077	6	698	699	701
1078	5	699	701	702
1079	3	700	699	701
1080	2	701	702	706
1081	2	701	702	707
1082	2	701	702	708
1083	4	703	697	704
1084	4	703	697	705
1085	4	704	697	705
1086	4	706	702	707
1087	4	706	702	708
1088	4	707	702	708
1089	5	709	710	711
1090	2	710	709	715
1091	2	710	709	716
1092	2	710	709	717
1093	3	710	711	712
1094	6	710	711	713
1095	5	711	713	714
1096	3	712	711	713
1097	2	713	714	718
1098	2	713	714	719
1099	2	713	714	720
1100	4	715	709	716
1101	4	715	709	717
1102	4	716	709	717
1103	4	718	714	719
1104	4	718	714	720
1105	4	719	714	720
1106	5	721	722	723
1107	2	722	721	727
1108	2	722	721	728
1109	2	722	721	729
1110	3	722	723	724
1111	6	722	723	725
1112	5	723	725	726
1113	3	724	723	725
1114	2	725	726	730
1115	2	725	726	731
1116	2	725	726	732
1117	4	727	721	728
1118	4	727	721	729
1119	4	728	721	729
1120	4	730	726	731
1121	4	730	726	732
1122	4	731	726	732
1123	5	733	734	735
1124	2	734	733	739
1125	2	734	733	740
1126	2	734	733	741
1127	3	734	735	736
1128	6	734	735	737
1129	5	735	737	738
1130	3	736	735	737
1131	2	737	738	742
1132	2	737	738	743
1133	2	737	738	744
1134	4	739	733	740
1135	4	739	733	741
1136	4	740	733	741
1137	4	742	738	743
1138	4	742	738	744
1139	4	743	738	744
1140	5	745	746	747
1141	2	746	745	751
1142	2	746	745	752
1143	2	746	745	753
1144	3	746	747	748
1145	6	746	747	749
1146	5	747	749	750
1147	3	748	747	749
1148	2	749	750	754
1149	2	749	750	755
1150	2	749	750	756
1151	4	751	745	752
1152	4	751	745	753
1153	4	752	745	753
1154	4	754	750	755
1155	4	754	750	756
1156	4	755	750	756
1157	5	757	758	759
1158	2	758	757	763
1159	2	758	757	764
1160	2	758	757	765
1161	3	758	759	760
1162	6	758	759	761
1163	5	759	761	762
1164	3	760	759	761
1165	2	761	762	766
1166	2	761	762	767
1167	2	761	762	768
1168	4	763	757	764
1169	4	763	757	765
1170	4	764	757	765
1171	4	766	762	767
1172	4	766	762	768
1173	4	767	762	768
1174	5	769	770	771
1175	2	770	769	775
1176	2	770	769	776
1177	2	770	769	777
1178	3	770	771	772
1179	6	770	771	773
1180	5	771	773	774
1181	3	772	771	773
1182	2	773	774	778
1183	2	773	774	779
1184	2	773	774	780
1185	4	775	769	776
1186	4	775	769	777
1187	4	776	769	777
1188	4	778	774	779
1189	4	778	774	780
1190	4	779	774	780
1191	5	781	782	783
1192	2	782	781	787
1193	2	782	781	788
1194	2	782	781	789
1195	3	782	783	784
1196	6	782	783	785
1197	5	783	785	786
1198	3	784	783	785
1199	2	785	786	790
1200	2	785	786	791
1201	2	785	786	792
1202	4	787	781	788
1203	4	787	781	789
1204	4	788	781	789
1205	4	790	786	791
1206	4	790	786	792
1207	4	791	786	792
1208	5	793	794	795
1209	2	794	793	799
1210	2	794	793	800
1211	2	794	793	801
1212	3	794	795	796
1213	6	794	795	797
1214	5	795	797	798
1215	3	796	795	797
1216	2	797	798	802
1217	2	797	798	803
1218	2	797	798	804
1219	4	799	793	800
1220	4	799	793	801
1221	4	800	793	801
1222	4	802	798	803
1223	4	802	798	804
1224	4	803	798	804
1225	5	805	806	807
1226	2	806	805	811
1227	2	806	805	812
1228	2	806	805	813
1229	3	806	807	808
1230	6	806	807	809
1231	5	807	809	810
1232	3	808	807	809
1233	2	809	810	814
1234	2	809	810	815
1235	2	809	810	816
1236	4	811	805	812
1237	4	811	805	813
1238	4	812	805	813
1239	4	814	810	815
1240	4	814	810	816
1241	4	815	810	816
1242	5	817	818	819
1243	2	818	817	823
1244	2	818	817	824
1245	2	818	817	825
1246	3	818	819	820
1247	6	818	819	821
1248	5	819	821	822
1249	3	820	819	821
1250	2	821	822	826
1251	2	821	822	827
1252	2	821	822	828
1253	4	823	817	824
1254	4	823	817	825
1255	4	824	817	825
1256	4	826	822	827
1257	4	826	822	828
1258	4	827	822	828
1259	5	829	830	831
1260	2	830	829	835
1261	2	830	829	836
1262	2	830	829	837
1263	3	830	831	832
1264	6	830	831	833
1265	5	831	833	834
1266	3	832	831	833
1267	2	833	834	838
1268	2	833	834	839
1269	2	833	834	840
1270	4	835	829	836
1271	4	835	829	837
1272	4	836	829	837
1273	4	838	834	839
1274	4	838	834	840
1275	4	839	834	840
1276	5	841	842	843
1277	2	842	841	847
1278	2	842	841	848
1279	2	842	841	849
1280	3	842	843	844
1281	6	842	843	845
1282	5	843	845	846
1283	3	844	843	845
1284	2	845	846	850
1285	2	845	846	851
1286	2	845	846	852
1287	4	847	841	848
1288	4	847	841	849
1289	4	848	841	849
1290	4	850	846	851
1291	4	850	846	852
1292	4	851	846	852
1293	5	853	854	855
1294	2	854	853	859
1295	2	854	853	860
1296	2	854	853	861
1297	3	854	855	856
1298	6	854	855	857
1299	5	855	857	858
1300	3	856	855	857
1301	2	857	858	862
1302	2	857	858	863
1303	2	857	858	864
1304	4	859	853	860
1305	4	859	853	861
1306	4	860	853	861
1307	4	862	858	863
1308	4	862	858	864
1309	4	863	858	864
1310	5	865	866	867
1311	2	866	865	871
1312	2	866	865	872
1313	2	866	865	873
1314	3	866	867	868
1315	6	866	867	869
1316	5	867	869	870
1317	3	868	867	869
1318	2	869	870	874
1319	2	869	870	875
1320	2	869	870	876
1321	4	871	865	872
1322	4	871	865	873
1323	4	872	865	873
1324	4	874	870	875
1325	4	874	870	876
1326	4	875	870	876
1327	5	877	878	879
1328	2	878	877	883
1329	2	878	877	884
1330	2	878	877	885
1331	3	878	879	880
1332	6	878	879	881
1333	5	879	881	882
1334	3	880	879	881
1335	2	881	882	886
1336	2	881	882	887
1337	2	881	882	888
1338	4	883	877	884
1339	4	883	877	885
1340	4	884	877	885
1341	4	886	882	887
1342	4	886	882	888
1343	4	887	882	888
1344	5	889	890	891
1345	2	890	889	895
1346	2	890	889	896
1347	2	890	889	897
1348	3	890	891	892
1349	6	890	891	893
1350	5	891	893	894
1351	3	892	891	893
1352	2	893	894	898
1353	2	893	894	899
1354	2	893	894	900
1355	4	895	889	896
1356	4	895	889	897
1357	4	896	889	897
1358	4	898	894	899
1359	4	898	894	900
1360	4	899	894	900
1361	5	901	902	903
1362	2	902	901	907
1363	2	902	901	908
1364	2	902	901	909
1365	3	902	903	904
1366	6	902	903	905
1367	5	903	905	906
1368	3	904	903	905
1369	2	905	906	910
1370	2	905	906	911
1371	2	905	906	912
1372	4	907	901	908
1373	4	907	901	909
1374	4	908	901	909
1375	4	910	906	911
1376	4	910	906	912
1377	4	911	906	912
1378	5	913	914	915
1379	2	914	913	919
1380	2	914	913	920
1381	2	914	913	921
1382	3	914	915	916
1383	6	914	915	917
1384	5	915	917	918
1385	3	916	915	917
1386	2	917	918	922
1387	2	917	918	923
1388	2	917	918	924
1389	4	919	913	920
1390	4	919	913	921
1391	4	920	913	921
1392	4	922	918	923
1393	4	922	918	924
1394	4	923	918	924
1395	5	925	926	927
1396	2	926	925	931
1397	2	926	925	932
1398	2	926	925	933
1399	3	926	927	928
1400	6	926	927	929
1401	5	927	929	930
1402	3	928	927	929
1403	2	929	930	934
1404	2	929	930	935
1405	2	929	930	936
1406	4	931	925	932
1407	4	931	925	933
1408	4	932	925	933
1409	4	934	930	935
1410	4	934	930	936
1411	4	935	930	936
1412	5	937	938	939
1413	2	938	937	943
1414	2	938	937	944
1415	2	938	937	945
1416	3	938	939	940
1417	6	938	939	941
1418	5	939	941	942
1419	3	940	939	941
1420	2	941	942	946
1421	2	941	942	947
1422	2	941	942	948
1423	4	943	937	944
1424	4	943	937	945
1425	4	944	937	945
1426	4	946	942	947
1427	4	946	942	948
1428	4	947	942	948
1429	5	949	950	951
1430	2	950	949	955
1431	2	950	949	956
1432	2	950	949	957
1433	3	950	951	952
1434	6	950	951	953
1435	5	951	953	954
1436	3	952	951	953
1437	2	953	954	958
1438	2	953	954	959
1439	2	953	954	960
1440	4	955	949	956
1441	4	955	949	957
1442	4	956	949	957
1443	4	958	954	959
1444	4	958	954	960
1445	4	959	954	960
1446	5	961	962	963
1447	2	962	961	967
1448	2	962	961	968
1449	2	962	961	969
1450	3	962	963	964
1451	6	962	963	965
1452	5	963	965	966
1453	3	964	963	965
1454	2	965	966	970
1455	2	965	966	971
1456	2	965	966	972
1457	4	967	961	968
1458	4	967	961	969
1459	4	968	961	969
1460	4	970	966	971
1461	4	970	966	972
1462	4	971	966	972
1463	7	980	981	982
1464	7	980	981	983
1465	7	980	981	984
1466	7	982	981	983
1467	7	982	981	984
1468	7	983	981	984
1469	7	985	986	987
1470	7	985	986	988
1471	7	985	986	989
1472	7	987	986	988
1473	7	987	986	989
1474	7	988	986	989
1475	7	990	991	992
1476	7	990	991	993
1477	7	990	991	994
1478	7	992	991	993
1479	7	992	991	994
1480	7	993	991	994
1481	7	995	996	997
1482	7	995	996	998
1483	7	995	996	999
1484	7	997	996	998
1485	7	997	996	999
1486	7	998	996	999
1487	7	1000	1001	1002
1488	7	1000	1001	1003
1489	7	1000	1001	1004
1490	7	1002	1001	1003
1491	7	1002	1001	1004
1492	7	1003	1001	1004
1493	7	1005	1006	1007
1494	7	1005	1006	1008
1495	7	1005	1006	1009
1496	7	1007	1006	1008
1497	7	1007	1006	1009
1498	7	1008	1006	1009
1499	7	1010	1011	1012
1500	7	1010	1011	1013
1501	7	1010	1011	1014
1502	7	1012	1011	1013
1503	7	1012	1011	1014
1504	7	1013	1011	1014

Dihedrals

1	1	1	2	3	4
2	2	1	2	3	4
3	3	1	6	4	3
4	3	1	6	4	5
5	1	2	1	6	4
6	2	2	1	6	4
7	3	2	3	4	5
8	3	2	3	4	6
9	4	3	2	1	6
10	5	3	2	1	6
11	6	3	2	1	7
12	7	3	2	1	7
13	6	3	2	1	8
14	7	3	2	1	8
15	8	4	3	2	9
16	8	4	3	2	10
17	8	4	6	1	7
18	8	4	6	1	8
19	6	6	1	2	9
20	7	6	1	2	9
21	6	6	1	2	10
22	7	6	1	2	10
23	9	7	1	2	9
24	9	7	1	2	10
25	9	8	1	2	9
26	9	8	1	2	10
27	1	11	12	13	14
28	2	11	12	13	14
29	3	11	16	14	13
30	3	11	16	14	15
31	1	12	11	16	14
32	2	12	11	16	14
33	3	12	13	14	15
34	3	12	13	14	16
35	4	13	12	11	16
36	5	13	12	11	16
37	6	13	12	11	17
38	7	13	12	11	17
39	6	13	12	11	18
40	7	13	12	11	18
41	8	14	13	12	19
42	8	14	13	12	20
43	8	14	16	11	17
44	8	14	16	11	18
45	6	16	11	12	19
46	7	16	11	12	19
47	6	16	11	12	20
48	7	16	11	12	20
49	9	17	11	12	19
50	9	17	11	12	20
51	9	18	11	12	19
52	9	18	11	12	20
53	1	21	22	23	24
54	2	21	22	23	24
55	3	21	26	24	23
56	3	21	26	24	25
57	1	22	21	26	24
58	2	22	21	26	24
59	3	22	23	24	25
60	3	22	23	24	26
61	4	23	22	21	26
62	5	23	22	21	26
63	6	23	22	21	27
64	7	23	22	21	27
65	6	23	22	21	28
66	7	23	22	21	28
67	8	24	23	22	29
68	8	24	23	22	30
69	8	24	26	21	27
70	8	24	26	21	28
71	6	26	21	22	29
72	7	26	21	22	29
73	6	26	21	22	30
74	7	26	21	22	30
75	9	27	21	22	29
76	9	27	21	22	30
77	9	28	21	22	29
78	9	28	21	22	30
79	1	31	32	33	34
80	2	31	32	33	34
81	3	31	36	34	33
82	3	31	36	34	35
83	1	32	31	36	34
84	2	32	31	36	34
85	3	32	33	34	35
86	3	32	33	34	36
87	4	33	32	31	36
88	5	33	32	31	36
89	6	33	32	31	37
90	7	33	32	31	37
91	6	33	32	31	38
92	7	33	32	31	38
93	8	34	33	32	39
94	8	34	33	32	40
95	8	34	36	31	37
96	8	34	36	31	38
97	6	36	31	32	39
98	7	36	31	32	39
99	6	36	31	32	40
100	7	36	31	32	40
101	9	37	31	32	39
102	9	37	31	32	40
103	9	38	31	32	39
104	9	38	31	32	40
105	1	41	42	43	44
106	2	41	42	43	44
107	3	41	46	44	43
108	3	41	46	44	45
109	1	42	41	46	44
110	2	42	41	46	44
111	3	42	43	44	45
112	3	42	43	44	46
113	4	43	42	41	46
114	5	43	42	41	46
115	6	43	42	41	47
116	7	43	42	41	47
117	6	43	42	41	48
118	7	43	42	41	48
119	8	44	43	42	49
120	8	44	43	42	50
121	8	44	46	41	47
122	8	44	46	41	48
123	6	46	41	42	49
124	7	46	41	42	49
125	6	46	41	42	50
126	7	46	41	42	50
127	9	47	41	42	49
128	9	47	41	42	50
129	9	48	41	42	49
130	9	48	41	42	50
131	1	51	52	53	54
132	2	51	52	53	54
133	3	51	56	54	53
134	3	51	56	54	55
135	1	52	51	56	54
136	2	52	51	56	54
137	3	52	53	54	55
138	3	52	53	54	56
139	4	53	52	51	56
140	5	53	52	51	56
141	6	53	52	51	57
142	7	53	52	51	57
143	6	53	52	51	58
144	7	53	52	51	58
145	8	54	53	52	59
146	8	54	53	52	60
147	8	54	56	51	57
148	8	54	56	51	58
149	6	56	51	52	59
150	7	56	51	52	59
151	6	56	51	52	60
152	7	56	51	52	60
153	9	57	51	52	59
154	9	57	51	52	60
155	9	58	51	52	59
156	9	58	51	52	60
157	1	61	62	63	64
158	2	61	62	63	64
159	3	61	66	64	63
160	3	61	66	64	65
161	1	62	61	66	64
162	2	62	61	66	64
163	3	62	63	64	65
164	3	62	63	64	66
165	4	63	62	61	66
166	5	63	62	61	66
167	6	63	62	61	67
168	7	63	62	61	67
169	6	63	62	61	68
170	7	63	62	61	68
171	8	64	63	62	69
172	8	64	63	62	70
173	8	64	66	61	67
174	8	64	66	61	68
175	6	66	61	62	69
176	7	66	61	62	69
177	6	66	61	62	70
178	7	66	61	62	70
179	9	67	61	62	69
180	9	67	61	62	70
181	9	68	61	62	69
182	9	68	61	62	70
183	1	71	72	73	74
184	2	71	72	73	74
185	3	71	76	74	73
186	3	71	76	74	75
187	1	72	71	76	74
188	2	72	71	76	74
189	3	72	73	74	75
190	3	72	73	74	76
191	4	73	72	71	76
192	5	73	72	71	76
193	6	73	72	71	77
194	7	73	72	71	77
195	6	73	72	71	78
196	7	73	72	71	78
197	8	74	73	72	79
198	8	74	73	72	80
199	8	74	76	71	77
200	8	74	76	71	78
201	6	76	71	72	79
202	7	76	71	72	79
203	6	76	71	72	80
204	7	76	71	72	80
205	9	77	71	72	79
206	9	77	71	72	80
207	9	78	71	72	79
208	9	78	71	72	80
209	1	81	82	83	84
210	2	81	82	83	84
211	3	81	86	84	83
212	3	81	86	84	85
213	1	82	81	86	84
214	2	82	81	86	84
215	3	82	83	84	85
216	3	82	83	84	86
217	4	83	82	81	86
218	5	83	82	81	86
219	6	83	82	81	87
220	7	83	82	81	87
221	6	83	82	81	88
222	7	83	82	81	88
223	8	84	83	82	89
224	8	84	83	82	90
225	8	84	86	81	87
226	8	84	86	81	88
227	6	86	81	82	89
228	7	86	81	82	89
229	6	86	81	82	90
230	7	86	81	82	90
231	9	87	81	82	89
232	9	87	81	82	90
233	9	88	81	82	89
234	9	88	81	82	90
235	1	91	92	93	94
236	2	91	92	93	94
237	3	91	96	94	93
238	3	91	96	94	95
239	1	92	91	96	94
240	2	92	91	96	94
241	3	92	93	94	95
242	3	92	93	94	96
243	4	93	92	91	96
244	5	93	92	91	96
245	6	93	92	91	97
246	7	93	92	91	97
247	6	93	92	91	98
248	7	93	92	91	98
249	8	94	93	92	99
250	8	94	93	92	100
251	8	94	96	91	97
252	8	94	96	91	98
253	6	96	91	92	99
254	7	96	91	92	99
255	6	96	91	92	100
256	7	96	91	92	100
257	9	97	91	92	99
258	9	97	91	92	100
259	9	98	91	92	99
260	9	98	91	92	100
261	1	101	102	103	104
262	2	101	102	103	104
263	3	101	106	104	103
264	3	101	106	104	105
265	1	102	101	106	104
266	2	102	101	106	104
267	3	102	103	104	105
268	3	102	103	104	106
269	4	103	102	101	106
270	5	103	102	101	106
271	6	103	102	101	107
272	7	103	102	101	107
273	6	103	102	101	108
274	7	103	102	101	108
275	8	104	103	102	109
276	8	104	103	102	110
277	8	104	106	101	107
278	8	104	106	101	108
279	6	106	101	102	109
280	7	106	101	102	109
281	6	106	101	102	110
282	7	106	101	102	110
283	9	107	101	102	109
284	9	107	101	102	110
285	9	108	101	102	109
286	9	108	101	102	110
287	1	111	112	113	114
288	2	111	112	113	114
289	3	111	116	114	113
290	3	111	116	114	115
291	1	112	111	116	114
292	2	112	111	116	114
293	3	112	113	114	115
294	3	112	113	114	116
295	4	113	112	111	116
296	5	113	112	111	116
297	6	113	112	111	117
298	7	113	112	111	117
299	6	113	112	111	118
300	7	113	112	111	118
301	8	114	113	112	119
302	8	114	113	112	120
303	8	114	116	111	117
304	8	114	116	111	118
305	6	116	111	112	119
306	7	116	111	112	119
307	6	116	111	112	120
308	7	116	111	112	120
309	9	117	111	112	119
310	9	117	111	112	120
311	9	118	111	112	119
312	9	118	111	112	120
313	1	121	122	123	124
314	2	121	122	123	124
315	3	121	126	124	123
316	3	121	126	124	125
317	1	122	121	126	124
318	2	122	121	126	124
319	3	122	123	124	125
320	3	122	123	124	126
321	4	123	122	121	126
322	5	123	122	121	126
323	6	123	122	121	127
324	7	123	122	121	127
325	6	123	122	121	128
326	7	123	122	121	128
327	8	124	123	122	129
328	8	124	123	122	130
329	8	124	126	121	127
330	8	124	126	121	128
331	6	126	121	122	129
332	7	126	121	122	129
333	6	126	121	122	130
334	7	126	121	122	130
335	9	127	121	122	129
336	9	127	121	122	130
337	9	128	121	122	129
338	9	128	121	122	130
339	1	131	132	133	134
340	2	131	132	133	134
341	3	131	136	134	133
342	3	131	136	134	135
343	1	132	131	136	134
344	2	132	131	136	134
345	3	132	133	134	135
346	3	132	133	134	136
347	4	133	132	131	136
348	5	133	132	131	136
349	6	133	132	131	137
350	7	133	132	131	137
351	6	133	132	131	138
352	7	133	132	131	138
353	8	134	133	132	139
354	8	134	133	132	140
355	8	134	136	131	137
356	8	134	136	131	138
357	6	136	131	132	139
358	7	136	131	132	139
359	6	136	131	132	140
360	7	136	131	132	140
361	9	137	131	132	139
362	9	137	131	132	140
363	9	138	131	132	139
364	9	138	131	132	140
365	1	141	142	143	144
366	2	141	142	143	144
367	3	141	146	144	143
368	3	141	146	144	145
369	1	142	141	146	144
370	2	142	141	146	144
371	3	142	143	144	145
372	3	142	143	144	146
373	4	143	142	141	146
374	5	143	142	141	146
375	6	143	142	141	147
376	7	143	142	141	147
377	6	143	142	141	148
378	7	143	142	141	148
379	8	144	143	142	149
380	8	144	143	142	150
381	8	144	146	141	147
382	8	144	146	141	148
383	6	146	141	142	149
384	7	146	141	142	149
385	6	146	141	142	150
386	7	146	141	142	150
387	9	147	141	142	149
388	9	147	141	142	150
389	9	148	141	142	149
390	9	148	141	142	150
391	1	151	152	153	154
392	2	151	152	153	154
393	3	151	156	154	153
394	3	151	156	154	155
395	1	152	151	156	154
396	2	152	151	156	154
397	3	152	153	154	155
398	3	152	153	154	156
399	4	153	152	151	156
400	5	153	152	151	156
401	6	153	152	151	157
402	7	153	152	151	157
403	6	153	152	151	158
404	7	153	152	151	158
405	8	154	153	152	159
406	8	154	153	152	160
407	8	154	156	151	157
408	8	154	156	151	158
409	6	156	151	152	159
410	7	156	151	152	159
411	6	156	151	152	160
412	7	156	151	152	160
413	9	157	151	152	159
414	9	157	151	152	160
415	9	158	151	152	159
416	9	158	151	152	160
417	1	161	162	163	164
418	2	161	162	163	164
419	3	161	166	164	163
420	3	161	166	164	165
421	1	162	161	166	164
422	2	162	161	166	164
423	3	162	163	164	165
424	3	162	163	164	166
425	4	163	162	161	166
426	5	163	162	161	166
427	6	163	162	161	167
428	7	163	162	161	167
429	6	163	162	161	168
430	7	163	162	161	168
431	8	164	163	162	169
432	8	164	163	162	170
433	8	164	166	161	167
434	8	164	166	161	168
435	6	166	161	162	169
436	7	166	161	162	169
437	6	166	161	162	170
438	7	166	161	162	170
439	9	167	161	162	169
440	9	167	161	162	170
441	9	168	161	162	169
442	9	168	161	162	170
443	1	171	172	173	174
444	2	171	172	173	174
445	3	171	176	174	173
446	3	171	176	174	175
447	1	172	171	176	174
448	2	172	171	176	174
449	3	172	173	174	175
450	3	172	173	174	176
451	4	173	172	171	176
452	5	173	172	171	176
453	6	173	172	171	177
454	7	173	172	171	177
455	6	173	172	171	178
456	7	173	172	171	178
457	8	174	173	172	179
458	8	174	173	172	180
459	8	174	176	171	177
460	8	174	176	171	178
461	6	176	171	172	179
462	7	176	171	172	179
463	6	176	171	172	180
464	7	176	171	172	180
465	9	177	171	172	179
466	9	177	171	172	180
467	9	178	171	172	179
468	9	178	171	172	180
469	1	181	182	183	184
470	2	181	182	183	184
471	3	181	186	184	183
472	3	181	186	184	185
473	1	182	181	186	184
474	2	182	181	186	184
475	3	182	183	184	185
476	3	182	183	184	186
477	4	183	182	181	186
478	5	183	182	181	186
479	6	183	182	181	187
480	7	183	182	181	187
481	6	183	182	181	188
482	7	183	182	181	188
483	8	184	183	182	189
484	8	184	183	182	190
485	8	184	186	181	187
486	8	184	186	181	188
487	6	186	181	182	189
488	7	186	181	182	189
489	6	186	181	182	190
490	7	186	181	182	190
491	9	187	181	182	189
492	9	187	181	182	190
493	9	188	181	182	189
494	9	188	181	182	190
495	1	191	192	193	194
496	2	191	192	193	194
497	3	191	196	194	193
498	3	191	196	194	195
499	1	192	191	196	194
500	2	192	191	196	194
501	3	192	193	194	195
502	3	192	193	194	196
503	4	193	192	191	196
504	5	193	192	191	196
505	6	193	192	191	197
506	7	193	192	191	197
507	6	193	192	191	198
508	7	193	192	191	198
509	8	194	193	192	199
510	8	194	193	192	200
511	8	194	196	191	197
512	8	194	196	191	198
513	6	196	191	192	199
514	7	196	191	192	199
515	6	196	191	192	200
516	7	196	191	192	200
517	9	197	191	192	199
518	9	197	191	192	200
519	9	198	191	192	199
520	9	198	191	192	200
521	1	201	202	203	204
522	2	201	202	203	204
523	3	201	206	204	203
524	3	201	206	204	205
525	1	202	201	206	204
526	2	202	201	206	204
527	3	202	203	204	205
528	3	202	203	204	206
529	4	203	202	201	206
530	5	203	202	201	206
531	6	203	202	201	207
532	7	203	202	201	207
533	6	203	202	201	208
534	7	203	202	201	208
535	8	204	203	202	209
536	8	204	203	202	210
537	8	204	206	201	207
538	8	204	206	201	208
539	6	206	201	202	209
540	7	206	201	202	209
541	6	206	201	202	210
542	7	206	201	202	210
543	9	207	201	202	209
544	9	207	201	202	210
545	9	208	201	202	209
546	9	208	201	202	210
547	1	211	212	213	214
548	2	211	212	213	214
549	3	211	216	214	213
550	3	211	216	214	215
551	1	212	211	216	214
552	2	212	211	216	214
553	3	212	213	214	215
554	3	212	213	214	216
555	4	213	212	211	216
556	5	213	212	211	216
557	6	213	212	211	217
558	7	213	212	211	217
559	6	213	212	211	218
560	7	213	212	211	218
561	8	214	213	212	219
562	8	214	213	212	220
563	8	214	216	211	217
564	8	214	216	211	218
565	6	216	211	212	219
566	7	216	211	212	219
567	6	216	211	212	220
568	7	216	211	212	220
569	9	217	211	212	219
570	9	217	211	212	220
571	9	218	211	212	219
572	9	218	211	212	220
573	1	221	222	223	224
574	2	221	222	223	224
575	3	221	226	224	223
576	3	221	226	224	225
577	1	222	221	226	224
578	2	222	221	226	224
579	3	222	223	224	225
580	3	222	223	224	226
581	4	223	222	221	226
582	5	223	222	221	226
583	6	223	222	221	227
584	7	223	222	221	227
585	6	223	222	221	228
586	7	223	222	221	228
587	8	224	223	222	229
588	8	224	223	222	230
589	8	224	226	221	227
590	8	224	226	221	228
591	6	226	221	222	229
592	7	226	221	222	229
593	6	226	221	222	230
594	7	226	221	222	230
595	9	227	221	222	229
596	9	227	221	222	230
597	9	228	221	222	229
598	9	228	221	222	230
599	1	231	232	233	234
600	2	231	232	233	234
601	3	231	236	234	233
602	3	231	236	234	235
603	1	232	231	236	234
604	2	232	231	236	234
605	3	232	233	234	235
606	3	232	233	234	236
607	4	233	232	231	236
608	5	233	232	231	236
609	6	233	232	231	237
610	7	233	232	231	237
611	6	233	232	231	238
612	7	233	232	231	238
613	8	234	233	232	239
614	8	234	233	232	240
615	8	234	236	231	237
616	8	234	236	231	238
617	6	236	231	232	239
618	7	236	231	232	239
619	6	236	231	232	240
620	7	236	231	232	240
621	9	237	231	232	239
622	9	237	231	232	240
623	9	238	231	232	239
624	9	238	231	232	240
625	1	241	242	243	244
626	2	241	242	243	244
627	3	241	246	244	243
628	3	241	246	244	245
629	1	242	241	246	244
630	2	242	241	246	244
631	3	242	243	244	245
632	3	242	243	244	246
633	4	243	242	241	246
634	5	243	242	241	246
635	6	243	242	241	247
636	7	243	242	241	247
637	6	243	242	241	248
638	7	243	242	241	248
639	8	244	243	242	249
640	8	244	243	242	250
641	8	244	246	241	247
642	8	244	246	241	248
643	6	246	241	242	249
644	7	246	241	242	249
645	6	246	241	242	250
646	7	246	241	242	250
647	9	247	241	242	249
648	9	247	241	242	250
649	9	248	241	242	249
650	9	248	241	242	250
651	1	251	252	253	254
652	2	251	252	253	254
653	3	251	256	254	253
654	3	251	256	254	255
655	1	252	251	256	254
656	2	252	251	256	254
657	3	252	253	254	255
658	3	252	253	254	256
659	4	253	252	251	256
660	5	253	252	251	256
661	6	253	252	251	257
662	7	253	252	251	257
663	6	253	252	251	258
664	7	253	252	251	258
665	8	254	253	252	259
666	8	254	253	252	260
667	8	254	256	251	257
668	8	254	256	251	258
669	6	256	251	252	259
670	7	256	251	252	259
671	6	256	251	252	260
672	7	256	251	252	260
673	9	257	251	252	259
674	9	257	251	252	260
675	9	258	251	252	259
676	9	258	251	252	260
677	1	261	262	263	264
678	2	261	262	263	264
679	3	261	266	264	263
680	3	261	266	264	265
681	1	262	261	266	264
682	2	262	261	266	264
683	3	262	263	264	265
684	3	262	263	264	266
685	4	263	262	261	266
686	5	263	262	261	266
687	6	263	262	261	267
688	7	263	262	261	267
689	6	263	262	261	268
690	7	263	262	261	268
691	8	264	263	262	269
692	8	264	263	262	270
693	8	264	266	261	267
694	8	264	266	261	268
695	6	266	261	262	269
696	7	266	261	262	269
697	6	266	261	262	270
698	7	266	261	262	270
699	9	267	261	262	269
700	9	267	261	262	270
701	9	268	261	262	269
702	9	268	261	262	270
703	1	271	272	273	274
704	2	271	272	273	274
705	3	271	276	274	273
706	3	271	276	274	275
707	1	272	271	276	274
708	2	272	271	276	274
709	3	272	273	274	275
710	3	272	273	274	276
711	4	273	272	271	276
712	5	273	272	271	276
713	6	273	272	271	277
714	7	273	272	271	277
715	6	273	272	271	278
716	7	273	272	271	278
717	8	274	273	272	279
718	8	274	273	272	280
719	8	274	276	271	277
720	8	274	276	271	278
721	6	276	271	272	279
722	7	276	271	272	279
723	6	276	271	272	280
724	7	276	271	272	280
725	9	277	271	272	279
726	9	277	271	272	280
727	9	278	271	272	279
728	9	278	271	272	280
729	1	281	282	283	284
730	2	281	282	283	284
731	3	281	286	284	283
732	3	281	286	284	285
733	1	282	281	286	284
734	2	282	281	286	284
735	3	282	283	284	285
736	3	282	283	284	286
737	4	283	282	281	286
738	5	283	282	281	286
739	6	283	282	281	287
740	7	283	282	281	287
741	6	283	282	281	288
742	7	283	282	281	288
743	8	284	283	282	289
744	8	284	283	282	290
745	8	284	286	281	287
746	8	284	286	281	288
747	6	286	281	282	289
748	7	286	281	282	289
749	6	286	281	282	290
750	7	286	281	282	290
751	9	287	281	282	289
752	9	287	281	282	290
753	9	288	281	282	289
754	9	288	281	282	290
755	1	291	292	293	294
756	2	291	292	293	294
757	3	291	296	294	293
758	3	291	296	294	295
759	1	292	291	296	294
760	2	292	291	296	294
761	3	292	293	294	295
762	3	292	293	294	296
763	4	293	292	291	296
764	5	293	292	291	296
765	6	293	292	291	297
766	7	293	292	291	297
767	6	293	292	291	298
768	7	293	292	291	298
769	8	294	293	292	299
770	8	294	293	292	300
771	8	294	296	291	297
772	8	294	296	291	298
773	6	296	291	292	299
774	7	296	291	292	299
775	6	296	291	292	300
776	7	296	291	292	300
777	9	297	291	292	299
778	9	297	291	292	300
779	9	298	291	292	299
780	9	298	291	292	300
781	10	301	302	303	304
782	11	301	302	303	304
783	12	301	302	303	305
784	12	302	303	305	306
785	8	303	302	301	307
786	8	303	302	301	308
787	8	303	302	301	309
788	8	303	305	306	310
789	8	303	305	306	311
790	8	303	305	306	312
791	10	304	303	305	306
792	11	304	303	305	306
793	10	313	314	315	316
794	11	313	314	315	316
795	12	313	314	315	317
796	12	314	315	317	318
797	8	315	314	313	319
798	8	315	314	313	320
799	8	315	314	313	321
800	8	315	317	318	322
801	8	315	317	318	323
802	8	315	317	318	324
803	10	316	315	317	318
804	11	316	315	317	318
805	10	325	326	327	328
806	11	325	326	327	328
807	12	325	326	327	329
808	12	326	327	329	330
809	8	327	326	325	331
810	8	327	326	325	332
811	8	327	326	325	333
812	8	327	329	330	334
813	8	327	329	330	335
814	8	327	329	330	336
815	10	328	327	329	330
816	11	328	327	329	330
817	10	337	338	339	340
818	11	337	338	339	340
819	12	337	338	339	341
820	12	338	339	341	342
821	8	339	338	337	343
822	8	339	338	337	344
823	8	339	338	337	345
824	8	339	341	342	346
825	8	339	341	342	347
826	8	339	341	342	348
827	10	340	339	341	342
828	11	340	339	341	342
829	10	349	350	351	352
830	11	349	350	351	352
831	12	349	350	351	353
832	12	350	351	353	354
833	8	351	350	349	355
834	8	351	350	349	356
835	8	351	350	349	357
836	8	351	353	354	358
837	8	351	353	354	359
838	8	351	353	354	360
839	10	352	351	353	354
840	11	352	351	353	354
841	10	361	362	363	364
842	11	361	362	363	364
843	12	361	362	363	365
844	12	362	363	365	366
845	8	363	362	361	367
846	8	363	362	361	368
847	8	363	362	361	369
848	8	363	365	366	370
849	8	363	365	366	371
850	8	363	365	366	372
851	10	364	363	365	366
852	11	364	363	365	366
853	10	373	374	375	376
854	11	373	374	375	376
855	12	373	374	375	377
856	12	374	375	377	378
857	8	375	374	373	379
858	8	375	374	373	380
859	8	375	374	373	381
860	8	375	377	378	382
861	8	375	377	378	383
862	8	375	377	378	384
863	10	376	375	377	378
864	11	376	375	377	378
865	10	385	386	387	388
866	11	385	386	387	388
867	12	385	386	387	389
868	12	386	387	389	390
869	8	387	386	385	391
870	8	387	386	385	392
871	8	387	386	385	393
872	8	387	389	390	394
873	8	387	389	390	395
874	8	387	389	390	396
875	10	388	387	389	390
876	11	388	387	389	390
877	10	397	398	399	400
878	11	397	398	399	400
879	12	397	398	399	401
880	12	398	399	401	402
881	8	399	398	397	403
882	8	399	398	397	404
883	8	399	398	397	405
884	8	399	401	402	406
885	8	399	401	402	407
886	8	399	401	402	408
887	10	400	399	401	402
888	11	400	399	401	402
889	10	409	410	411	412
890	11	409	410	411	412
891	12	409	410	411	413
892	12	410	411	413	414
893	8	411	410	409	415
894	8	411	410	409	416
895	8	411	410	409	417
896	8	411	413	414	418
897	8	411	413	414	419
898	8	411	413	414	420
899	10	412	411	413	414
900	11	412	411	413	414
901	10	421	422	423	424
902	11	421	422	423	424
903	12	421	422	423	425
904	12	422	423	425	426
905	8	423	422	421	427
906	8	423	422	421	428
907	8	423	422	421	429
908	8	423	425	426	430
909	8	423	425	426	431
910	8	423	425	426	432
911	10	424	423	425	426
912	11	424	423	425	426
913	10	433	434	435	436
914	11	433	434	435	436
915	12	433	434	435	437
916	12	434	435	437	438
917	8	435	434	433	439
918	8	435	434	433	440
919	8	435	434	433	441
920	8	435	437	438	442
921	8	435	437	438	443
922	8	435	437	438	444
923	10	436	435	437	438
924	11	436	435	437	438
925	10	445	446	447	448
926	11	445	446	447	448
927	12	445	446	447	449
928	12	446	447	449	450
929	8	447	446	445	451
930	8	447	446	445	452
931	8	447	446	445	453
932	8	447	449	450	454
933	8	447	449	450	455
934	8	447	449	450	456
935	10	448	447	449	450
936	11	448	447	449	450
937	10	457	458	459	460
938	11	457	458	459	460
939	12	457	458	459	461
940	12	458	459	461	462
941	8	459	458	457	463
942	8	459	458	457	464
943	8	459	458	457	465
944	8	459	461	462	466
945	8	459	461	462	467
946	8	459	461	462	468
947	10	460	459	461	462
948	11	460	459	461	462
949	10	469	470	471	472
950	11	469	470	471	472
951	12	469	470	471	473
952	12	470	471	473	474
953	8	471	470	469	475
954	8	471	470	469	476
955	8	471	470	469	477
956	8	471	473	474	478
957	8	471	473	474	479
958	8	471	473	474	480
959	10	472	471	473	474
960	11	472	471	473	474
961	10	481	482	483	484
962	11	481	482	483	484
963	12	481	482	483	485
964	12	482	483	485	486
965	8	483	482	481	487
966	8	483	482	481	488
967	8	483	482	481	489
968	8	483	485	486	490
969	8	483	485	486	491
970	8	483	485	486	492
971	10	484	483	485	486
972	11	484	483	485	486
973	10	493	494	495	496
974	11	493	494	495	496
975	12	493	494	495	497
976	12	494	495	497	498
977	8	495	494	493	499
978	8	495	494	493	500
979	8	495	494	493	501
980	8	495	497	498	502
981	8	495	497	498	503
982	8	495	497	498	504
983	10	496	495	497	498
984	11	496	495	497	498
985	10	505	506	507	508
986	11	505	506	507	508
987	12	505	506	507	509
988	12	506	507	509	510
989	8	507	506	505	511
990	8	507	506	505	512
991	8	507	506	505	513
992	8	507	509	510	514
993	8	507	509	510	515
994	8	507	509	510	516
995	10	508	507	509	510
996	11	508	507	509	510
997	10	517	518	519	520
998	11	517	518	519	520
999	12	517	518	519	521
1000	12	518	519	521	522
1001	8	519	518	517	523
1002	8	519	518	517	524
1003	8	519	518	517	525
1004	8	519	521	522	526
1005	8	519	521	522	527
1006	8	519	521	522	528
1007	10	520	519	521	522
1008	11	520	519	521	522
1009	10	529	530	531	532
1010	11	529	530	531	532
1011	12	529	530	531	533
1012	12	530	531	533	534
1013	8	531	530	529	535
1014	8	531	530	529	536
1015	8	531	530	529	537
1016	8	531	533	534	538
1017	8	531	533	534	539
1018	8	531	533	534	540
1019	10	532	531	533	534
1020	11	532	531	533	534
1021	10	541	542	543	544
1022	11	541	542	543	544
1023	12	541	542	543	545
1024	12	542	543	545	546
1025	8	543	542	541	547
1026	8	543	542	541	548
1027	8	543	542	541	549
1028	8	543	545	546	550
1029	8	543	545	546	551
1030	8	543	545	546	552
1031	10	544	543	545	546
1032	11	544	543	545	546
1033	10	553	554	555	556
1034	11	553	554	555	556
1035	12	553	554	555	557
1036	12	554	555	557	558
1037	8	555	554	553	559
1038	8	555	554	553	560
1039	8	555	554	553	561
1040	8	555	557	558	562
1041	8	555	557	558	563
1042	8	555	557	558	564
1043	10	556	555	557	558
1044	11	556	555	557	558
1045	10	565	566	567	568
1046	11	565	566	567	568
1047	12	565	566	567	569
1048	12	566	567	569	570
1049	8	567	566	565	571
1050	8	567	566	565	572
1051	8	567	566	565	573
1052	8	567	569	570	574
1053	8	567	569	570	575
1054	8	567	569	570	576
1055	10	568	567	569	570
1056	11	568	567	569	570
1057	10	577	578	579	580
1058	11	577	578	579	580
1059	12	577	578	579	581
1060	12	578	579	581	582
1061	8	579	578	577	583
1062	8	579	578	577	584
1063	8	579	578	577	585
1064	8	579	581	582	586
1065	8	579	581	582	587
1066	8	579	581	582	588
1067	10	580	579	581	582
1068	11	580	579	581	582
1069	10	589	590	591	592
1070	11	589	590	591	592
1071	12	589	590	591	593
1072	12	590	591	593	594
1073	8	591	590	589	595
1074	8	591	590	589	596
1075	8	591	590	589	597
1076	8	591	593	594	598
1077	8	591	593	594	599
1078	8	591	593	594	600
1079	10	592	591	593	594
1080	11	592	591	593	594
1081	10	601	602	603	604
1082	11	601	602	603	604
1083	12	601	602	603	605
1084	12	602	603	605	606
1085	8	603	602	601	607
1086	8	603	602	601	608
1087	8	603	602	601	609
1088	8	603	605	606	610
1089	8	603	605	606	611
1090	8	603	605	606	612
1091	10	604	603	605	606
1092	11	604	603	605	606
1093	10	613	614	615	616
1094	11	613	614	615	616
1095	12	613	614	615	617
1096	12	614	615	617	618
1097	8	615	614	613	619
1098	8	615	614	613	620
1099	8	615	614	613	621
1100	8	615	617	618	622
1101	8	615	617	618	623
1102	8	615	617	618	624
1103	10	616	615	617	618
1104	11	616	615	617	618
1105	10	625	626	627	628
1106	11	625	626	627	628
1107	12	625	626	627	629
1108	12	626	627	629	630
1109	8	627	626	625	631
1110	8	627	626	625	632
1111	8	627	626	625	633
1112	8	627	629	630	634
1113	8	627	629	630	635
1114	8	627	629	630	636
1115	10	628	627	629	630
1116	11	628	627	629	630
1117	10	637	638	639	640
1118	11	637	638	639	640
1119	12	637	638	639	641
1120	12	638	639	641	642
1121	8	639	638	637	643
1122	8	639	638	637	644
1123	8	639	638	637	645
1124	8	639	641	642	646
1125	8	639	641	642	647
1126	8	639	641	642	648
1127	10	640	639	641	642
1128	11	640	639	641	642
1129	10	649	650	651	652
1130	11	649	650	651	652
1131	12	649	650	651	653
1132	12	650	651	653	654
1133	8	651	650	649	655
1134	8	651	650	649	656
1135	8	651	650	649	657
1136	8	651	653	654	658
1137	8	651	653	654	659
1138	8	651	653	654	660
1139	10	652	651	653	654
1140	11	652	651	653	654
1141	10	661	662	663	664
1142	11	661	662	663	664
1143	12	661	662	663	665
1144	12	662	663	665	666
1145	8	663	662	661	667
1146	8	663	662	661	668
1147	8	663	662	661	669
1148	8	663	665	666	670
1149	8	663	665	666	671
1150	8	663	665	666	672
1151	10	664	663	665	666
1152	11	664	663	665	666
1153	10	673	674	675	676
1154	11	673	674	675	676
1155	12	673	674	675	677
1156	12	674	675	677	678
1157	8	675	674	673	679
1158	8	675	674	673	680
1159	8	675	674	673	681
1160	8	675	677	678	682
1161	8	675	677	678	683
1162	8	675	677	678	684
1163	10	676	675	677	678
1164	11	676	675	677	678
1165	10	685	686	687	688
1166	11	685	686	687	688
1167	12	685	686	687	689
1168	12	686	687	689	690
1169	8	687	686	685	691
1170	8	687	686	685	692
1171	8	687	686	685	693
1172	8	687	689	690	694
1173	8	687	689	690	695
1174	8	687	689	690	696
1175	10	688	687	689	690
1176	11	688	687	689	690
1177	10	697	698	699	700
1178	11	697	698	699	700
1179	12	697	698	699	701
1180	12	698	699	701	702
1181	8	699	698	697	703
1182	8	699	698	697	704
1183	8	699	698	697	705
1184	8	699	701	702	706
1185	8	699	701	702	707
1186	8	699	701	702	708
1187	10	700	699	701	702
1188	11	700	699	701	702
1189	10	709	710	711	712
1190	11	709	710	711	712
1191	12	709	710	711	713
1192	12	710	711	713	714
1193	8	711	710	709	715
1194	8	711	710	709	716
1195	8	711	710	709	717
1196	8	711	713	714	718
1197	8	711	713	714	719
1198	8	711	713	714	720
1199	10	712	711	713	714
1200	11	712	711	713	714
1201	10	721	722	723	724
1202	11	721	722	723	724
1203	12	721	722	723	725
1204	12	722	723	725	726
1205	8	723	722	721	727
1206	8	723	722	721	728
1207	8	723	722	721	729
1208	8	723	725	726	730
1209	8	723	725	726	731
1210	8	723	725	726	732
1211	10	724	723	725	726
1212	11	724	723	725	726
1213	10	733	734	735	736
1214	11	733	734	735	736
1215	12	733	734	735	737
1216	12	734	735	737	738
1217	8	735	734	733	739
1218	8	735	734	733	740
1219	8	735	734	733	741
1220	8	735	737	738	742
1221	8	735	737	738	743
1222	8	735	737	738	744
1223	10	736	735	737	738
1224	11	736	735	737	738
1225	10	745	746	747	748
1226	11	745	746	747	748
1227	12	745	746	747	749
1228	12	746	747	749	750
1229	8	747	746	745	751
1230	8	747	746	745	752
1231	8	747	746	745	753
1232	8	747	749	750	754
1233	8	747	749	750	755
1234	8	747	749	750	756
1235	10	748	747	749	750
1236	11	748	747	749	750
1237	10	757	758	759	760
1238	11	757	758	759	760
1239	12	757	758	759	761
1240	12	758	759	761	762
1241	8	759	758	757	763
1242	8	759	758	757	764
1243	8	759	758	757	765
1244	8	759	761	762	766
1245	8	759	761	762	767
1246	8	759	761	762	768
1247	10	760	759	761	762
1248	11	760	759	761	762
1249	10	769	770	771	772
1250	11	769	770	771	772
1251	12	769	770	771	773
1252	12	770	771	773	774
1253	8	771	770	769	775
1254	8	771	770	769	776
1255	8	771	770	769	777
1256	8	771	773	774	778
1257	8	771	773	774	779
1258	8	771	773	774	780
1259	10	772	771	773	774
1260	11	772	771	773	774
1261	10	781	782	783	784
1262	11	781	782	783	784
1263	12	781	782	783	785
1264	12	782	783	785	786
1265	8	783	782	781	787
1266	8	783	782	781	788
1267	8	783	782	781	789
1268	8	783	785	786	790
1269	8	783	785	786	791
1270	8	783	785	786	792
1271	10	784	783	785	786
1272	11	784	783	785	786
1273	10	793	794	795	796
1274	11	793	794	795	796
1275	12	793	794	795	797
1276	12	794	795	797	798
1277	8	795	794	793	799
1278	8	795	794	793	800
1279	8	795	794	793	801
1280	8	795	797	798	802
1281	8	795	797	798	803
1282	8	795	797	798	804
1283	10	796	795	797	798
1284	11	796	795	797	798
1285	10	805	806	807	808
1286	11	805	806	807	808
1287	12	805	806	807	809
1288	12	806	807	809	810
1289	8	807	806	805	811
1290	8	807	806	805	812
1291	8	807	806	805	813
1292	8	807	809	810	814
1293	8	807	809	810	815
1294	8	807	809	810	816
1295	10	808	807	809	810
1296	11	808	807	809	810
1297	10	817	818	819	820
1298	11	817	818	819	820
1299	12	817	818	819	821
1300	12	818	819	821	822
1301	8	819	818	817	823
1302	8	819	818	817	824
1303	8	819	818	817	825
1304	8	819	821	822	826
1305	8	819	821	822	827
1306	8	819	821	822	828
1307	10	820	819	821	822
1308	11	820	819	821	822
1309	10	829	830	831	832
1310	11	829	830	831	832
1311	12	829	830	831	833
1312	12	830	831	833	834
1313	8	831	830	829	835
1314	8	831	830	829	836
1315	8	831	830	829	837
1316	8	831	833	834	838
1317	8	831	833	834	839
1318	8	831	833	834	840
1319	10	832	831	833	834
1320	11	832	831	833	834
1321	10	841	842	843	844
1322	11	841	842	843	844
1323	12	841	842	843	845
1324	12	842	843	845	846
1325	8	843	842	841	847
1326	8	843	842	841	848
1327	8	843	842	841	849
1328	8	843	845	846	850
1329	8	843	845	846	851
1330	8	843	845	846	852
1331	10	844	843	845	846
1332	11	844	843	845	846
1333	10	853	854	855	856
1334	11	853	854	855	856
1335	12	853	854	855	857
1336	12	854	855	857	858
1337	8	855	854	853	859
1338	8	855	854	853	860
1339	8	855	854	853	861
1340	8	855	857	858	862
1341	8	855	857	858	863
1342	8	855	857	858	864
1343	10	856	855	857	858
1344	11	856	855	857	858
1345	10	865	866	867	868
1346	11	865	866	867	868
1347	12	865	866	867	869
1348	12	866	867	869	870
1349	8	867	866	865	871
1350	8	867	866	865	872
1351	8	867	866	865	873
1352	8	867	869	870	874
1353	8	867	869	870	875
1354	8	867	869	870	876
1355	10	868	867	869	870
1356	11	868	867	869	870
1357	10	877	878	879	880
1358	11	877	878	879	880
1359	12	877	878	879	881
1360	12	878	879	881	882
1361	8	879	878	877	883
1362	8	879	878	877	884
1363	8	879	878	877	885
1364	8	879	881	882	886
1365	8	879	881	882	887
1366	8	879	881	882	888
1367	10	880	879	881	882
1368	11	880	879	881	882
1369	10	889	890	891	892
1370	11	889	890	891	892
1371	12	889	890	891	893
1372	12	890	891	893	894
1373	8	891	890	889	895
1374	8	891	890	889	896
1375	8	891	890	889	897
1376	8	891	893	894	898
1377	8	891	893	894	899
1378	8	891	893	894	900
1379	10	892	891	893	894
1380	11	892	891	893	894
1381	10	901	902	903	904
1382	11	901	902	903	904
1383	12	901	902	903	905
1384	12	902	903	905	906
1385	8	903	902	901	907
1386	8	903	902	901	908
1387	8	903	902	901	909
1388	8	903	905	906	910
1389	8	903	905	906	911
1390	8	903	905	906	912
1391	10	904	903	905	906
1392	11	904	903	905	906
1393	10	913	914	915	916
1394	11	913	914	915	916
1395	12	913	914	915	917
1396	12	914	915	917	918
1397	8	915	914	913	919
1398	8	915	914	913	920
1399	8	915	914	913	921
1400	8	915	917	918	922
1401	8	915	917	918	923
1402	8	915	917	918	924
1403	10	916	915	917	918
1404	11	916	915	917	918
1405	10	925	926	927	928
1406	11	925	926	927	928
1407	12	925	926	927	929
1408	12	926	927	929	930
1409	8	927	926	925	931
1410	8	927	926	925	932
1411	8	927	926	925	933
1412	8	927	929	930	934
1413	8	927	929	930	935
1414	8	927	929	930	936
1415	10	928	927	929	930
1416	11	928	927	929	930
1417	10	937	938	939	940
1418	11	937	938	939	940
1419	12	937	938	939	941
1420	12	938	939	941	942
1421	8	939	938	937	943
1422	8	939	938	937	944
1423	8	939	938	937	945
1424	8	939	941	942	946
1425	8	939	941	942	947
1426	8	939	941	942	948
1427	10	940	939	941	942
1428	11	940	939	941	942
1429	10	949	950	951	952
1430	11	949	950	951	952
1431	12	949	950	951	953
1432	12	950	951	953	954
1433	8	951	950	949	955
1434	8	951	950	949	956
1435	8	951	950	949	957
1436	8	951	953	954	958
1437	8	951	953	954	959
1438	8	951	953	954	960
1439	10	952	951	953	954
1440	11	952	951	953	954
1441	10	961	962	963	964
1442	11	961	962	963	964
1443	12	961	962	963	965
1444	12	962	963	965	966
1445	8	963	962	961	967
1446	8	963	962	961	968
1447	8	963	962	961	969
1448	8	963	965	966	970
1449	8	963	965	966	971
1450	8	963	965	966	972
1451	10	964	963	965	966
1452	11	964	963	965	966

Impropers

1	1	4	3	5	6
2	1	4	5	6	3
3	1	4	6	3	5
4	1	14	13	15	16
5	1	14	15	16	13
6	1	14	16	13	15
7	1	24	23	25	26
8	1	24	25	26	23
9	1	24	26	23	25
10	1	34	33	35	36
11	1	34	35	36	33
12	1	34	36	33	35
13	1	44	43	45	46
14	1	44	45	46	43
15	1	44	46	43	45
16	1	54	53	55	56
17	1	54	55	56	53
18	1	54	56	53	55
19	1	64	63	65	66
20	1	64	65	66	63
21	1	64	66	63	65
22	1	74	73	75	76
23	1	74	75	76	73
24	1	74	76	73	75
25	1	84	83	85	86
26	1	84	85	86	83
27	1	84	86	83	85
28	1	94	93	95	96
29	1	94	95	96	93
30	1	94	96	93	95
31	1	104	103	105	106
32	1	104	105	106	103
33	1	104	106	103	105
34	1	114	113	115	116
35	1	114	115	116	113
36	1	114	116	113	115
37	1	124	123	125	126
38	1	124	125	126	123
39	1	124	126	123	125
40	1	134	133	135	136
41	1	134	135	136	133
42	1	134	136	133	135
43	1	144	143	145	146
44	1	144	145	146	143
45	1	144	146	143	145
46	1	154	153	155	156
47	1	154	155	156	153
48	1	154	156	153	155
49	1	164	163	165	166
50	1	164	165	166	163
51	1	164	166	163	165
52	1	174	173	175	176
53	1	174	175	176	173
54	1	174	176	173	175
55	1	184	183	185	186
56	1	184	185	186	183
57	1	184	186	183	185
58	1	194	193	195	196
59	1	194	195	196	193
60	1	194	196	193	195
61	1	204	203	205	206
62	1	204	205	206	203
63	1	204	206	203	205
64	1	214	213	215	216
65	1	214	215	216	213
66	1	214	216	213	215
67	1	224	223	225	226
68	1	224	225	226	223
69	1	224	226	223	225
70	1	234	233	235	236
71	1	234	235	236	233
72	1	234	236	233	235
73	1	244	243	245	246
74	1	244	245	246	243
75	1	244	246	243	245
76	1	254	253	255	256
77	1	254	255	256	253
78	1	254	256	253	255
79	1	264	263	265	266
80	1	264	265	266	263
81	1	264	266	263	265
82	1	274	273	275	276
83	1	274	275	276	273
84	1	274	276	273	275
85	1	284	283	285	286
86	1	284	285	286	283
87	1	284	286	283	285
88	1	294	293	295	296
89	1	294	295	296	293
90	1	294	296	293	295
91	1	303	302	304	305
92	1	303	304	305	302
93	1	303	305	302	304
94	1	315	314	316	317
95	1	315	316	317	314
96	1	315	317	314	316
97	1	327	326	328	329
98	1	327	328	329	326
99	1	327	329	326	328
100	1	339	338	340	341
101	1	339	340	341	338
102	1	339	341	338	340
103	1	351	350	352	353
104	1	351	352	353	350
105	1	351	353	350	352
106	1	363	362	364	365
107	1	363	364	365	362
108	1	363	365	362	364
109	1	375	374	376	377
110	1	375	376	377	374
111	1	375	377	374	376
112	1	387	386	388	389
113	1	387	388	389	386
114	1	387	389	386	388
115	1	399	398	400	401
116	1	399	400	401	398
117	1	399	401	398	400
118	1	411	410	412	413
119	1	411	412	413	410
120	1	411	413	410	412
121	1	423	422	424	425
122	1	423	424	425	422
123	1	423	425	422	424
124	1	435	434	436	437
125	1	435	436	437	434
126	1	435	437	434	436
127	1	447	446	448	449
128	1	447	448	449	446
129	1	447	449	446	448
130	1	459	458	460	461
131	1	459	460	461	458
132	1	459	461	458	460
133	1	471	470	472	473
134	1	471	472	473	470
135	1	471	473	470	472
136	1	483	482	484	485
137	1	483	484	485	482
138	1	483	485	482	484
139	1	495	494	496	497
140	1	495	496	497	494
141	1	495	497	494	496
142	1	507	506	508	509
143	1	507	508	509	506
144	1	507	509	506	508
145	1	519	518	520	521
146	1	519	520	521	518
147	1	519	521	518	520
148	1	531	530	532	533
149	1	531	532	533	530
150	1	531	533	530	532
151	1	543	542	544	545
152	1	543	544	545	542
153	1	543	545	542	544
154	1	555	554	556	557
155	1	555	556	557	554
156	1	555	557	554	556
157	1	567	566	568	569
158	1	567	568	569	566
159	1	567	569	566	568
160	1	579	578	580	581
161	1	579	580	581	578
162	1	579	581	578	580
163	1	591	590	592	593
164	1	591	592	593	590
165	1	591	593	590	592
166	1	603	602	604	605
167	1	603	604	605	602
168	1	603	605	602	604
169	1	615	614	616	617
170	1	615	616	617	614
171	1	615	617	614	616
172	1	627	626	628	629
173	1	627	628	629	626
174	1	627	629	626	628
175	1	639	638	640	641
176	1	639	640	641	638
177	1	639	641	638	640
178	1	651	650	652	653
179	1	651	652	653	650
180	1	651	653	650	652
181	1	663	662	664	665
182	1	663	664	665	662
183	1	663	665	662	664
184	1	675	674	676	677
185	1	675	676	677	674
186	1	675	677	674	676
187	1	687	686	688	689
188	1	687	688	689	686
189	1	687	689	686	688
190	1	699	698	700	701
191	1	699	700	701	698
192	1	699	701	698	700
193	1	711	710	712	713
194	1	711	712	713	710
195	1	711	713	710	712
196	1	723	722	724	725
197	1	723	724	725	722
198	1	723	725	722	724
199	1	735	734	736	737
200	1	735	736	737	734
201	1	735	737	734	736
202	1	747	746	748	749
203	1	747	748	749	746
204	1	747	749	746	748
205	1	759	758	760	761
206	1	759	760	761	758
207	1	759	761	758	760
208	1	771	770	772	773
209	1	771	772	773	770
210	1	771	773	770	772
211	1	783	782	784	785
212	1	783	784	785	782
213	1	783	785	782	784
214	1	795	794	796	797
215	1	795	796	797	794
216	1	795	797	794	796
217	1	807	806	808	809
218	1	807	808	809	806
219	1	807	809	806	808
220	1	819	818	820	821
221	1	819	820	821	818
222	1	819	821	818	820
223	1	831	830	832	833
224	1	831	832	833	830
225	1	831	833	830	832
226	1	843	842	844	845
227	1	843	844	845	842
228	1	843	845	842	844
229	1	855	854	856	857
230	1	855	856	857	854
231	1	855	857	854	856
232	1	867	866	868	869
233	1	867	868	869	866
234	1	867	869	866	868
235	1	879	878	880	881
236	1	879	880	881	878
237	1	879	881	878	880
238	1	891	890	892	893
239	1	891	892	893	890
240	1	891	893	890	892
241	1	903	902	904	905
242	1	903	904	905	902
243	1	903	905	902	904
244	1	915	914	916	917
245	1	915	916	917	914
246	1	915	917	914	916
247	1	927	926	928	929
248	1	927	928	929	926
249	1	927	929	926	928
250	1	939	938	940	941
251	1	939	940	941	938
252	1	939	941	938	940
253	1	951	950	952	953
254	1	951	952	953	950
255	1	951	953	950	952
256	1	963	962	964	965
257	1	963	964	965	962
258	1	963	965	962	964
