LAMMPS data file via write_data, version 22 Jul 2025, timestep = 525431, units = real

1014 atoms
8 atom types
944 bonds
6 bond types
1504 angles
7 angle types
1452 dihedrals
12 dihedral types
258 impropers
1 improper types

-0.2400632628335142 22.76615494983335 xlo xhi
-0.20906325988444863 22.7971549598843 ylo yhi
-0.22906326287369794 22.777154949833076 zlo zhi

Masses

1 12.01078
2 15.99943
3 12.01078
4 15.99943
5 1.007947
6 6.9412
7 15.99943
8 35.4532

Pair Coeffs # lj/cut/coul/long

1 0.108841 3.37953
2 0.168465 3.02511
3 0.0868793 3.48065
4 0.210206 3.03981
5 0.0164092 2.58323
6 0.0279896 1.82634
7 0.15 3.18051
8 0.272 4.18188

Bond Coeffs # harmonic

1 215.301 1.53363
2 227.037 1.43632
3 357.819 1.09421
4 291.342 1.35606
5 762.039 1.225
6 300 1.483

Angle Coeffs # harmonic

1 91.5186 108.173
2 66.7563 109.938
3 63.31 123.606
4 36.7766 108.354
5 119.896 112.874
6 84.5477 120.105
7 52.5 109.4

Dihedral Coeffs # opls

1 1 0.111303 3 0
2 1 0.438911 1 180
3 1 1.76361 2 180
4 1 -0.0153377 3 0
5 1 0.41915 2 0
6 1 0.131135 3 0
7 1 0.436547 1 0
8 1 0.263111 3 0
9 1 0.227995 3 0
10 1 0.302195 2 180
11 1 1.35005 1 180
12 1 3.48187 2 180

Improper Coeffs # cvff

1 4.30523 -1 2

Atoms # full

712 65 4 -0.5800835 2.6577039609206787 3.1891629179663403 3.173579358814533 0 0 0
973 87 6 1 0.9633073675762991 3.9854878006292895 4.22293238138112 0 0 0
832 75 4 -0.5800835 1.5956386289158815 5.690864411462268 3.0660488504816583 1 0 0
831 75 3 0.7551165 2.0048862235131715 6.629902123693754 2.374788692763662 1 0 0
986 95 8 1.32 1.4338318325298136 5.317924649023428 7.366312659140218 0 0 0
967 86 5 0.0582835 2.9549565302649214 1.7953628993327007 5.802733649107224 0 0 0
988 95 7 -0.58 0.327733827735661 5.420516075962311 8.244740157106063 0 0 0
837 75 5 0.0582835 1.7121345408995148 7.8154066140609295 4.788336078974486 1 0 0
987 95 7 -0.58 1.0043724771696343 4.98884257735895 5.996099129907138 0 0 0
830 75 2 -0.3889835 2.623399061195388 7.771150244635138 2.901724251225678 1 0 0
985 95 7 -0.58 2.234973026793161 6.600078183287614 7.241614010565132 0 0 0
829 75 1 0.1266165 2.7489036026250058 7.827081693957474 4.325593320393064 1 0 0
835 75 5 0.0582835 3.3351005402635603 6.968431547084316 4.677410064535987 1 0 0
717 65 5 0.0582835 4.966156569024311 4.153030627564387 3.3314406230495517 0 0 0
836 75 5 0.0582835 3.2228130324098405 8.736286274775187 4.661379192791553 1 0 0
73 8 2 -0.4048 2.430200392367409 9.895311105252452 8.987826310830902 1 0 0
74 8 3 0.8478 2.6264607866421716 9.417170388517345 10.222897016458653 1 0 0
692 63 5 0.0582835 6.210274393199892 4.162934745949272 8.249752161322608 0 0 0
711 65 3 0.7551165 3.3902992437723496 2.2077690917050394 3.007867452096404 0 0 0
863 77 5 0.0582835 5.738362674992327 6.839226527370535 5.120142776352047 0 0 0
862 77 5 0.0582835 6.197626761761609 5.818822650136599 6.475286107853727 0 0 0
864 77 5 0.0582835 6.876638393249487 5.394503783639607 4.9540619721444585 0 0 0
858 77 1 0.1266165 6.552363454273707 6.283373179529617 5.562744239734592 0 0 0
686 63 2 -0.3889835 5.853728111326484 2.257644435380276 7.300432441742576 0 0 0
709 65 1 0.1266165 5.110184473305021 3.3550955034915697 4.067859995649288 0 0 0
716 65 5 0.0582835 6.127644321104318 3.340103496040236 4.374875495888416 0 0 0
390 38 1 0.1266165 5.996867836140877 7.738688486645416 0.922598906389232 0 0 1
76 8 2 -0.4048 3.924892182369272 8.984641602402892 10.33660615104788 1 0 0
78 8 5 0.0798 5.241067026492338 8.336959848412791 8.771605435433587 1 0 0
71 8 1 0.0955 4.566797701655749 9.194642751993856 9.112491055197037 1 0 0
715 65 5 0.0582835 4.52022998085024 3.4954262678308243 5.022498534034924 0 0 0
713 65 2 -0.3889835 2.9946342656591844 1.0735407348512613 2.4039647277729266 0 0 0
710 65 2 -0.3889835 4.684346522142371 2.161022104210352 3.4205769839150397 0 0 0
395 38 5 0.0582835 4.994878963488952 7.267348403026272 0.939529684220873 0 0 1
714 65 1 0.1266165 1.5808303622166782 1.024257750373408 1.935870998599354 0 0 0
687 63 3 0.7551165 6.19546469970528 0.9888812060083186 7.3645642195652705 0 0 0
72 8 1 0.0955 3.6242262748151597 9.820992448406708 8.169584930983122 1 0 0
685 63 1 0.1266165 6.482333510284732 3.080353659723574 8.341209552058142 0 0 0
693 63 5 0.0582835 6.197140132410041 2.728775866515799 9.297052532428108 0 0 0
80 8 5 0.0798 3.4893374322034925 9.061737097415115 7.335691470638615 1 0 0
621 57 5 0.0582835 3.5535720570148284 2.0084085464027877 9.245303400111846 0 1 0
613 57 1 0.1266165 3.305683356556433 2.326675002457779 10.233111366550144 0 1 0
989 95 7 -0.58 2.3512333251060276 4.28782953110528 7.8517036982488735 0 0 0
389 38 2 -0.3889835 6.792793579914873 6.943612715911524 1.879498375956624 0 0 1
205 21 4 -0.5484 5.927225701374127 9.263584721470194 4.328395490871251 0 0 0
833 75 2 -0.3889835 1.918653048812533 6.660066554020847 0.984230622441277 1 0 0
718 65 5 0.0582835 1.4487451650687664 1.83310943860108 1.2445593713503795 0 0 0
204 21 3 0.8478 6.721908475289562 9.764122861633096 5.143235095044304 0 0 0
962 86 2 -0.3889835 1.4623044957376312 1.2236410354418736 7.184789110997045 0 0 0
396 38 5 0.0582835 5.866209285033654 8.828048159908096 1.232580103913415 0 0 1
333 33 5 0.0582835 4.573383311983712 3.5207332947309236 0.6684484312443997 0 0 1
619 57 5 0.0582835 2.2652985053224923 2.1335228922937524 10.597787421253042 0 1 0
75 8 4 -0.5484 1.8028492594393375 9.365923896453985 11.14970240560122 1 0 0
77 8 5 0.0798 5.283657057137778 9.969227723715953 9.326821914402132 1 0 0
720 65 5 0.0582835 0.9757846627524954 1.19136209842418 2.8037324676293576 0 0 0
206 21 2 -0.4048 6.400373645515499 9.81958228864858 6.446199748065402 0 0 0
79 8 5 0.0798 4.032327883273821 10.708977893225914 7.738376716657763 1 0 0
705 64 5 0.0582835 0.022741168023139375 9.664650201176725 3.389563920844284 1 0 1
620 57 5 0.0582835 3.3600989882191192 3.3177431789613374 10.134638869073092 0 1 0
801 72 5 0.0582835 3.8420222670478656 5.729282963519911 10.411913166406999 1 0 0
961 86 1 0.1266165 2.5365634321307287 0.9449145967132742 6.26883219227718 0 0 0
793 72 1 0.1266165 4.6380224869067135 5.9364182189091155 11.2160678824462 1 0 0
968 86 5 0.0582835 3.3778101627877746 0.548839599300453 6.812865125375892 0 0 0
800 72 5 0.0582835 5.627016880120906 5.51379293564101 10.894210623731071 1 0 0
969 86 5 0.0582835 2.2313075138000884 0.26970707039692 5.542794799525354 0 0 0
688 63 4 -0.5800835 6.956697365193954 0.5008492299721247 8.201755032890487 0 0 0
964 86 4 -0.5800835 0.30954852462494425 2.3703950895264883 5.521720711757359 0 0 0
963 86 3 0.7551165 0.3888189373070165 1.960443644845976 6.673132605419746 0 0 0
574 53 5 0.0582835 22.732647107379726 7.040873639129024 10.375568575781413 0 0 0
840 75 5 0.0582835 1.935423077565496 4.621652383962916 0.6052855038289917 1 0 0
834 75 1 0.1266165 1.2904775910427086 5.493284294109067 0.4297505993226196 1 0 0
767 69 5 0.0582835 0.5605043175269989 0.11063861508349493 9.290405625577796 0 1 0
581 54 2 -0.3889835 20.438054704455464 9.006718977757375 -0.04650653905788713 0 0 0
125 13 4 -0.5484 15.392965462087673 0.5173052111551323 8.457439060070028 0 1 0
308 31 5 0.0582835 6.204753765276103 1.023761379504208 0.48143287299017795 0 1 1
697 64 1 0.1266165 0.40810404388019345 10.623039226647782 3.0120185833229423 1 0 1
719 65 5 0.0582835 1.2336963837491826 0.15654893534592584 1.3990095179146727 0 0 0
332 33 5 0.0582835 6.1487671586615384 3.605970898149008 0.8900020480547106 0 0 1
394 38 5 0.0582835 6.350457746044286 7.595438314830165 -0.13350250840181196 0 0 1
827 74 5 0.0582835 3.604190028072576 9.849030762214799 1.0631857322112441 0 0 1
428 41 5 0.0582835 0.3106184153408195 3.4119200252335666 10.475245856305651 0 0 0
207 21 5 0.0798 7.345662793279565 11.13949849473571 7.978399929460544 0 0 0
689 63 2 -0.3889835 5.6540420858487215 0.16163337249353993 6.44061684536371 0 0 0
576 53 5 0.0582835 21.840685028591814 8.624756134357817 10.0146675494378 0 0 0
703 64 5 0.0582835 22.761179764627503 10.968008420021361 2.1968272952415546 0 0 1
301 31 1 0.1266165 5.61244751208219 0.1701228153648135 0.23961207065711182 0 1 1
822 74 1 0.1266165 3.2305883318549204 10.000663838259715 0.02138426994675769 0 0 1
65 7 4 -0.5484 10.698319091345809 10.775255720165328 0.8931738761859177 0 0 0
977 91 6 1 9.245972122698292 9.469329660156195 -0.01755813691838433 0 0 1
748 68 4 -0.5800835 14.223972777007537 10.751589478505316 3.0941215788540855 0 0 0
857 77 2 -0.3889835 7.6992428759740035 7.0823604592597205 5.863548851931715 0 0 0
749 68 2 -0.3889835 12.112313519880896 10.8558366264039 4.201175537553388 0 0 0
691 63 5 0.0582835 7.5597666229997165 3.010978692499352 8.251967147809179 0 0 0
929 83 2 -0.3889835 12.239261189598396 0.7903364411913075 10.7594956125372 0 1 0
481 46 1 0.1266165 17.139182764469357 9.534066754205663 0.2056703101315297 0 0 1
325 33 1 0.1266165 5.42406138787033 3.759066124417396 0.06332107147978516 0 0 1
201 21 1 0.0955 7.47272913530861 10.419892248496781 7.150117588742023 0 0 0
934 83 5 0.0582835 12.681051437997114 2.617147356371808 9.747306707208676 0 1 0
671 61 5 0.0582835 15.085801296644705 3.709227335131029 10.073697743842121 -1 0 0
286 29 2 -0.4048 7.463225532582268 8.905579120402713 10.464365960129252 0 0 0
387 38 3 0.7551165 8.046142965406254 7.374492828038688 2.0417516369344546 0 0 1
455 43 5 0.0582835 11.07756463511202 10.998633053432847 8.720423839080748 0 0 0
37 4 5 0.0798 12.4811689492906 0.9495718661377208 1.4690326411168204 -1 0 0
285 29 4 -0.5484 7.772302160989729 6.833382865151691 9.56649863984419 0 0 0
39 4 5 0.0798 13.61382287590678 1.5202484136841534 3.5941404899903655 -1 0 0
816 73 5 0.0582835 8.693533211045963 3.659954054969757 0.9923565912042115 0 0 0
284 29 3 0.8478 7.59657130459893 7.53382272579501 10.547693650677877 0 0 0
208 21 5 0.0798 7.842245085860203 9.587401217614493 7.720460390943698 0 0 0
202 21 1 0.0955 8.514198647498379 10.779897177017208 6.165549722503228 0 0 0
815 73 5 0.0582835 10.04881423203749 4.615262617779252 1.6452919447392813 0 0 0
386 38 2 -0.3889835 8.72488014155994 6.585510947906612 2.973862611226588 0 0 1
165 17 4 -0.5484 8.646025611366847 1.05832784676601 10.416675084374278 0 0 0
210 21 5 0.0798 9.609993647702753 10.686573901978507 6.437519277158607 0 0 0
855 77 3 0.7551165 8.715378349282974 6.55907701407493 6.541439218101337 0 0 0
449 43 2 -0.3889835 11.258533869554194 9.290742165286469 9.886723697923843 0 0 0
808 73 4 -0.5800835 8.161072435957676 1.6951782299799456 2.7919301864379764 0 0 0
32 4 1 0.0955 13.856008843631889 2.0317887324888995 2.6985455265629232 -1 0 0
809 73 2 -0.3889835 10.146199108347707 2.6387308603948165 2.114781044148071 0 0 0
814 73 5 0.0582835 8.81407800335084 4.06296645374226 2.8036490474020765 0 0 0
810 73 1 0.1266165 9.34957584469658 3.828985081697555 1.8555500703263705 0 0 0
807 73 3 0.7551165 9.39144814465085 1.5874918147269188 2.5977035886405204 0 0 0
391 38 5 0.0582835 10.08802532038179 8.006506813638277 3.4240836840958293 0 0 1
392 38 5 0.0582835 10.535944497229586 6.394590535586084 4.092802694654178 0 0 1
388 38 4 -0.5800835 8.56057191058635 8.314414279393311 1.4933961032001244 0 0 1
385 38 1 0.1266165 10.108733708480914 6.931295254071472 3.2762628701675034 0 0 1
861 77 5 0.0582835 10.470270230750467 6.591404845205087 8.497689884583206 0 0 0
856 77 4 -0.5800835 8.730680510600509 5.407266320794319 6.919266940691206 0 0 0
357 35 5 0.0582835 8.361767953029517 2.2055797277603397 5.9781913808053195 0 1 0
853 77 1 0.1266165 10.848010586902316 6.777826325845391 7.522814070317974 0 0 0
854 77 2 -0.3889835 9.789408465807657 7.422300504265286 6.786785966611921 0 0 0
859 77 5 0.0582835 11.058895581104746 5.852994377400358 7.049565676368785 0 0 0
350 35 2 -0.3889835 10.466488440028462 1.7248247431351917 5.618275798369812 0 1 0
356 35 5 0.0582835 9.402997983918093 3.664372312841749 5.521059173221632 0 1 0
349 35 1 0.1266165 9.391151115782764 2.633790565553436 6.068587437231844 0 1 0
355 35 5 0.0582835 9.589788989987026 2.78976027560981 7.09712928319666 0 1 0
745 68 1 0.1266165 13.71300574003177 8.229719578785842 2.226065353655212 0 0 0
393 38 5 0.0582835 10.736252510294785 6.790587491475245 2.4371631762997503 0 0 1
860 77 5 0.0582835 11.728432024296255 7.349018668484857 7.716509323710728 0 0 0
31 4 1 0.0955 13.394013827055296 1.4925801675099455 1.2376645965126623 -1 0 0
36 4 2 -0.4048 12.87498944216768 2.5933886089480698 0.560356630167593 -1 0 0
34 4 3 0.8478 12.954986605197325 3.7150468191233252 1.3476568837460188 -1 0 0
669 61 5 0.0582835 13.258330333535453 6.503866617104409 5.535013117225768 -1 0 0
746 68 2 -0.3889835 12.786278521726592 8.969260086117417 3.023702984527461 0 0 0
935 83 5 0.0582835 12.483228234106303 1.1040323594878227 8.648787682898323 0 1 0
663 61 3 0.7551165 14.237542865762002 5.030148769565407 7.249243562259809 -1 0 0
661 61 1 0.1266165 13.330121493074355 5.51324234911787 5.207716903090697 -1 0 0
936 83 5 0.0582835 11.06693284222268 1.7885737157960633 9.314168244440996 0 1 0
930 83 1 0.1266165 12.162247636722324 1.6535953022582748 9.520140403468115 0 1 0
33 4 2 -0.4048 13.524767878397052 3.4301053932556336 2.619993327839915 -1 0 0
662 61 2 -0.3889835 13.395584149501547 4.642708197686427 6.2897318080294475 -1 0 0
752 68 5 0.0582835 13.23424647655995 7.289642074359888 1.9509189816905201 0 0 0
35 4 4 -0.5484 12.56715937248279 4.817215553796975 0.9446679502645865 -1 0 0
665 61 2 -0.3889835 14.245058898047143 4.150869772621267 8.244944374874283 -1 0 0
668 61 5 0.0582835 12.426233526742315 5.210749782010432 4.589275216650836 -1 0 0
38 4 5 0.0798 14.110009106148695 0.8943221368150335 0.8027829995740032 -1 0 0
260 26 5 0.0798 13.35054127342796 10.062940198885373 8.337303106121194 0 0 0
753 68 5 0.0582835 13.878859831845961 8.8573456050716 1.3622467418671937 0 0 0
450 43 1 0.1266165 10.810755091581523 10.678753409775162 9.741080320690523 0 0 0
751 68 5 0.0582835 14.689478170268613 8.07027482066358 2.6890779648199947 0 0 0
724 66 4 -0.5800835 8.116784464824274 11.192892291831182 0.06400176367190195 0 0 0
40 4 5 0.0798 14.941481380220047 2.093047546277402 2.603445829691765 -1 0 0
667 61 5 0.0582835 14.222821852129325 5.3336669374407055 4.569746441519574 -1 0 0
806 73 2 -0.3889835 10.071572585175423 0.3904334497671927 2.8770992262804573 0 0 0
456 43 5 0.0582835 9.732768962149095 10.80220466134799 9.866109664711635 0 0 0
49 5 5 0.0798 15.449967931954898 2.0480045758579273 6.437167092091463 0 0 0
203 21 2 -0.4048 7.960834963954762 10.312507633902033 4.9409586932959515 0 0 0
447 43 3 0.7551165 11.172426323282805 8.724240175786079 11.054388585923915 0 0 0
256 26 2 -0.4048 14.516925521435692 8.986407024288987 10.835635454317872 0 0 0
253 26 2 -0.4048 14.061493150725717 10.987958653968052 9.903091973882551 0 0 0
978 92 6 1 8.816373416394876 -0.18104536322954679 8.869437825953442 0 1 0
446 43 2 -0.3889835 11.63718081720544 7.423962904754851 11.027753528390196 0 0 0
747 68 3 0.7551165 13.11615201049353 10.265883482914507 3.441897761514352 0 0 0
254 26 3 0.8478 14.133822750936082 10.247330117722942 11.038875203257259 0 0 0
252 26 1 0.0955 14.395515037266023 10.138033565791753 8.821016965786272 0 0 0
666 61 1 0.1266165 15.114587921297192 4.507877996749882 9.324045563938926 -1 0 0
258 26 5 0.0798 14.348862648406064 7.958304037956049 8.88905059216725 0 0 0
664 61 4 -0.5800835 14.902173658794212 6.098118559109671 7.162684940995602 -1 0 0
670 61 5 0.0582835 14.87055710978976 5.5023638901875085 9.709681251618509 -1 0 0
828 74 5 0.0582835 2.2857925682796756 10.473514316567613 0.27623814150519793 0 0 1
381 37 5 0.0582835 21.11614084445608 1.1216181832414696 0.5585525879571475 -1 0 0
351 35 3 0.7551165 10.468086400213952 0.45184160112443644 6.236341075288681 0 1 0
487 46 5 0.0582835 16.94395481208119 8.51557255916343 -0.20485795880272073 0 0 1
83 9 2 -0.4048 22.11660805550545 8.42598805967608 6.121326886477655 -1 0 0
488 46 5 0.0582835 18.03231259711876 9.369738097223928 0.9347262801769062 0 0 1
89 9 5 0.0798 21.98397633125566 6.385795207247098 5.40631539421812 -1 0 0
866 78 2 -0.3889835 15.398703862707192 5.191015467169374 -0.16899020190289807 -1 1 0
575 53 5 0.0582835 21.1968096353399 7.1951717787064196 9.393429222418838 0 0 0
259 26 5 0.0798 14.996240422994388 10.443959160661652 8.0381231151036 0 0 0
47 5 5 0.0798 17.110822920589918 0.5009924554033851 6.905972257378567 0 0 0
421 41 1 0.1266165 22.45038156146545 3.504589557942153 11.1550456024863 -1 0 0
225 23 4 -0.5484 18.55169763473911 3.2439282245478838 9.040334631357993 -1 0 0
85 9 4 -0.5484 21.161161007708106 9.668236728139563 7.778609878175413 -1 0 0
874 78 5 0.0582835 18.281684934161987 6.38709085997216 2.212297073509426 -1 1 0
489 46 5 0.0582835 16.162988523996102 9.919156995834737 0.6014793719472662 0 0 1
700 64 4 -0.5800835 21.354660784038167 11.032565027144102 4.570960649455437 0 0 1
970 86 5 0.0582835 20.663691991051977 3.1613495249743244 8.0112410646151 -1 0 0
315 32 3 0.7551165 18.40782939662701 10.929614934917801 10.626101903564905 0 0 0
1006 99 8 1.32 20.89418361897798 4.254484060782027 2.983293202558031 -1 0 0
50 5 5 0.0798 16.6126914485539 3.131374193108868 7.202178769754994 0 0 0
42 5 1 0.0955 16.42933234186003 2.5498550711873493 6.367904543490393 0 0 0
224 23 3 0.8478 18.387597941044923 2.5079141520803563 10.033100244549253 -1 0 0
1009 99 7 -0.58 20.078731369331148 4.574001577216255 4.122439359739894 -1 0 0
324 32 5 0.0582835 18.38630450915947 10.770957076894845 7.950542679253513 0 0 0
974 88 6 1 18.589354885949746 2.8215702207840474 1.1411100410405577 0 0 0
838 75 5 0.0582835 0.3601309256268247 5.375853932029855 0.9275213780645547 1 0 0
309 31 5 0.0582835 5.230464381680017 -0.18602320246463572 1.1888068991717724 0 1 1
223 23 2 -0.4048 19.004715216123063 1.278647569806364 10.183294346886292 -1 0 0
368 36 5 0.0582835 16.105375477381703 8.35507680881795 6.826281591284477 0 0 0
251 26 1 0.0955 14.714864257506118 8.821070294879764 9.406117328597038 0 0 0
587 54 5 0.0582835 20.696573744923324 8.36232375921533 1.9164244438876046 0 0 0
226 23 2 -0.4048 17.5363315454898 2.7598861932744008 11.131216130800897 -1 0 0
352 35 4 -0.5800835 9.641160734635799 0.11929451198495795 7.085391637529434 0 1 0
672 61 5 0.0582835 16.10309466224614 4.433876394882519 8.878694156996104 -1 0 0
369 36 5 0.0582835 15.9027792867943 8.326604507283562 5.070619042836184 0 0 0
429 41 5 0.0582835 21.6791635487796 2.9931692424478173 10.666895895369812 -1 0 0
600 55 5 0.0582835 21.910017061761927 0.5011238516492301 4.331914358474544 -1 1 0
582 54 1 0.1266165 20.965170697027002 9.19091968932108 1.2714056979959494 0 0 0
704 64 5 0.0582835 1.3788418907291602 10.447964019210152 2.6061085335818928 1 0 1
588 54 5 0.0582835 22.051619542346078 9.305867779333527 1.189408857998214 0 0 0
965 86 2 -0.3889835 22.421048889677447 2.182332517034854 7.589613155232078 -1 0 0
875 78 5 0.0582835 17.17111460447884 6.990826515798044 3.381158007524821 -1 1 0
84 9 3 0.8478 21.032271160069985 8.831714602787523 6.911067580617641 -1 0 0
257 26 5 0.0798 15.781974852544685 8.64565713640752 9.389815211618956 0 0 0
43 5 2 -0.4048 16.463654177160045 3.158181540333792 5.060030447598089 0 0 0
46 5 2 -0.4048 17.98815114022588 1.306014457470439 5.102430473366837 0 0 0
367 36 5 0.0582835 17.45286014911284 7.994047199161033 5.793922382780753 0 0 0
972 86 5 0.0582835 20.740300393485025 2.3603994803594404 6.3655940056893074 -1 0 0
570 53 1 0.1266165 21.731234632202654 7.538202979614499 10.24598684742391 0 0 0
868 78 4 -0.5800835 17.293842526348406 4.232296801189407 0.7928648499534368 -1 1 0
316 32 4 -0.5800835 17.65959337916118 9.971561481079977 10.406952075241676 0 0 0
362 36 2 -0.3889835 16.953079281585516 9.985288546607569 5.755544414235099 0 0 0
48 5 5 0.0798 18.12569230779154 1.7317854721050125 7.084143349510293 0 0 0
45 5 4 -0.5484 17.637372506709557 2.6709975447834307 3.125221100426078 0 0 0
869 78 2 -0.3889835 16.339343094358036 6.15709623580998 1.7332857078049455 -1 1 0
88 9 5 0.0798 19.46737310650615 7.741875162667984 4.6463144538412955 -1 0 0
82 9 1 0.0955 21.554909085112 7.411100005001956 5.156242482970465 -1 0 0
44 5 3 0.8478 17.394675131339522 2.3955894682091605 4.319477456301126 0 0 0
363 36 3 0.7551165 17.560031142981366 10.388467708564459 4.560181884925705 0 0 0
15 2 4 -0.5484 18.110431293350217 0.8731219127027364 0.8750929934179892 -1 1 0
87 9 5 0.0798 19.842798943169132 6.290115746555837 5.792201413904495 -1 0 0
86 9 2 -0.4048 19.867394813964182 8.225675141308118 6.581234787516476 -1 0 0
598 55 5 0.0582835 21.363840987856786 1.0543883363167437 2.846901199459616 -1 1 0
1005 99 7 -0.58 20.16651095723875 3.3220439512180353 2.107066455462803 -1 0 0
1008 99 7 -0.58 22.211919298072356 3.816674544289257 3.3242011076125455 -1 0 0
586 54 5 0.0582835 20.535612076345306 10.114886103090756 1.695385610363953 0 0 0
361 36 1 0.1266165 16.601947174693372 8.599150411489047 5.8959573212552225 0 0 0
966 86 1 0.1266165 21.264339617789968 2.9366488908880757 7.163744140796961 -1 0 0
1007 99 7 -0.58 20.975680051981698 5.577284389963841 2.2656561746813644 -1 0 0
876 78 5 0.0582835 17.41033143411191 5.301231518227407 3.3472819683546753 -1 1 0
870 78 1 0.1266165 17.348795498906217 6.1735312005629215 2.734815039061294 -1 1 0
364 36 4 -0.5800835 17.770779466245397 9.495506330090095 3.689101177740946 0 0 0
971 86 5 0.0582835 21.51654219563231 3.9348789580537304 6.706753725193607 -1 0 0
81 9 1 0.0955 20.077195591337798 7.314075588515396 5.485359820839738 -1 0 0
41 5 1 0.0955 17.38128722949777 1.4357572086601753 6.396320522681419 0 0 0
90 9 5 0.0798 21.76297521281096 7.623171720530211 4.075767455285707 -1 0 0
867 78 3 0.7551165 16.397828613660106 5.1374579004859635 0.7881172409005142 -1 1 0
594 55 1 0.1266165 20.974110955362868 0.5999579479152723 3.781107052702494 -1 1 0
599 55 5 0.0582835 20.330341043145115 1.2353526203713523 4.36150701921666 -1 1 0
659 60 5 0.0582835 -0.011789186414629393 11.044248219517234 10.366601474577214 1 0 0
614 57 2 -0.3889835 4.301749789756761 1.7635558368438582 11.159575505683978 0 1 0
603 56 3 0.7551165 5.396519996466141 2.847538029257054 17.72831233561823 0 0 0
327 33 3 0.7551165 4.363401792037951 5.375016526653242 21.617282066223947 0 0 0
795 72 3 0.7551165 3.0308793231701108 5.6288572413267755 12.946793312410712 1 0 0
797 72 2 -0.3889835 2.6546714941456298 4.911451339230206 14.006395276154867 1 0 0
796 72 4 -0.5800835 2.3913705582792275 6.575836041584413 12.53461428991927 1 0 0
798 72 1 0.1266165 1.4226355984291388 5.303356390279146 14.661179780740607 1 0 0
804 72 5 0.0582835 1.4065574936448118 6.272545046554987 15.019553508461373 1 0 0
803 72 5 0.0582835 1.3325387647851834 4.7146635247976185 15.574818105827973 1 0 0
330 33 1 0.1266165 3.302441620063981 6.980241451600337 20.145034210733538 0 0 0
336 33 5 0.0582835 3.263060916824082 6.2407534460421985 19.324538943841027 0 0 0
802 72 5 0.0582835 0.5346624116824127 5.236275609769774 13.983555192539285 1 0 0
976 90 6 1 1.4783986544445824 8.61459934533649 12.877111428409165 0 0 0
604 56 4 -0.5800835 5.543576786218331 2.2260419606991286 16.661606779315512 0 0 0
605 56 2 -0.3889835 5.523360794820775 2.237245393808797 18.971071182582232 0 0 0
1014 100 7 -0.58 3.318222513393786 8.717880019701347 14.257382461966289 1 0 0
606 56 1 0.1266165 5.8176053023200085 0.8398261307213953 18.98446119666879 0 0 0
612 56 5 0.0582835 5.010485559060314 0.22062349514718965 18.528037372092307 0 0 0
611 56 5 0.0582835 6.0773763548387665 0.38946705987106117 19.991669184792027 0 0 0
1011 100 8 1.32 4.250619450601702 9.484685610883194 15.118991673649269 1 0 0
602 56 2 -0.3889835 5.06235656671192 4.149428580448508 17.834500114143555 0 0 0
601 56 1 0.1266165 4.893382312078253 4.788260632979554 16.598166701094648 0 0 0
924 82 5 0.0582835 1.1252769833303657 9.394458709959569 16.367358611660315 1 0 -1
406 39 5 0.0582835 3.2633113009374046 2.2527219270163035 20.112077560838767 0 1 -1
407 39 5 0.0582835 2.74784500033678 2.8229872275381536 18.408493957290382 0 1 -1
145 15 4 -0.5484 0.8221196420689237 10.302140179664644 13.965788605615485 0 0 0
918 82 1 0.1266165 0.8851778149882332 9.649608128952286 17.447264186614998 1 0 -1
402 39 1 0.1266165 2.4666628469855842 2.2878295493936314 19.35639231799917 0 1 -1
408 39 5 0.0582835 1.5715768759428221 2.891936877806487 19.805859052405207 0 1 -1
169 17 5 0.0798 6.947333632829969 4.125205024733333 12.649390673414144 0 0 0
607 56 5 0.0582835 3.9957589346874327 4.393387458955292 16.118891568681192 0 0 0
401 39 2 -0.3889835 1.980104201657187 0.9858471961628223 19.159186416759173 0 1 -1
334 33 5 0.0582835 2.328386083240951 6.9873995692205435 20.662810727118735 0 0 0
328 33 4 -0.5800835 3.4400509655639797 4.622009645357176 21.40667703540622 0 0 0
608 56 5 0.0582835 4.658504793097125 5.860202625961653 16.65140041166328 0 0 0
1013 100 7 -0.58 5.401727780835356 8.556023577188888 15.48636472620749 1 0 0
1010 100 7 -0.58 4.707884356645836 10.60592762108242 14.230259187737788 1 0 0
329 33 2 -0.3889835 4.41916003913719 6.631367837606319 21.030874807789683 0 0 0
170 17 5 0.0798 8.7076591315308 4.267184607981506 12.845708355283717 0 0 0
162 17 1 0.0955 7.861398061235202 3.5603658388925217 12.61560910678042 0 0 0
335 33 5 0.0582835 3.42826361649163 8.061091001385352 19.815460090077654 0 0 0
52 6 1 0.0955 6.096294399438432 8.938912964875476 18.53059819907109 0 0 0
60 6 5 0.0798 5.035696930666417 9.11328089400613 18.358617977278108 0 0 0
923 82 5 0.0582835 1.7442176358395722 9.358681063633133 18.085777246900392 1 0 -1
615 57 3 0.7551165 4.350777116177056 0.3765450159040457 11.349503812498366 0 1 0
609 56 5 0.0582835 5.713552985249667 4.650689612293824 15.924523538868568 0 0 0
216 22 2 -0.4048 9.763930002997666 5.921995478425674 21.992633086021275 0 0 0
610 56 5 0.0582835 6.72449553993576 0.6535202367496007 18.44002866215761 0 0 0
839 75 5 0.0582835 1.1202692832704313 5.7049972861729 22.369436579108047 1 0 -1
922 82 5 0.0582835 0.6293477467334807 10.766540949612802 17.67473740819278 1 0 -1
820 74 4 -0.5800835 2.826029849762444 10.792418458237227 20.531714676354166 0 0 0
58 6 5 0.0798 5.826074214324549 6.740621877166087 18.880845822017836 0 0 0
486 46 1 0.1266165 16.717542894241106 11.244587544216332 18.795185588781674 0 0 0
167 17 5 0.0798 6.69649756163315 2.292464819949429 13.739971749486394 0 0 0
917 82 2 -0.3889835 22.759532731103146 8.886079551518623 17.858185945174988 0 0 -1
399 39 3 0.7551165 0.9169724810519052 0.8769923519675701 18.332738787366896 0 1 -1
916 82 4 -0.5800835 1.1182372737094741 7.053116792558253 17.93081856144526 1 0 -1
915 82 3 0.7551165 -0.02107133339663797 7.535829086219733 18.0880353702518 1 0 -1
290 29 5 0.0798 6.287897722320819 8.143143194950953 13.09835373883885 0 0 0
326 33 2 -0.3889835 5.425219538640083 5.083275563841509 22.412680453522658 0 0 0
635 58 5 0.0582835 2.2509055730477647 1.4086672263921238 13.658270266491973 0 0 0
1012 100 7 -0.58 3.57323795764139 10.232877960168116 16.16660326703634 1 0 0
448 43 4 -0.5800835 10.75793031805846 9.247000718355718 12.037332315138352 0 0 0
569 53 2 -0.3889835 20.817768793970874 7.344890190063535 11.366716909348154 0 0 0
636 58 5 0.0582835 2.060249406483908 0.4994815927215474 15.258428862004191 0 0 0
452 43 5 0.0582835 12.019676852731678 5.698193772545271 12.011584526228617 0 0 0
799 72 5 0.0582835 4.79019789237507 6.996121186242037 11.363360696467607 1 0 0
485 46 2 -0.3889835 17.49525658696286 11.084818186619524 19.9788804162459 0 0 0
53 6 2 -0.4048 6.6923943507145385 9.57776027899393 19.696254260843947 0 0 0
59 6 5 0.0798 6.672431729356705 9.487550153135928 17.740358329143632 0 0 0
282 29 1 0.0955 7.294368276583956 8.249882750214294 12.6965415517907 0 0 0
289 29 5 0.0798 7.939935423628188 8.45065874957331 13.551874058029192 0 0 0
54 6 3 0.8478 7.49064054860606 8.646604361843986 20.333797537099777 0 0 0
331 33 5 0.0582835 5.421202176394933 2.953414918817156 22.296416392632633 0 0 0
794 72 2 -0.3889835 4.2151208447666555 5.188079333885672 12.385195842411205 1 0 0
630 58 1 0.1266165 2.236268829344344 0.4299094102893547 14.176197234479696 0 0 0
678 62 1 0.1266165 17.83614123503562 0.6260758160330229 19.991007338839395 0 1 -1
241 25 1 0.0955 10.54931306034338 -0.15836862608457883 22.19018162211958 0 0 -1
568 53 4 -0.5800835 22.524577796737017 8.008494955315083 12.731042554104395 0 0 0
919 82 5 0.0582835 22.747706948199472 5.257496643902735 19.487745215727188 0 0 -1
821 74 2 -0.3889835 4.1629570651188414 10.886156649932738 22.281154320858647 0 0 0
634 58 5 0.0582835 3.2241345602575566 0.05278129544269578 13.898818302185985 0 0 0
302 31 2 -0.3889835 4.487430333007596 0.3802163364426243 22.299545321761524 0 1 0
580 54 4 -0.5800835 21.433401683457156 10.924385686060065 22.222437894396297 0 0 -1
118 12 5 0.0798 13.159534225826484 1.0623347814214505 15.35968059737688 0 0 0
161 17 1 0.0955 7.754200827085951 2.3518377503986914 13.518423853935925 0 0 0
445 43 1 0.1266165 11.614509522920184 6.67876262285833 12.277856951693813 0 0 0
1002 98 7 -0.58 14.599956955630686 -0.010340310726562111 20.78506238428756 0 0 -1
163 17 2 -0.4048 8.206379520675444 3.0794118471294105 11.328585859697466 0 0 0
168 17 5 0.0798 8.2244273032257 2.4294555790403143 14.477792775996253 0 0 0
451 43 5 0.0582835 10.572210476416725 6.533209115017631 12.645926720195083 0 0 0
51 6 1 0.0955 6.630066153545487 7.479311503078797 18.584800886104585 0 0 0
214 22 3 0.8478 10.718592428763603 6.941507571524714 21.97136581305543 0 0 0
211 22 1 0.0955 10.280298163665119 4.825866824024867 21.312773453823333 0 0 0
280 28 5 0.0798 7.7977407304693775 10.10205167386328 15.580546376820154 0 0 0
245 25 4 -0.5484 7.991914670790911 2.0501086955782273 21.882622402904648 0 0 -1
819 74 3 0.7551165 3.826176760874985 11.200894050737604 21.058981244775484 0 0 0
219 22 5 0.0798 12.35091533271437 4.531618407108067 21.19538606899046 0 0 0
246 25 2 -0.4048 9.270713839812338 0.3244708984654711 22.60051910978269 0 0 -1
166 17 2 -0.4048 8.061842212208768 1.2803571104110152 12.655150093364071 0 0 0
57 6 5 0.0798 6.984420447048016 7.0385199666210685 17.62002676100655 0 0 0
56 6 2 -0.4048 7.524770673044979 7.413132914579477 19.73963229047071 0 0 0
134 14 3 0.8478 10.822755386970014 9.485848673665089 18.40667583227028 0 0 0
55 6 4 -0.5484 8.152669900807753 8.908815122072289 21.36256101631957 0 0 0
117 12 5 0.0798 12.428618309889409 0.4043918002674778 13.894212082891237 0 0 0
213 22 2 -0.4048 11.853098768486884 6.554235332169302 21.297968634669232 0 0 0
212 22 1 0.0955 11.646083026582511 5.228160976237045 20.839004419563075 0 0 0
244 25 3 0.8478 8.994488053841355 1.4088217415947497 21.827753046954026 0 0 -1
242 25 1 0.0955 10.92238332337497 0.7759383228711124 21.14109019275321 0 0 -1
120 12 5 0.0798 11.280019433117426 2.5587012521369585 15.475909352721425 0 0 0
541 51 1 0.1266165 10.23968672457416 6.857390610278037 15.761204527213906 0 0 0
542 51 2 -0.3889835 10.782634008377698 5.718630608479364 16.450928572323424 0 0 0
545 51 2 -0.3889835 10.454512527727111 3.5821313879418257 17.358723552985087 0 0 0
551 51 5 0.0582835 10.104072306017184 1.8500929968149074 18.273230753563816 0 0 0
543 51 3 0.7551165 9.956810451084982 4.688656346863557 16.67555627148124 0 0 0
546 51 1 0.1266165 9.539215905341923 2.424805520379086 17.604704272942424 0 0 0
552 51 5 0.0582835 8.660967532365348 2.702376916967582 18.18932774046421 0 0 0
550 51 5 0.0582835 9.171211380191309 1.8362268972165687 16.726890900750107 0 0 0
544 51 4 -0.5800835 8.800973142026775 4.751536840823824 16.253191097456437 0 0 0
138 14 5 0.0798 13.969079719556708 8.684997312046383 18.40970026841714 0 0 0
441 42 5 0.0582835 13.663010653436832 6.726987642389652 16.970071717135887 0 0 0
131 14 1 0.0955 12.923249157354512 8.555614675528208 18.82782433619198 0 0 0
436 42 4 -0.5800835 13.917202687457465 4.392248672616929 18.699962935803345 0 0 0
132 14 1 0.0955 12.516217154795646 9.439623872267735 19.912830596684547 0 0 0
137 14 5 0.0798 12.79360049847236 7.537931844321609 19.232005982478654 0 0 0
140 14 5 0.0798 13.139453526705715 10.275094056481263 19.822533693734226 0 0 0
139 14 5 0.0798 12.702540217635036 9.168181352523145 20.93378448683306 0 0 0
112 12 1 0.0955 11.755981866001108 2.4422118566443944 14.5288124504319 0 0 0
549 51 5 0.0582835 9.71221993227062 6.561994215917486 14.874388227007227 0 0 0
119 12 5 0.0798 10.947147043019285 2.271511932125054 13.774469780570708 0 0 0
547 51 5 0.0582835 9.440731243239876 7.292330669082114 16.320546363065976 0 0 0
548 51 5 0.0582835 10.94366180835321 7.557577465165348 15.472529213953814 0 0 0
113 12 2 -0.4048 12.321657309949925 3.588845391540744 13.896726942081058 0 0 0
442 42 5 0.0582835 12.339071792666662 2.3268107700208813 19.061230463992423 0 0 0
435 42 3 0.7551165 13.847530845465196 3.9038040373497855 17.589568384825487 0 0 0
438 42 1 0.1266165 13.213363189653364 1.8695143871349034 18.596089149926147 0 0 0
434 42 2 -0.3889835 14.125394821408166 4.696866161895516 16.49844574064522 0 0 0
243 25 2 -0.4048 9.915321102389413 1.7322767035562534 20.96154507877023 0 0 -1
437 42 2 -0.3889835 13.507169909205938 2.61391206564457 17.386837240795842 0 0 0
111 12 1 0.0955 12.82923087143937 1.348562206210059 14.362808396944017 0 0 0
114 12 3 0.8478 13.539256490526071 3.285220689301011 13.418964036514312 0 0 0
116 12 2 -0.4048 13.922015388046773 2.029102100593107 13.62523010622749 0 0 0
433 42 1 0.1266165 14.536977864632286 6.147272244229653 16.676124184489566 0 0 0
250 25 5 0.0798 11.65130302053673 0.5164254505448592 20.347697327196325 0 0 -1
133 14 2 -0.4048 11.179797190538613 10.02648866908344 19.59816168042383 0 0 0
444 42 5 0.0582835 14.04128378920997 1.9298800274337258 19.354515726873114 0 0 0
443 42 5 0.0582835 13.119322661150896 0.8130609393913533 18.357057681550238 0 0 0
218 22 5 0.0798 9.601055591882439 4.491121826698877 20.473267573727988 0 0 0
220 22 5 0.0798 11.614053307476873 5.169785245863665 19.77248507763665 0 0 0
136 14 2 -0.4048 11.828280449884678 8.623789113123607 17.94010019517863 0 0 0
453 43 5 0.0582835 12.222890024716335 7.192946843570309 13.009693873503457 0 0 0
115 12 4 -0.5484 14.220188787956594 4.1439263306397285 12.82477354643681 0 0 0
440 42 5 0.0582835 14.817981136834309 6.5651527424976 15.675090615107509 0 0 0
521 49 2 -0.3889835 14.27446363145873 10.674212965030023 16.133810482655846 0 0 0
255 26 4 -0.5484 13.897296919811893 10.608972415184112 12.200111281593848 0 0 0
872 78 5 0.0582835 14.687265043268377 4.331674476755585 21.138859200023138 -1 1 -1
272 28 1 0.0955 8.187646042508886 11.085300082756149 15.433159946909392 0 0 0
135 14 4 -0.5484 9.76203723806834 9.705494365993045 17.811447550864848 0 0 0
217 22 5 0.0798 10.509333731131708 4.063587085612017 22.025833028026575 0 0 0
283 29 2 -0.4048 7.494665808242211 7.065851537339879 11.899828662138122 0 0 0
249 25 5 0.0798 11.656928657912896 1.3315510204081806 21.645208228004137 0 0 -1
279 28 5 0.0798 9.23458148223602 10.980247666459853 15.437884945528582 0 0 0
164 17 3 0.8478 8.32043066080646 1.7025070840770253 11.41973037360371 0 0 0
522 49 1 0.1266165 15.146805661147855 10.478910500871551 14.945773292758517 0 0 0
222 23 1 0.0955 18.60675951521927 0.687610186699411 11.440016333735592 -1 0 0
400 39 4 -0.5800835 0.40180340051834734 1.8464826917853259 17.809546154840742 0 1 -1
684 62 5 0.0582835 17.43894375085585 1.057012673770245 20.881213354710795 0 1 -1
492 46 5 0.0582835 16.239900197166605 10.282048076041061 18.494459452606137 0 0 0
300 30 5 0.0798 18.85528339605878 5.059925477247057 13.190433075842726 0 0 0
439 42 5 0.0582835 15.374911580369005 6.334625281701796 17.3612497698566 0 0 0
295 30 4 -0.5484 17.10632637904249 7.805102150299326 15.546296411578405 0 0 0
579 54 3 0.7551165 20.73272045741209 9.95158798058788 21.968776215877195 0 0 -1
584 54 5 0.0582835 19.70715974774332 10.25661432250063 18.95988857596563 0 0 -1
291 30 1 0.0955 17.400492300133482 6.458881174691139 12.318673891598271 0 0 0
299 30 5 0.0798 17.122012629645095 4.4168317905173975 13.118349704418499 0 0 0
229 23 5 0.0798 19.496750634869223 0.7552899469865649 12.087443247182689 -1 0 0
228 23 5 0.0798 16.622517582969447 1.3081418262604707 12.094149372698322 -1 0 0
376 37 4 -0.5800835 19.67616154647526 3.097807316833057 22.27930469506019 -1 0 -1
292 30 1 0.0955 17.755703667040052 5.2959454291353065 13.29415797384753 0 0 0
527 49 5 0.0582835 15.195398881933592 9.47319152046656 14.614434018432167 0 0 0
384 37 5 0.0582835 19.179564355350827 5.31627131956673 20.807022373549533 -1 0 -1
378 37 1 0.1266165 19.798899672331963 5.557339372306387 21.690372021870452 -1 0 -1
913 82 1 0.1266165 22.113461318055563 5.41003161322008 18.704778691280666 0 0 -1
430 41 5 0.0582835 20.079445429926526 1.51945928472585 14.945739325702911 -1 0 0
865 78 1 0.1266165 15.460324185494246 4.152999765716766 21.86703224871517 -1 1 -1
422 41 2 -0.3889835 22.737435656338853 2.933552918497649 12.381726958246478 -1 0 0
424 41 4 -0.5800835 20.59995770917365 3.2978453234521585 12.885419522879754 -1 0 0
920 82 5 0.0582835 21.225937214886006 4.84422910182275 19.02808637448666 0 0 -1
297 30 5 0.0798 16.55082265929809 6.21681797895666 11.769959781070574 0 0 0
578 54 2 -0.3889835 20.152338836304523 9.669158315027603 20.76162476247316 0 0 -1
572 53 5 0.0582835 20.558814187783245 7.662460089929599 15.838786317890667 0 0 0
873 78 5 0.0582835 16.413630300306444 4.077473835062386 21.37973388311456 -1 1 -1
296 30 2 -0.4048 17.12226132726428 7.535958779201423 13.219881791670586 0 0 0
565 53 1 0.1266165 21.229042006551197 7.7582496603319715 14.959673936815221 0 0 0
294 30 3 0.8478 17.2700760610199 7.1658091164760025 14.50392766785789 0 0 0
293 30 2 -0.4048 17.658429688673802 5.81537597940129 14.607536663795331 0 0 0
780 70 5 0.0582835 15.270208884358262 0.13965408641004143 15.97184991042449 0 1 -1
675 62 3 0.7551165 18.018821079064104 2.771938554105354 19.05645492871586 0 1 -1
921 82 5 0.0582835 22.463864133483817 4.822490759470442 17.810000023490325 0 0 -1
679 62 5 0.0582835 17.450250750669102 5.369822444654256 19.017790741412576 0 1 -1
673 62 1 0.1266165 18.02114272760048 4.958889868726744 18.173542620349505 0 1 -1
773 70 2 -0.3889835 17.11598695147198 0.612667203442701 15.068359578191297 0 1 -1
383 37 5 0.0582835 20.05463573828523 6.658062329230968 21.49412691674789 -1 0 -1
482 46 2 -0.3889835 17.716747761158576 10.272165576486858 22.06222547910841 0 0 0
774 70 1 0.1266165 16.064238522913424 0.8662235626063778 16.015544623285436 0 1 -1
319 32 5 0.0582835 18.96530652978918 9.22576797435568 12.529201187450017 0 0 0
681 62 5 0.0582835 17.320445054217952 4.791142297221457 17.30882854312216 0 1 -1
573 53 5 0.0582835 22.052343482765096 7.088195409990933 15.074595237030328 0 0 0
676 62 4 -0.5800835 16.793702825749698 2.939606362276683 19.170625741859148 0 1 -1
321 32 5 0.0582835 17.917931742545605 10.38434886450928 13.449376654506816 0 0 0
374 37 2 -0.3889835 21.92830446071282 2.6239572938026527 22.279415458268367 -1 0 -1
484 46 4 -0.5800835 15.794163885185668 9.91045273333593 20.94528698012696 0 0 0
567 53 3 0.7551165 21.355193050180187 7.618408644409453 12.616569006099734 0 0 0
871 78 5 0.0582835 15.31948314305221 3.1123647070477896 22.236011836000753 -1 1 -1
577 54 1 0.1266165 20.379143526564214 10.57777617408305 19.781710955477195 0 0 -1
405 39 5 0.0582835 21.51132070768077 -0.03553314009175959 17.65925640964681 -1 1 -1
680 62 5 0.0582835 18.701841375469403 5.74884456278256 17.900021327804573 0 1 -1
375 37 3 0.7551165 20.83354111956504 3.482158367887013 22.1306524498842 -1 0 -1
914 82 2 -0.3889835 21.877886436666362 6.821089875584061 18.47702409200686 0 0 -1
571 53 5 0.0582835 21.665494722005175 8.729200708223386 15.032668297056372 0 0 0
320 32 5 0.0582835 19.711941862414353 10.301872682962623 13.726835919439342 0 0 0
674 62 2 -0.3889835 18.752141516066803 3.7652998732965455 18.527443699442145 0 1 -1
373 37 1 0.1266165 21.61264920642332 1.260017635016986 22.608306178459117 -1 0 -1
566 53 2 -0.3889835 20.559421390251455 7.460121643393154 13.708207036967798 0 0 0
583 54 5 0.0582835 21.521379879431183 10.598672550165286 19.64934795123093 0 0 -1
778 70 5 0.0582835 16.27969262400499 0.9285530031638508 17.081320028956373 0 1 -1
779 70 5 0.0582835 15.49018044449825 1.8099163797766435 15.7969210243572 0 1 -1
682 62 5 0.0582835 17.003072502075973 0.32495538850023725 19.28231556463404 0 1 -1
677 62 2 -0.3889835 18.64116423426577 1.6800905898129972 19.42981056682859 0 1 -1
221 23 1 0.0955 17.61599516334216 1.6947239086802113 12.007591208914617 -1 0 0
617 57 2 -0.3889835 5.2702251412849686 -0.1416554661480183 12.198192582270615 0 1 0
379 37 5 0.0582835 20.863573408867445 0.9159804479772559 21.91546684770963 -1 0 -1
313 32 1 0.1266165 18.895056473117908 10.263742997775006 12.976364264494617 0 0 0
377 37 2 -0.3889835 21.09630622077468 4.744761108422447 21.82784261514618 -1 0 -1
483 46 3 0.7551165 16.917267323909343 10.381728558774418 20.996349977761156 0 0 0
432 41 5 0.0582835 20.245516383713145 3.1672932167964327 15.461527793481034 -1 0 0
431 41 5 0.0582835 21.086193138918883 1.8672397324385421 16.31039326484132 -1 0 0
227 23 5 0.0798 17.800523065276973 1.9941308065682157 12.995500362226222 -1 0 0
426 41 1 0.1266165 20.822043349107577 2.1983639466805935 15.358214402266395 -1 0 0
425 41 2 -0.3889835 21.95563381606598 2.2843417571702513 14.432770356366659 -1 0 0
423 41 3 0.7551165 21.706333488616394 2.868986469839418 13.218830843573032 -1 0 0
314 32 2 -0.3889835 19.088944253160108 11.199834393863481 11.852088498550238 0 0 0
526 49 5 0.0582835 16.11823510741879 10.88498144991939 15.128522242242202 0 0 0
528 49 5 0.0582835 14.608419564551586 11.04785347143186 14.196744826118643 0 0 0
281 29 1 0.0955 7.267382518516932 9.38702952196963 11.814554890222805 0 0 0
288 29 5 0.0798 6.391784803304664 10.019350593459702 11.905823663406395 0 0 0
287 29 5 0.0798 8.160577566194709 9.962381197257502 12.051457120998382 0 0 0
215 22 4 -0.5484 10.55260944762355 8.010135251522954 22.476031941472364 0 0 0
298 30 5 0.0798 18.202491896320584 6.7187757998069015 11.627408723274208 0 0 0
826 74 5 0.0582835 3.0296086113716556 9.022487591452519 22.544555338364848 0 0 0
382 37 5 0.0582835 19.177594540476143 5.498347036610851 22.595895102014612 -1 0 -1
403 39 5 0.0582835 22.617197218646183 -0.09506354686059026 16.278212662159167 -1 1 -1
427 41 5 0.0582835 22.318523115795795 4.5465998277141795 11.286227844312021 -1 0 0
380 37 5 0.0582835 22.465352980990616 0.5797355625647809 22.719312053702943 -1 0 -1
898 80 5 0.0582835 3.279425397566978 13.998014146938186 9.844976224109509 0 0 0
261 27 1 0.0955 3.86601620661768 18.158324779604108 8.213278197225387 0 0 0
270 27 5 0.0798 2.4709978864394833 19.42649559511015 9.182696092734783 0 0 0
266 27 2 -0.4048 4.409015515125971 17.192536821720036 9.120951362986297 0 0 0
340 34 4 -0.5800835 4.841318547408129 13.240011504862819 6.441132683941436 0 0 0
262 27 1 0.0955 3.62207019410904 19.37167372673937 9.034589592096458 0 0 0
264 27 3 0.8478 4.520853569902894 17.712380422048664 10.385304459638418 0 0 0
268 27 5 0.0798 3.223723418723536 17.857962440162908 7.40671910453359 0 0 0
267 27 5 0.0798 4.701563844055737 18.495251145519045 7.656623993537479 0 0 0
269 27 5 0.0798 3.7328538611647786 20.40873076481391 8.67738279954106 0 0 0
339 34 3 0.7551165 4.79429306045172 14.337232314829041 7.01432310121724 0 0 0
23 3 2 -0.4048 3.211798589008591 18.7993948754915 4.094678116096088 0 0 1
24 3 3 0.8478 2.777261889962797 20.01075999432046 4.638315172941397 0 0 1
338 34 2 -0.3889835 5.92186596609646 14.99827143461485 7.348428881982893 0 0 0
341 34 2 -0.3889835 3.6388081969386272 14.96001250384876 7.303938540102043 0 0 0
22 3 1 0.0955 2.8900626512903007 18.852353775637756 2.759367970123455 0 0 1
29 3 5 0.0798 2.06080245001258 18.132921029625187 2.7524842254655284 0 0 1
342 34 1 0.1266165 2.361359578363543 14.210794106436452 6.899949850344254 0 0 0
30 3 5 0.0798 3.597647726415257 18.483737884219014 2.0765857712368625 0 0 1
346 34 5 0.0582835 2.36324151563786 13.283984112681317 7.394030930202787 0 0 0
25 3 4 -0.5484 2.9045390233794626 20.277765814717988 5.79380044809155 0 0 1
21 3 1 0.0955 2.256923672540681 20.170001933285985 2.5053513702039223 0 0 1
27 3 5 0.0798 1.4416390218929225 20.248338289547046 1.7811361717438134 0 0 1
26 3 2 -0.4048 2.214223684407882 20.81752376664776 3.718480554066577 0 0 1
512 48 5 0.0582835 5.385952045568197 16.420493699325966 4.615467102308954 0 0 0
505 48 1 0.1266165 6.221303945591561 17.067133859434346 4.849079591270671 0 0 0
348 34 5 0.0582835 2.2498649286148678 14.02778916205143 5.816368611482134 0 0 0
513 48 5 0.0582835 5.967520825579517 17.251492332726052 5.896554062445149 0 0 0
511 48 5 0.0582835 6.220149957101063 18.023824005479675 4.313089330105069 0 0 0
347 34 5 0.0582835 1.4730463686177884 14.694374284501773 7.249054006904407 0 0 0
940 84 4 -0.5800835 0.08861347427523111 17.42491933494957 6.072794757809333 0 0 0
945 84 5 0.0582835 1.4599036973121844 15.71176795076212 4.395498038494501 0 0 0
937 84 1 0.1266165 0.4599502598962718 15.778104239856013 3.9694761545970225 0 0 0
893 80 2 -0.3889835 4.677591256081941 12.52446930770703 10.17468257223424 0 0 0
616 57 4 -0.5800835 3.5409607288171374 22.69038466767105 10.719520342605872 0 0 0
654 60 1 0.1266165 22.734081227383225 11.916696039157003 9.823479295545075 0 0 0
658 60 5 0.0582835 0.2355790936984111 11.662148052282513 8.860282928777236 1 0 0
695 63 5 0.0582835 5.632219286082215 21.213128400338316 5.700618482988872 0 -1 0
887 79 5 0.0582835 3.076605380478995 14.68475801028843 2.525580331704233 1 0 1
651 60 3 0.7551165 0.2590882346334446 14.282303335541586 9.853958826728059 1 0 0
653 60 2 -0.3889835 0.3729993889161496 13.064614551342734 10.530782879023885 1 0 0
882 79 1 0.1266165 3.2269729267303027 14.213046446354921 1.4934072079187217 1 0 1
879 79 3 0.7551165 3.6323418385335975 16.281716283703837 0.24945941624086557 1 0 1
939 84 3 0.7551165 -0.024593685857311715 17.945238737000263 4.982291560841423 0 0 0
948 84 5 0.0582835 0.44556745801521314 20.145715011751253 6.646448799732098 0 0 0
886 79 5 0.0582835 3.798862459792687 13.25012162687229 1.6385360831383586 1 0 1
694 63 5 0.0582835 5.652147416047145 21.28372664824395 7.399635837643808 0 -1 0
650 60 2 -0.3889835 0.7930236976230043 15.414329646489282 10.469496147615152 1 0 0
881 79 2 -0.3889835 4.104414757421748 15.05192106365609 0.6955174827517311 1 0 1
690 63 1 0.1266165 6.009518240502312 21.752609825551122 6.49538673736576 0 -1 0
337 34 1 0.1266165 7.219369084377022 14.396294137016517 7.070911467443587 0 0 0
345 34 5 0.0582835 7.244317442237853 13.496010153033978 7.591431863962802 0 0 0
122 13 1 0.0955 15.639576956261308 21.293438971752863 11.16570611957514 0 0 0
189 19 5 0.0798 7.345405371473382 17.304596408817265 7.485815903469488 0 0 0
190 19 5 0.0798 7.058897095389498 17.105981354825577 9.384922533534665 0 0 0
943 84 5 0.0582835 22.74869491116803 15.329575485376337 4.724724531718925 -1 0 0
888 79 5 0.0582835 2.256125954332368 14.03410325332982 1.0897415609528385 1 0 1
891 80 3 0.7551165 5.7702311650969085 13.193401570910629 10.649774107529584 0 0 0
506 48 2 -0.3889835 7.548371768827112 16.47135206303092 4.565671002068596 0 0 0
183 19 2 -0.4048 7.14570170040977 19.07355306347724 8.62207844384303 0 0 0
182 19 1 0.0955 7.615330701315148 17.686345638445157 8.541634383887434 0 0 0
944 84 5 0.0582835 0.4590933281792135 15.132118041944686 3.0732174412246143 0 0 0
938 84 2 -0.3889835 0.15782708191989953 17.19331397527112 3.819379909627705 0 0 0
880 79 4 -0.5800835 2.5073885579241284 16.61654111613024 0.5626803447285835 1 0 1
595 55 5 0.0582835 22.321378352113847 19.11619505749834 1.9236771659923384 -1 0 0
454 43 5 0.0582835 11.325882835096145 11.317639124366222 10.49659676875375 0 0 0
199 20 5 0.0798 6.176857238026817 16.231783034121907 1.3533919380165407 0 0 1
763 69 5 0.0582835 21.018467533428783 18.13588445198296 10.904041574405854 -1 0 0
731 66 5 0.0582835 7.239567978422178 12.867521534696287 3.339359522824253 0 0 0
725 66 2 -0.3889835 7.594596621046583 13.047123750878914 1.1982543680178412 0 0 0
726 66 1 0.1266165 7.518881989289984 12.245525043600987 2.3979566445288136 0 0 0
343 34 5 0.0582835 7.3419705878313986 14.1965749490427 5.968510921592596 0 0 0
762 69 1 0.1266165 0.4101996707075538 22.076200184903605 9.155771230554228 0 0 0
304 31 4 -0.5800835 3.6257186677727056 21.24188357466833 -0.10448925293431513 0 0 1
894 80 1 0.1266165 3.354612785816227 13.091188410208279 10.41965605807218 0 0 0
766 69 5 0.0582835 0.34182718252964756 21.879337881727974 8.055631759287746 0 0 0
750 68 1 0.1266165 12.373274369020365 12.194516922872216 4.677061488578586 0 0 0
732 66 5 0.0582835 6.789637640136776 11.449735382175541 2.378972046258407 0 0 0
698 64 2 -0.3889835 0.4220803262532719 11.749773361474755 4.011771355729123 1 0 1
649 60 1 0.1266165 0.6401321530531597 16.65533199398382 9.774962212708155 1 0 0
657 60 5 0.0582835 1.1169755046032135 16.61586338817848 8.77057192596788 1 0 0
656 60 5 0.0582835 1.1233776248968572 17.46318117716276 10.402938090695201 1 0 0
28 3 5 0.0798 3.0873601660321484 20.698288963256456 2.035965085786009 0 0 1
899 80 5 0.0582835 2.676384747022259 12.363839713354944 10.016010586786972 0 0 0
247 25 5 0.0798 11.351464294687561 22.7138523891916 -0.0476511735423456 0 -1 0
263 27 2 -0.4048 4.061190538110918 19.04256576499419 10.41209716172544 0 0 0
14 2 3 0.8478 17.941219757468627 22.618461655092077 1.000678477861462 -1 0 0
928 83 4 -0.5800835 10.717479622551446 22.39177012558158 9.728884383145159 0 0 0
209 21 5 0.0798 8.418218147133228 11.854253977931396 5.9905531164611485 0 0 0
931 83 5 0.0582835 11.017411599699429 20.040412985804267 11.092369654383749 0 0 0
696 63 5 0.0582835 7.070693898390384 21.5224479007108 6.239041520443893 0 -1 0
927 83 3 0.7551165 11.412846593141708 22.652642695623154 10.715441411373359 0 0 0
754 68 5 0.0582835 11.473825099367119 12.663066624680635 5.114996811228855 0 0 0
194 20 3 0.8478 7.910593676220621 18.120885183637387 0.1691832794234034 0 0 1
889 80 1 0.1266165 8.198729225538534 13.363117958297071 10.915140856241775 0 0 0
128 13 5 0.0798 14.83967332848393 19.79721830884322 10.060106745124061 0 0 0
192 20 1 0.0955 7.207660610879936 16.32015125317997 1.1938171120431098 0 0 1
200 20 5 0.0798 7.704700891839945 15.762269766283376 2.000237448434525 0 0 1
193 20 2 -0.4048 7.435653439151586 17.65109799196319 1.3125109162841384 0 0 1
812 73 5 0.0582835 9.970532894909582 21.567302069561368 3.6912428158788515 0 -1 0
755 68 5 0.0582835 13.17137094454665 12.161332823709035 5.430238872266325 0 0 0
811 73 5 0.0582835 8.468461909353545 21.98059390904894 2.689270012727053 0 -1 0
69 7 5 0.0798 14.307402014905527 12.678622807449882 1.2355772127528297 0 0 0
121 13 1 0.0955 14.508990118380467 20.790607660617653 10.366871024611394 0 0 0
344 34 5 0.0582835 8.086621533964303 14.958867829361276 7.458569987470337 0 0 0
730 66 5 0.0582835 8.48711361555046 11.808302719111417 2.5843768057052237 0 0 0
354 35 1 0.1266165 11.362593113858585 21.353896156848975 6.4855138233597 0 0 0
359 35 5 0.0582835 12.22964983010608 20.717303252947 6.18346301688902 0 0 0
998 97 7 -0.58 10.407752871413464 13.116269752702468 7.735214549341642 0 0 0
999 97 7 -0.58 12.658373383693975 13.234049005204572 8.427354248311417 0 0 0
418 40 5 0.0582835 11.468507396584956 20.08611227860656 0.4759190484283137 0 0 0
419 40 5 0.0582835 13.053443329554016 19.352521964449 0.8100074553886086 0 0 0
414 40 1 0.1266165 12.170879259969642 19.703925878720515 1.2274119534651717 0 0 0
420 40 5 0.0582835 11.618473259606368 18.915765916576902 1.8298927065315602 0 0 0
413 40 2 -0.3889835 12.662645643213688 20.7423316299006 2.154013044502806 0 0 0
412 40 4 -0.5800835 13.7073682650682 19.10011417873974 3.340650849183653 0 0 0
411 40 3 0.7551165 13.431513529509255 20.275751527289806 3.1707613487686848 0 0 0
516 48 5 0.0582835 10.76527301337058 18.540070520424727 4.584376528021364 0 0 0
515 48 5 0.0582835 11.842940740537504 17.12092839757011 4.619681720769894 0 0 0
514 48 5 0.0582835 10.910717975656791 17.707372204932177 6.068746215707526 0 0 0
510 48 1 0.1266165 10.89303335137209 17.558163817654613 5.00934890683928 0 0 0
410 40 2 -0.3889835 13.915795642190316 21.26969503561118 4.084742584145389 0 0 0
996 97 8 1.32 11.402817101045157 14.005544019736933 8.236822180963408 0 0 0
186 19 2 -0.4048 9.351357630528717 19.139720941397336 8.79943633574832 0 0 0
187 19 5 0.0798 9.648778924888251 17.294833458147068 7.779706667605259 0 0 0
509 48 2 -0.3889835 9.829677010394285 16.73516235753606 4.6399783504726955 0 0 0
188 19 5 0.0798 9.351128568027985 17.159825113419878 9.594766322922975 0 0 0
507 48 3 0.7551165 8.61614578929819 17.220709860054342 4.879966597519148 0 0 0
181 19 1 0.0955 9.141748775300465 17.73509927348485 8.65334072280022 0 0 0
185 19 4 -0.5484 8.1485978421053 21.08150166310167 8.872565268755956 0 0 0
184 19 3 0.8478 8.177693841633367 19.8577204550317 8.756974169198205 0 0 0
508 48 4 -0.5800835 8.499525922599219 18.361631159378994 5.377267617505352 0 0 0
358 35 5 0.0582835 10.374458267983705 20.81437871886682 6.344446523746632 0 0 0
995 97 7 -0.58 10.910843582504711 14.66255175354104 9.438736589721266 0 0 0
997 97 7 -0.58 11.626086172282365 15.078638657163667 7.267425212854909 0 0 0
360 35 5 0.0582835 11.453479090682471 21.43320231477943 7.540326861797571 0 0 0
126 13 2 -0.4048 14.267880558585578 21.601628988998993 9.208638342746074 0 0 0
805 73 1 0.1266165 9.196662643246345 22.325163978105316 3.4091036401810118 0 -1 0
813 73 5 0.0582835 8.738605062202206 22.66503551154744 4.396412734511812 0 -1 0
63 7 2 -0.4048 12.307399016189645 12.430915901172934 1.3557235374131296 0 0 0
539 50 5 0.0582835 11.948636288102929 16.73601896127867 10.567897233412843 0 0 0
890 80 2 -0.3889835 6.998955078749391 12.648742429273348 10.399030847139098 0 0 0
195 20 4 -0.5484 8.218094688011556 19.36253771501699 -0.024445620126614487 0 0 1
409 40 1 0.1266165 14.738413725190664 20.800489369207327 5.196284601311374 0 0 0
417 40 5 0.0582835 14.219111133221368 20.030938373571832 5.749440489047216 0 0 0
480 45 5 0.0582835 19.13387209150006 13.444028911439945 0.20866187039120093 0 0 1
540 50 5 0.0582835 13.455763852288431 15.801830148129486 10.948410166464381 0 0 0
896 80 5 0.0582835 9.094625135015914 13.062385489239897 10.382692418114218 0 0 0
64 7 3 0.8478 11.71092086906914 11.459039296647092 0.5995154143365498 0 0 0
463 44 5 0.0582835 14.585384293175789 17.956767346528896 9.173002897202684 -1 -1 0
353 35 2 -0.3889835 11.4497564532136 22.61193439281661 5.831183342984999 0 0 0
62 7 1 0.0955 13.445831581305118 12.965705600963755 0.6352593832057922 0 0 0
124 13 3 0.8478 15.228340991791276 22.607077958900835 9.267663520588505 0 0 0
123 13 2 -0.4048 16.091373145345578 22.501197311287687 10.362069311846522 0 0 0
791 71 5 0.0582835 14.613291284566149 17.05623631956021 1.5294974681435116 0 0 1
897 80 5 0.0582835 8.223264185461263 14.43395756730787 10.730831978923781 0 0 0
756 68 5 0.0582835 12.739650412432544 12.7929866521921 3.8522777080555852 0 0 0
597 55 5 0.0582835 21.891525708861508 20.07559594189571 0.48385308602717214 -1 0 0
768 69 5 0.0582835 1.239737974827657 21.486990974368336 9.57464783338314 0 0 0
127 13 5 0.0798 13.573440816736165 20.503460028146684 10.946426160434624 0 0 0
16 2 2 -0.4048 18.193631649601933 21.710421390154725 0.07054300465244866 -1 0 0
757 69 1 0.1266165 20.200458071823174 18.847566653628153 10.562787084580917 -1 0 0
17 2 5 0.0798 17.030571730050205 20.288454258099765 -0.04881789528214957 -1 0 0
372 36 5 0.0582835 19.516956936757207 11.855749885398312 3.244170223050648 0 0 0
841 76 1 0.1266165 19.529135904578297 15.152541621864748 10.534414592096434 0 -1 0
660 60 5 0.0582835 21.598652639939772 12.069910918528045 9.700196723619928 0 0 0
761 69 2 -0.3889835 22.202936466201372 21.831143639075965 9.8296854745143 -1 0 0
734 67 2 -0.3889835 18.790500423307833 16.018832491633518 7.27137958207765 0 0 0
760 69 4 -0.5800835 22.444287889329914 19.663505349159387 9.344333244918836 -1 0 0
702 64 1 0.1266165 20.938055440843524 12.7937041288847 6.383191909978781 0 0 1
589 55 1 0.1266165 21.508298887572817 19.582025867207157 1.3980977977630165 -1 0 0
788 71 5 0.0582835 20.769954440460108 15.039765094631216 1.99689701957227 0 0 1
847 76 5 0.0582835 19.9420566691955 14.186728843888812 10.805780206548366 0 -1 0
781 71 1 0.1266165 20.10724370892407 15.869129748410186 2.165407266349395 0 0 1
370 36 5 0.0582835 17.91989009662364 12.011027907392611 2.336097992607088 0 0 0
765 69 5 0.0582835 19.984983630448504 18.62831667488746 9.456509713879226 -1 0 0
592 55 4 -0.5800835 22.32380379542422 21.908108289046325 2.2649995421892273 -1 0 0
498 47 1 0.1266165 15.807597113959272 13.874371287728273 11.219674987318673 0 0 0
742 67 5 0.0582835 14.913113739005981 13.879747525137947 7.087754779867365 0 0 0
416 40 5 0.0582835 15.010906929731899 21.628191966635633 5.903112170875255 0 0 0
464 44 5 0.0582835 14.279774748031599 16.784531970056154 8.051950390752982 -1 -1 0
457 44 1 0.1266165 15.097771593691336 17.31485938704075 8.450092827057553 -1 -1 0
465 44 5 0.0582835 15.819338886068946 16.656691989461063 8.910912401959703 -1 -1 0
738 67 1 0.1266165 15.741507235644702 14.098141724845933 6.45688359923891 0 0 0
743 67 5 0.0582835 15.43628420311272 14.643599176528449 5.60509348620337 0 0 0
460 44 4 -0.5800835 17.159831547537895 19.03502207337319 9.025728692611606 -1 -1 0
741 67 5 0.0582835 20.490820600420818 15.770342342421591 6.031422964099263 0 0 0
503 47 5 0.0582835 16.138667593268643 13.92020736475921 10.155282665634132 0 0 0
591 55 3 0.7551165 21.190497268545553 21.61008640243746 2.637420815987155 -1 0 0
467 44 5 0.0582835 18.818309002690203 21.292295948224872 6.496148449008558 -1 -1 0
365 36 2 -0.3889835 17.837492916665827 11.72325380738123 4.51005458954946 0 0 0
13 2 2 -0.4048 17.45408912569104 22.055860366291565 2.1418789060582277 -1 0 0
849 76 5 0.0582835 20.20500488788257 15.867637750712351 10.091035620913562 0 -1 0
739 67 5 0.0582835 19.557638428095366 17.2479235848234 5.806212643744441 0 0 0
19 2 5 0.0798 16.372765389281582 20.26896210536528 2.267726569496993 -1 0 0
366 36 1 0.1266165 18.4786902609855 12.224097311849937 3.3115738865311326 0 0 0
784 71 4 -0.5800835 18.160339416711135 17.681762878636594 2.3434295053635905 0 0 1
322 32 5 0.0582835 16.972196374234873 11.764618993010892 8.596891690435685 0 0 0
371 36 5 0.0582835 18.43025495222589 13.359056134252535 3.3998468376179622 0 0 0
786 71 1 0.1266165 15.635132932492974 17.286961388234303 1.8676782759475545 0 0 1
790 71 5 0.0582835 16.010060644320568 18.164393598578783 1.313762854282732 0 0 1
792 71 5 0.0582835 15.64287530791845 17.516602684389774 2.9286364963607636 0 0 1
735 67 3 0.7551165 17.80314029755415 15.339480760210414 6.49881651117717 0 0 0
593 55 2 -0.3889835 20.41027403660817 22.398144337956285 3.39381082623275 -1 0 0
652 60 4 -0.5800835 22.70270087302028 14.376874550311442 8.809744650433965 0 0 0
942 84 1 0.1266165 22.49213795823793 20.132586016081646 6.046022811653069 -1 0 0
459 44 3 0.7551165 16.81701127222847 19.103805446884092 7.853447909458205 -1 -1 0
941 84 2 -0.3889835 22.678122001324525 19.27385959221604 4.814018917275137 -1 0 0
946 84 5 0.0582835 22.15099629997884 21.096273494249306 5.706795477610327 -1 0 0
787 71 5 0.0582835 20.067017002497565 16.01743050179879 3.262120674983695 0 0 1
458 44 2 -0.3889835 15.741080117067767 18.22928038515906 7.424553405735929 -1 -1 0
744 67 5 0.0582835 16.19507847142748 13.1725077305288 6.075266609307645 0 0 0
20 2 5 0.0798 18.06245247971986 20.34987144085856 2.7168709530399 -1 0 0
759 69 3 0.7551165 21.755355077803266 20.53966279246901 9.886977810477488 -1 0 0
785 71 2 -0.3889835 16.557493810817146 16.21720476105142 1.7422575673668548 0 0 1
706 64 5 0.0582835 21.022943089137417 13.753987089123868 6.987478496047755 0 0 1
782 71 2 -0.3889835 18.73771831238293 15.483860524714604 1.885211755217902 0 0 1
699 64 3 0.7551165 22.22899538126539 11.831277668687926 4.775493565916354 0 0 1
655 60 5 0.0582835 22.65307662846274 16.972587669206 9.767135912749755 0 0 0
596 55 5 0.0582835 20.929976460926685 18.67027420931404 1.0603448184362871 -1 0 0
947 84 5 0.0582835 21.68385154298164 19.653583326945448 6.549357384144631 -1 0 0
317 32 2 -0.3889835 18.660405103136657 11.836096649741036 9.71061246604694 0 0 0
740 67 5 0.0582835 20.529370306446033 17.06116780892622 7.2159173835080255 0 0 0
733 67 1 0.1266165 19.89774347647303 16.529826935997306 6.524356863433712 0 0 0
318 32 1 0.1266165 18.071879756699385 11.718363664565755 8.49821541489015 0 0 0
415 40 5 0.0582835 15.706630574635907 20.486319900632537 4.742609266237854 0 0 0
708 64 5 0.0582835 20.868701328513854 11.957200698231649 7.030832940497783 0 0 1
323 32 5 0.0582835 18.41064568969635 12.576411496388179 7.961614271549775 0 0 0
18 2 5 0.0798 18.688899406844754 19.737406049558853 0.46941785921488693 -1 0 0
783 71 3 0.7551165 17.829488518734525 16.52811699733088 2.023163316950166 0 0 1
737 67 2 -0.3889835 16.765756944328622 14.83166405653264 7.21817193507224 0 0 0
707 64 5 0.0582835 20.074949883679327 12.736880840951503 5.7632587678798215 0 0 1
789 71 5 0.0582835 20.419854712207307 16.76766756748029 1.5642199296574228 0 0 1
468 44 5 0.0582835 18.05563550251978 21.470357710847644 8.143159566495516 -1 -1 0
466 44 5 0.0582835 19.27709578640512 20.172622035800046 7.731764876172083 -1 -1 0
462 44 1 0.1266165 18.451936379918195 20.762054984535514 7.377685749226207 -1 -1 0
461 44 2 -0.3889835 17.387779936504906 19.92403926746487 6.886955273540406 -1 -1 0
701 64 2 -0.3889835 22.20225224827243 12.820929669997732 5.669941971002932 0 0 1
736 67 4 -0.5800835 17.87190739623055 15.19629813568449 5.291579135903694 0 0 0
11 2 1 0.0955 17.862860439555146 20.451636918658608 0.5775911312980856 -1 0 0
12 2 1 0.0955 17.380348693516915 20.746026764331788 1.992992890421977 -1 0 0
848 76 5 0.0582835 18.711836116638434 14.926681575722482 9.789474235216842 0 -1 0
590 55 2 -0.3889835 20.630975886623492 20.433946499406918 2.266866702403513 -1 0 0
758 69 2 -0.3889835 20.582303380065774 20.276103236387467 10.531257527127073 -1 0 0
883 79 5 0.0582835 3.7451854546282606 18.819854134405247 -0.055316306391229135 1 0 1
198 20 5 0.0798 8.53853807579781 15.46125269118405 -0.22335621688213864 0 0 1
1000 98 7 -0.58 14.697603506437757 21.51506264123875 -0.1899927940277774 0 -1 0
723 66 3 0.7551165 7.894734370578285 12.388623803386462 0.10310631701569806 0 0 0
70 7 5 0.0798 13.408613077424777 14.052419465303712 0.446368334918247 0 0 0
307 31 5 0.0582835 6.286411357652306 22.352235399910338 -0.16922306597466985 0 0 1
764 69 5 0.0582835 19.269005960895914 18.689339673838212 11.248153126270685 -1 0 0
639 59 3 0.7551165 3.683125895223732 16.156941363558094 14.997092810989306 0 0 0
638 59 2 -0.3889835 3.0897422973968482 15.130665456459525 15.577420553744583 0 0 0
640 59 4 -0.5800835 4.325944196165075 15.86353224475148 14.014499786500926 0 0 0
641 59 2 -0.3889835 3.5168735399083864 17.38060741159339 15.551824111519458 0 0 0
642 59 1 0.1266165 4.258299289627745 18.345662955199373 14.78607771079753 0 0 0
647 59 5 0.0582835 4.1680407404713025 19.265697307633946 15.221515967961507 0 0 0
648 59 5 0.0582835 5.279464876844575 18.082083808437222 14.898213864527458 0 0 0
104 11 3 0.8478 5.065415292379534 16.337450948334475 18.423386270210344 0 -1 0
105 11 4 -0.5484 4.009914222956499 16.096354858931946 18.991715587795888 0 -1 0
151 16 1 0.0955 0.9095634898426312 18.172983702295475 19.109620037736942 1 0 0
637 59 1 0.1266165 3.2883522200316593 13.814334093846893 14.956503353867298 0 0 0
643 59 5 0.0582835 4.328283805695453 13.475395255705967 15.19066212608277 0 0 0
644 59 5 0.0582835 2.603761304065246 13.126927735365443 15.423502037321029 0 0 0
645 59 5 0.0582835 3.0486576970132457 13.709899610105131 13.903459620872221 0 0 0
646 59 5 0.0582835 4.0518368791432895 18.42936401823631 13.702374854769952 0 0 0
106 11 2 -0.4048 5.609192031852355 15.457914890490914 17.44814589350339 0 -1 0
623 57 5 0.0582835 5.961817627401755 20.98461692385406 12.912344532349584 0 0 0
979 93 6 1 6.070809398608941 15.532633774573123 12.760764344855653 0 0 0
625 58 1 0.1266165 0.651441605703947 18.889191716084856 13.832323590913667 0 -1 0
626 58 2 -0.3889835 0.5051497806640172 20.29753243346377 13.398645983527988 0 -1 0
627 58 3 0.7551165 1.3959729560206535 21.215531316243744 13.910168572576515 0 -1 0
157 16 5 0.0798 1.870339027270033 18.462259463478244 19.44213893077329 1 0 0
152 16 1 0.0955 0.9780958819354018 17.016002983488494 18.03455478987552 1 0 0
903 81 3 0.7551165 5.840757157069112 20.62447597749255 18.675524532197823 1 -1 0
160 16 5 0.0798 0.8266512256060219 16.052393180512496 18.51161557334223 1 0 0
159 16 5 0.0798 1.875126007500878 16.95192993109755 17.460940213042235 1 0 0
306 31 1 0.1266165 1.5530464192102826 21.538133379903236 21.33006952104024 0 0 0
902 81 2 -0.3889835 6.72748880068011 20.78100824801849 19.801142353493162 1 -1 0
312 31 5 0.0582835 2.039027981036531 20.707781883530686 20.83004918771155 0 0 0
103 11 2 -0.4048 5.876293802895021 17.37657407975742 18.518956548237433 0 -1 0
275 28 4 -0.5484 6.605299520615575 13.80086195650511 13.95704254785225 0 0 0
158 16 5 0.0798 0.46593188238299316 17.811916725065593 20.06612468106421 1 0 0
905 81 2 -0.3889835 4.429197034663278 20.56447770131185 18.96181911989855 1 -1 0
305 31 2 -0.3889835 2.5622349605050982 22.60205770173942 21.418566382767214 0 0 0
310 31 5 0.0582835 1.1506042533891727 21.295176970339135 22.275159084522052 0 0 0
274 28 3 0.8478 7.112299311952614 12.974802510534966 14.706869530106243 0 0 0
276 28 2 -0.4048 7.213512094743645 13.070800239483265 16.093884005316692 0 0 0
901 81 1 0.1266165 8.20935747639177 20.840621485547544 19.526469679518407 1 -1 0
990 96 7 -0.58 7.691588818522847 16.554349796564026 12.155117678289828 0 0 0
908 81 5 0.0582835 8.726217088041322 20.838179652850663 20.50737646525287 1 -1 0
303 31 3 0.7551165 3.6122115319628088 22.3222888674078 22.265654154723 0 0 0
628 58 4 -0.5800835 2.27783056065672 20.828994952113494 14.676619984850191 0 -1 0
631 58 5 0.0582835 0.6456894030214261 18.68043940268241 14.930155277833233 0 -1 0
629 58 2 -0.3889835 1.2800341503633315 22.55695655009905 13.57395110997223 0 -1 0
911 81 5 0.0582835 2.454804092316284 20.594271561914525 18.028424059387103 1 -1 0
632 58 5 0.0582835 -0.0356259747458445 18.138635476539942 13.313404162770576 0 -1 0
618 57 1 0.1266165 5.182049806347238 21.392060018487676 12.266123716149924 0 0 0
146 15 2 -0.4048 0.7473363975834185 12.572601249232514 13.674731784339334 0 0 0
906 81 1 0.1266165 3.5361283568877226 20.377171480519056 17.746876007923607 1 -1 0
904 81 4 -0.5800835 6.239424289771796 20.528537476273584 17.5256075690952 1 -1 0
153 16 2 -0.4048 0.08503377340206024 17.398658823291917 17.008149838141943 1 0 0
149 15 5 0.0798 21.332945311891002 13.04097889200227 15.475524800324772 -1 0 0
560 52 5 0.0582835 1.4558883163517795 12.703501959866696 20.239336888089017 1 -1 0
992 96 7 -0.58 7.9026970174560205 18.948097590623604 12.234037456710178 0 0 0
101 11 1 0.0955 6.90560947043881 15.9447806452997 16.91540699997406 0 -1 0
885 79 5 0.0582835 3.2255852606551456 18.025172089219915 21.339966607124133 1 0 0
910 81 5 0.0582835 3.531125472039548 19.320756302230038 17.417106860781395 1 -1 0
561 52 5 0.0582835 1.4421706822987628 14.498283542562195 19.931378487716742 1 -1 0
472 45 4 -0.5800835 16.651970604969335 13.673554432366325 22.203540091006783 0 0 0
553 52 1 0.1266165 0.8175315959111148 13.613510726245986 20.265051689591193 1 -1 0
554 52 2 -0.3889835 22.675366843266204 13.339894432738086 19.352863791614965 0 -1 0
956 85 5 0.0582835 10.801698590029412 11.750525358785485 12.768864732417281 0 0 0
474 45 1 0.1266165 19.309208851071062 13.57014676211458 22.134862574367865 0 0 0
102 11 1 0.0955 7.026273443544417 17.247618986754734 17.638564040386584 0 -1 0
110 11 5 0.0798 6.800760166401107 17.93420305242901 16.801709083777435 0 -1 0
109 11 5 0.0798 8.039417552982089 17.597901794544853 17.979818733431188 0 -1 0
504 47 5 0.0582835 14.986613046588143 13.180601990550652 11.430513321349732 0 0 0
823 74 5 0.0582835 3.504119664533771 12.895571792273193 19.05460195492402 0 0 0
633 58 5 0.0582835 1.6089435678812911 18.51734788943685 13.436709419390676 0 -1 0
559 52 5 0.0582835 0.5099957741412297 13.803368253209939 21.289006909771523 1 -1 0
884 79 5 0.0582835 4.867561894852646 18.79407470743226 21.671781943327165 1 0 0
265 27 4 -0.5484 4.996966334711421 17.086429599409286 11.328583630757969 0 0 0
895 80 5 0.0582835 8.314469182128255 13.260438276271637 12.019054278045541 0 0 0
877 79 1 0.1266165 4.071038640067915 18.23080511815075 22.07161522564219 1 0 0
624 57 5 0.0582835 4.185479174302309 20.97228396748288 12.509193713993378 0 0 0
817 74 1 0.1266165 4.442752047557673 12.409273946551252 19.058461421436515 0 0 0
824 74 5 0.0582835 5.1703771723584495 13.031621357212696 18.554765087883325 0 0 0
818 74 2 -0.3889835 4.758887618037981 12.03055808346662 20.46510967552376 0 0 0
622 57 5 0.0582835 5.42981221619755 21.02218325024067 11.277478082570674 0 0 0
900 80 5 0.0582835 3.1449760973492027 13.301677953105923 11.527493981660328 0 0 0
878 79 2 -0.3889835 4.526116383676474 16.954243035766623 22.548357313282636 1 0 0
727 66 5 0.0582835 7.626581052643955 11.794031650975269 20.401566412192086 0 0 -1
907 81 5 0.0582835 8.462740374927174 21.726855710938157 18.9612372706294 1 -1 0
108 11 5 0.0798 7.1692166445638925 15.807884017019664 15.892611366419484 0 -1 0
107 11 5 0.0798 7.65352271755721 15.318724153677282 17.529424441467732 0 -1 0
311 31 5 0.0582835 0.7053929422746356 21.884241435287414 20.699752602400007 0 0 0
955 85 5 0.0582835 12.088622505372825 12.099731808910075 13.988490019388824 0 0 0
949 85 1 0.1266165 11.38598710365731 12.569151666094289 13.265084382619559 0 0 0
197 20 5 0.0798 6.898268649914473 15.488575609305864 22.109030795435256 0 0 0
926 83 2 -0.3889835 11.456602733748626 21.913076450439156 11.82532961155736 0 0 0
66 7 2 -0.4048 12.372796586016756 11.321296697489341 22.403993527194014 0 0 -1
722 66 2 -0.3889835 7.94361075490278 13.20021160645031 21.97578743984007 0 0 -1
1001 98 8 1.32 14.57101694717663 21.61896333917207 21.405400178298475 0 -1 -1
683 62 5 0.0582835 18.487844003885087 22.756860733280504 20.101179277227335 0 0 -1
728 66 5 0.0582835 8.346451085821455 13.366428033673746 19.969234550534267 0 0 -1
721 66 1 0.1266165 8.267937228418857 12.622456376908517 20.748643372166253 0 0 -1
196 20 2 -0.4048 8.063419800031408 17.26099534413084 22.21827150582895 0 0 0
233 24 2 -0.4048 13.724102552622028 21.03118517786284 15.670668168785745 0 -1 -1
909 81 5 0.0582835 8.587639363744684 19.979027211066143 19.01870170304353 1 -1 0
129 13 5 0.0798 15.336750949563971 21.766021738878305 12.086655723243107 0 0 0
519 49 3 0.7551165 13.827593425698796 11.933199072017596 16.493375474771263 0 0 0
10 1 5 0.0798 8.055185981249531 22.112980445075742 15.125921022145736 0 -1 0
9 1 5 0.0798 8.697641631151035 21.69453825179833 13.717734874158085 0 -1 0
237 24 5 0.0798 13.158212555207768 20.14232171413751 18.592293535564778 0 -1 -1
177 18 5 0.0798 11.47878800835193 18.13868863456512 21.75394949788586 0 0 0
932 83 5 0.0582835 10.582379537569134 20.19503482592675 12.738839146827692 0 0 0
993 96 7 -0.58 9.864539419527464 17.285866785608324 12.575666611796517 0 0 0
236 24 2 -0.4048 12.957468542174183 19.1771353423526 16.824144680705107 0 -1 -1
2 1 1 0.0955 8.914337320874331 21.69529277909239 14.79025038903081 0 -1 0
729 66 5 0.0582835 9.276723722635394 12.232468132189421 20.69483302110804 0 0 -1
538 50 5 0.0582835 12.217522386278006 16.042294593603327 12.183389271599927 0 0 0
173 18 2 -0.4048 10.06118619537843 17.12853270407718 19.100054113374753 0 0 0
8 1 5 0.0798 8.073744690729452 19.832605102146008 15.667063848954628 0 -1 0
6 1 2 -0.4048 9.975531957644268 20.66183098633588 16.629983989899632 0 -1 0
1 1 1 0.0955 9.070577866730401 20.356373631639872 15.508239429705633 0 -1 0
7 1 5 0.0798 9.634701906159814 19.76646205826486 14.77951100393026 0 -1 0
235 24 4 -0.5484 12.296774063824577 19.50813709343777 14.667947279827128 0 -1 -1
234 24 3 0.8478 12.948441747566058 19.900386091992562 15.63379909730816 0 -1 -1
179 18 5 0.0798 9.925040830594416 18.70913068177529 20.295386032615564 0 0 0
174 18 3 0.8478 10.474843212683341 15.964689355516475 19.760849089735995 0 0 0
175 18 4 -0.5484 10.143850984697062 14.819349966816729 19.545338202062904 0 0 0
517 49 1 0.1266165 12.566694384545418 13.34507955059673 18.045946008954644 0 0 0
950 85 2 -0.3889835 10.478480827955726 13.454287967874317 13.863442232512233 0 0 0
957 85 5 0.0582835 12.012520228480525 13.172042555370963 12.550866380340949 0 0 0
952 85 4 -0.5800835 12.210211511905285 14.656426856851889 14.586003595622543 0 0 0
951 85 3 0.7551165 11.020280306186294 14.500107518228006 14.506410449897158 0 0 0
953 85 2 -0.3889835 10.105979541931363 15.337335497732353 15.064041568688777 0 0 0
954 85 1 0.1266165 10.609968264297274 16.49555526690117 15.787652403326831 0 0 0
958 85 5 0.0582835 11.150781283024012 17.152481078997962 15.06504070553108 0 0 0
960 85 5 0.0582835 11.404566070412223 16.17917341867046 16.434214908007355 0 0 0
959 85 5 0.0582835 9.872119952545027 17.136717796889755 16.25232422274864 0 0 0
523 49 5 0.0582835 11.96731771167938 13.85264188311514 17.275394279282054 0 0 0
524 49 5 0.0582835 11.924812348346421 13.314485586394737 18.938469541865746 0 0 0
525 49 5 0.0582835 13.428812464358078 13.966486471678882 18.260364173565733 0 0 0
176 18 2 -0.4048 11.378522230211615 16.258737575906434 20.771164779591228 0 0 0
975 89 6 1 14.222482406162063 14.823013583257532 14.770546240592804 0 0 0
991 96 8 1.32 8.43794470255764 17.6477811201846 12.74545689095466 0 0 0
171 18 1 0.0955 11.572870761638857 17.641749214162076 20.783998288961822 0 0 0
172 18 1 0.0955 10.725636616036859 18.197100556185223 19.766950829104903 0 0 0
180 18 5 0.0798 11.237921205230194 18.926224338502156 19.19817318239975 0 0 0
144 15 3 0.8478 0.27645391860545293 11.353706706114986 14.024714054124589 0 0 0
994 96 7 -0.58 8.005710341576586 17.501999268671526 14.124760386274486 0 0 0
178 18 5 0.0798 12.627897381915206 17.848961597338228 20.53783305374632 0 0 0
231 24 1 0.0955 13.772981868562544 19.849697526456175 17.735115065616398 0 -1 -1
532 50 4 -0.5800835 14.516702910478976 16.638807443619072 13.32270399654582 0 0 0
531 50 3 0.7551165 14.28388855703603 17.699587668349967 12.736841214994401 0 0 0
1003 98 7 -0.58 13.270069641580891 21.086069769132287 20.953077063882407 0 -1 -1
518 49 2 -0.3889835 13.039839986457935 11.998023775382796 17.615840466151415 0 0 0
238 24 5 0.0798 14.618441133683376 19.28004117446942 18.151934578003818 0 -1 -1
925 83 1 0.1266165 10.592749028991598 20.73183900068185 11.817046914026834 0 0 0
404 39 5 0.0582835 22.109787410091624 21.392444389215033 17.094899992635018 -1 0 -1
933 83 5 0.0582835 9.565854148075667 20.98050681611578 11.652642469936255 0 0 0
232 24 1 0.0955 14.281303771329025 21.034165018193313 17.02379262875187 0 -1 -1
248 25 5 0.0798 10.366518938315618 21.90500065183744 21.680901095271427 0 -1 -1
982 94 7 -0.58 14.289657657939877 16.575451967542925 18.56192731070071 0 0 0
475 45 5 0.0582835 14.758013596088837 15.464283795291623 22.489877323497687 0 0 0
845 76 2 -0.3889835 19.048119932658466 16.780806227250537 13.771134850697102 0 -1 0
271 28 1 0.0955 7.853131688689346 11.91553981113115 16.592778856715427 0 0 0
273 28 2 -0.4048 7.679238329331936 11.796757607112351 14.228893888465944 0 0 0
277 28 5 0.0798 8.702359330022514 11.99787783194588 17.30812584280261 0 0 0
398 39 2 -0.3889835 0.4854206417733447 22.611617293879583 18.138641968133925 0 0 -1
68 7 5 0.0798 13.195841892492735 12.94970988918498 21.5106167124378 0 0 -1
520 49 4 -0.5800835 14.065844778186369 13.016167637445214 15.917010619646643 0 0 0
3 1 2 -0.4048 9.71624287675794 22.66103320817023 15.480185123948301 0 -1 0
912 81 5 0.0582835 3.7186263155052837 20.94674354571959 16.84779674084043 1 -1 0
533 50 2 -0.3889835 13.370760634738621 17.785541093910684 11.691707949892303 0 0 0
983 94 7 -0.58 15.027856923700057 15.84516253666685 16.414392694442153 0 0 0
67 7 5 0.0798 14.446531527349702 11.992906158069166 21.968326178696532 0 0 -1
850 76 5 0.0582835 20.630238530485787 17.898562982649125 14.652147487237057 0 -1 0
825 74 5 0.0582835 4.410646759953095 11.52314366003009 18.4526119034056 0 0 0
61 7 1 0.0955 13.45328824895273 12.231150412928896 22.31513009818725 0 0 -1
770 70 2 -0.3889835 18.67607115955481 22.192075878345513 14.312071914987376 0 0 -1
585 54 5 0.0582835 20.008115713386065 11.571506020442632 20.078419128076806 0 0 -1
477 45 5 0.0582835 14.868226457550081 15.143207918149606 20.73415927314099 0 0 0
147 15 5 0.0798 0.03854648507519573 14.399216670283524 14.538021719588093 0 0 0
156 16 2 -0.4048 -0.024859447148535906 19.110771752528883 18.506130579410208 1 0 0
141 15 1 0.0955 22.740258846393356 13.518051319980547 13.939153844020174 -1 0 0
771 70 3 0.7551165 17.710848329186167 22.36615922677924 15.217972912766577 0 0 -1
4 1 3 0.8478 10.305934199692825 21.977398659444635 16.52156056941876 0 -1 0
469 45 1 0.1266165 15.158770412052366 15.798921066934575 21.496538002457605 0 0 0
154 16 3 0.8478 22.53899605980884 18.582424869754558 17.288886030451586 0 0 0
94 10 3 0.8478 20.272332884978905 20.052832797280505 20.42564711945032 -1 0 -1
5 1 4 -0.5484 11.034313660378563 22.551646055468318 17.306052367247116 0 -1 0
471 45 3 0.7551165 17.26030743846008 14.67329092771073 21.79622407550911 0 0 0
980 94 7 -0.58 16.33770225690586 15.244384680807432 18.263283210544028 0 0 0
1004 98 7 -0.58 15.558388183518398 20.752932737651157 20.744558285991115 0 -1 -1
239 24 5 0.0798 14.130033159339865 21.949546396213318 17.613000132981476 0 -1 -1
537 50 5 0.0582835 15.385716191789317 18.463853108915522 14.893704703577766 0 0 0
130 13 5 0.0798 16.460012951739916 20.59061615623066 11.389256158272305 0 0 0
530 50 2 -0.3889835 14.889184251315921 18.93532535172196 12.970628059201992 0 0 0
775 70 5 0.0582835 18.836696600679236 20.070365880427246 14.106374069293675 0 0 -1
397 39 1 0.1266165 22.331134529471843 22.41670968390924 17.250028294407123 -1 0 -1
143 15 2 -0.4048 21.973631233183593 11.422002065458612 14.519765394199736 -1 0 0
99 10 5 0.0798 18.641522957687354 19.352144944648813 17.84915217078619 -1 0 -1
495 47 3 0.7551165 16.851406242790567 13.690386429417483 13.374013364235768 0 0 0
98 10 5 0.0798 17.561242078807016 18.895795610294105 20.563878258805943 -1 0 -1
777 70 5 0.0582835 19.92326845025175 20.781802130018427 15.293328950909714 0 0 -1
473 45 2 -0.3889835 18.610632461008354 14.784222453279211 21.69023140805909 0 0 0
563 52 5 0.0582835 18.937200275416803 14.868472782612546 17.62139512936912 0 -1 0
97 10 5 0.0798 18.644491343549625 17.77562656740353 19.602645157501478 -1 0 -1
476 45 5 0.0582835 14.709695234463265 16.787820245513792 21.177360574038193 0 0 0
494 47 2 -0.3889835 17.891374847316975 13.300010254079876 14.075228495258028 0 0 0
478 45 5 0.0582835 18.99890413658562 12.670161701340474 21.598679311149034 0 0 0
470 45 2 -0.3889835 16.577009349053696 15.793010219925637 21.408094886229318 0 0 0
490 46 5 0.0582835 15.959957620726211 12.019663774924187 18.996562634509353 0 0 0
984 94 7 -0.58 16.30274650530698 17.396725132786205 17.54590089169673 0 0 0
100 10 5 0.0798 17.790267690393943 20.463805692470828 19.009534245008346 -1 0 -1
772 70 4 -0.5800835 17.428850741494 21.488277078381618 16.089657648313874 0 0 -1
491 46 5 0.0582835 17.36758686895012 11.70385694546602 18.085594301520963 0 0 0
842 76 2 -0.3889835 18.91337875366632 15.810414181776297 11.60058049230599 0 -1 0
493 47 1 0.1266165 17.70692953101472 13.46041957319062 15.562262013663185 0 0 0
500 47 5 0.0582835 18.64069180279114 13.221826006680887 16.084905161789507 0 0 0
562 52 5 0.0582835 20.070189405351755 16.0077213234783 18.153774349085516 0 -1 0
501 47 5 0.0582835 17.392594538567057 14.515181926492064 15.805195683186238 0 0 0
496 47 4 -0.5800835 15.865758848880022 14.13712364704079 13.926259888120843 0 0 0
497 47 2 -0.3889835 16.96740259981302 13.500166885173174 11.99563072566668 0 0 0
278 28 5 0.0798 6.931922860823109 11.50842116520445 17.08443569047231 0 0 0
499 47 5 0.0582835 16.875202787869494 12.820523385263801 15.836437427996032 0 0 0
148 15 5 0.0798 22.379972163817676 13.875600343580764 12.990511159675606 -1 0 0
852 76 5 0.0582835 20.261872495103496 16.289156227954766 15.489875365011423 0 -1 0
529 50 1 0.1266165 15.816063001902096 18.88141699823889 13.975085968250028 0 0 0
535 50 5 0.0582835 16.547115713216687 18.17516926458629 13.632586060105728 0 0 0
846 76 1 0.1266165 19.862032701764555 17.14155365781852 14.955833520616439 0 -1 0
96 10 2 -0.4048 19.592334678796828 19.0674685969571 20.873497696832963 -1 0 -1
91 10 1 0.0955 18.50448843551893 18.785551991288003 20.032683625564257 -1 0 -1
240 24 5 0.0798 15.398676013280227 20.81548763168315 16.984824838976742 0 -1 -1
536 50 5 0.0582835 16.28751242477805 19.785798082704417 13.974182139102835 0 0 0
95 10 4 -0.5484 21.248881518350398 20.56587737092442 20.953706757944623 -1 0 -1
564 52 5 0.0582835 19.138434500011133 15.125414679586333 19.266386422583807 0 -1 0
851 76 5 0.0582835 19.241487226136808 17.691767692637026 15.615268806468913 0 -1 0
981 94 8 1.32 15.467857091159315 16.26452832268605 17.775218785804643 0 0 0
150 15 5 0.0798 20.629107863949002 13.022682822960885 14.059853444498895 -1 0 0
769 70 1 0.1266165 19.422699333693334 20.93399782699832 14.326290506201655 0 0 -1
776 70 5 0.0582835 20.174499533201818 20.910655724243885 13.508139856645004 0 0 -1
844 76 4 -0.5800835 20.856353242331103 15.92113214756216 12.727061833116066 0 -1 0
142 15 1 0.0955 21.609541816586066 12.777412321835298 14.481210912677689 -1 0 0
155 16 4 -0.5484 21.766918779310096 19.07991348779733 16.477259578646898 0 0 0
93 10 2 -0.4048 19.79237722844855 20.569494106064365 19.228391675318576 -1 0 -1
558 52 1 0.1266165 19.72288536061213 15.010242229583126 18.39577526034581 0 -1 0
556 52 4 -0.5800835 21.7542505187162 15.403832032122619 19.964367949683275 0 -1 0
843 76 3 0.7551165 19.691089910999743 16.17106273932723 12.674904288818945 0 -1 0
557 52 2 -0.3889835 20.70193847883728 14.025058609579563 18.47137761343341 0 -1 0
92 10 1 0.0955 18.642197449320296 19.80481546859801 18.899276578965512 -1 0 -1
555 52 3 0.7551165 21.726983764867356 14.341160210643437 19.326141404300593 0 -1 0
534 50 1 0.1266165 12.712235671776668 16.552932946279626 11.332830154995577 0 0 0
479 45 5 0.0582835 20.41550220823722 13.724317360940136 22.171352559391877 0 0 0
502 47 5 0.0582835 15.49991295150497 14.875885262115462 11.520704214710719 0 0 0
230 23 5 0.0798 18.364360319440884 22.668422974943823 11.288597517917514 -1 -1 0
892 80 4 -0.5800835 5.647743012703871 14.273820714472949 11.285260676074238 0 0 0
191 20 1 0.0955 7.638642869785478 16.017100628742448 22.762761248398448 0 0 0

Velocities

712 -0.010788528124492679 -0.0002760565281730564 -0.0018368337970841738
973 -0.0006518618974265221 -0.006511480711364235 0.0017694864985511643
832 -0.006049393466491427 0.007415135996101606 0.0027153308104735947
831 0.0004373983479479828 -0.0007900720659507286 -0.0024295514813721247
986 -0.0004602187761569992 -0.0001013367112054941 0.0013137701555554753
967 -0.012827078005795607 -0.010244318897348914 0.025444051842379745
988 0.0028789447853984195 0.0014747231788212552 0.0009767287112448354
837 0.012521278532617707 0.032801028818049145 0.01002185186798862
987 -0.0009464719520641564 -0.008370367206346485 -0.0012909335556530166
830 -0.0004220728005365047 -0.004399998614085356 0.0008838534196610139
985 0.0010052522981591676 -0.008269761165889419 0.0023985766076904274
829 -0.00680601502697702 0.0067903816628534786 0.004167191907452093
835 -0.011342366469907997 0.025818113558200063 -0.005508389746365639
717 0.01215546973264471 0.002322417860660645 0.03239478005150113
836 -0.012379571536323675 0.008386225343899434 -0.01309003372782784
73 0.0002668539176065598 0.003297753028890496 -0.003027673975295501
74 0.0018843811224165015 0.0047271856346195245 0.00117989462663254
692 0.004999233198077044 0.006462483186856869 -0.006198161932230341
711 -0.00409103968843382 -0.004027150358840205 -0.0015507525800616932
863 -0.015946821293394826 0.0038621075219772167 0.0029880694680756515
862 -0.01045121871506638 -0.0022081213939677685 -0.0019890069207978874
864 -0.010140193192057655 0.0001834390704227168 0.02535360953200949
858 -0.005722830945634663 0.005374322681377223 -0.0003332139420802331
686 -0.000206433521609539 0.0008821236157046206 0.0054714185668447044
709 0.004132086513265868 0.005009851165276899 0.002205649714259761
716 -0.006724204570541018 0.02533637422899459 -0.004869520964899583
390 0.0026272731483729193 -0.0024167650887494093 -0.0017689547981684834
76 0.004048087060182252 0.0045531326497854265 0.008175795675957049
78 -0.0038801384725075444 0.01105141878243969 0.026788600683162186
71 0.00015026680765884044 -0.0017187019553073176 0.002927707911314128
715 0.015592949063539457 0.02023767339917779 -0.015618658577341866
713 0.001197476870020028 0.0014707423131904763 -0.002368584792263903
710 -0.0028922496858656806 -0.013406764120968678 0.010348802415937249
395 0.005478948102811623 0.024982865899603458 -0.008429180163132368
714 0.008141602038038223 0.005465390002052982 -0.006792042715906352
687 0.010188504159801036 -0.003766384218938784 0.0030959354918365044
72 0.0007455546485247137 -0.0009966534552771867 -0.004581237076722256
685 -0.0017320805082522992 -0.001305917679954912 -1.06521872176872e-05
693 0.005432848526117348 0.02005049191199719 0.027649396896108333
80 0.02039828910427715 -0.02460037203169768 -0.00020636507586775828
621 -0.005891485094392057 0.0071871425924923465 -0.03023261453331207
613 -0.002889724924889295 -0.0005793154663743143 0.0010164303690361192
989 -0.0017815101390127306 -0.002977755143982436 0.0020395015756198907
389 0.0018788427346837398 -0.006269939548652784 0.003041659979208892
205 0.004616151381859055 -0.0038784388406327246 0.006700648258398977
833 0.002992640374359311 -0.0037416324370302886 -0.0028949258505608757
718 0.0024592535160897393 0.013040171341175615 -0.029810168895555024
204 -0.0037985737545980156 0.005574890005594717 0.0005695796168336927
962 0.004481151761517017 0.0049209119581390525 -0.004171058789996073
396 -0.009464026581048375 -0.006686794537690302 -0.020446386666399592
333 0.018635513962484328 -0.006406484816602999 -0.02010079746694459
619 0.015725314174936594 -0.024174114629521903 0.0011346704434543635
75 -0.002050503975624541 0.0015676699000351112 0.003774370155342133
77 -0.00119957214437427 0.02639731971128714 0.02074001682006865
720 0.019812416293882994 0.01738957777427342 0.010569483478892628
206 -0.003802189442690559 0.004822007526920283 0.005687964028737662
79 0.008069781583472936 0.0006542104553252156 -0.002517067553439984
705 -0.005956893997563974 -0.02464944576665246 0.01949786429839868
620 0.011893380520734905 -0.0012616279313227528 -0.024017424774170074
801 -0.0031412240030629264 0.0007352560059918842 -0.018648688204192167
961 0.0014733428170962874 -0.0003582664621314913 -0.0043055647500066015
793 -0.0036686963472803923 0.00023157886950799634 0.006364309839014843
968 -0.007118490748176342 -0.0008524475173447338 -0.03973515497045404
800 -0.0009997465313537502 -0.0017338474382669927 -0.013051486902085898
969 -0.010693852682008323 -0.021086456932144726 0.0029081065808487993
688 0.005676094118733871 -0.0004950329686428286 0.007797661414681383
964 0.0001614945180318444 -0.003159681380141208 -0.0017437386330933146
963 0.004335847253358229 -0.0015142913032191096 8.243173246041483e-05
574 -0.009984359541552443 -0.007912931979369086 0.0045004813954210715
840 0.03573491981313865 0.013202189893512102 0.007983394944804448
834 0.00463360097118417 -0.00699837425140387 -0.003406461653175214
767 -0.009802744520141723 -0.0047991527383951255 0.018599260439584243
581 -0.004110263077112537 -0.006451173881887818 0.005575929266422587
125 0.0008292757992482505 0.00020450994083818713 0.0077467209633693855
308 0.032998989380726984 0.014039627290005106 -0.0031896573709598113
697 0.0022165423224613737 -0.003626776818824143 0.004526889083282389
719 0.008706649291950634 0.004855022365486702 -0.011311979941223358
332 0.0026834473357838003 0.025383200384414845 -0.00407904881297357
394 0.009384658800739836 0.007195880440278935 0.008011714325115233
827 -0.016287969094612033 -0.005126659744694987 0.0014802587256526828
428 0.0071209823413406256 0.016804290945770236 0.009507253800917664
207 -0.0011585651313799033 0.020638603375570982 -0.0239675252434538
689 0.0078075037588488435 0.0016921263674678237 0.005613198238740993
576 -0.027943865383238 0.026372582628082925 0.009600905281527902
703 0.01685275829826403 0.004962677361122956 0.003994802585036272
301 0.0025064318773782364 -0.009208472351595085 0.00692050026624788
822 -0.008382649373560225 -0.008057394869144691 -0.0011176080423399807
65 0.005068504834327844 -0.008186140278861625 -0.0009698016403641865
977 0.00434634552466014 0.0027563978818454203 -0.006403750969237631
748 -0.0025880572022795095 -0.004002876599091617 0.002176655111609422
857 0.0003865844415489561 -0.004250761515643105 -0.004363956771192171
749 0.0012600073946754566 0.0009493627950599986 0.001563148677227946
691 -0.017012322388954188 -0.012642469812721067 0.009067520038637566
929 -0.005096087994382508 0.0036523971733532796 -0.00043631047999467663
481 -0.004740932756236558 0.0004910771108074829 -0.0017614015606210855
325 -0.0029004969960569078 -9.158449502842789e-05 0.00354453598881153
201 -0.0030556796611689832 -0.0052284604874014845 -0.008860630093091713
934 -0.005590887393863533 -0.0028698685015701685 -0.03150734448388249
671 0.026118080886247987 -0.014739231127457468 -0.00536504221787419
286 0.0021847814350277562 0.002424827589859962 0.007962529343359587
387 0.002054482082108021 -0.0015766095540555743 -0.0016576696003506605
455 0.013584772881488998 0.007698011819243077 0.02384137668824681
37 0.02046961374223233 -0.007313945177061757 0.011453359646099892
285 -0.00432982364571978 0.009309840224294654 0.0018121427516736377
39 0.008763214355540137 -0.009972103935709575 0.00674005177944951
816 -0.0071941379222840406 -0.008932357243587149 0.009088487542186567
284 -0.005583221012673069 0.010622634707648305 0.0020375579484180166
208 0.03611458610202098 0.025946825472492677 0.0251684200452497
202 -0.012550150792307816 0.00834684312547047 0.0052981938036199445
815 -0.011412499012437563 0.014870793442858167 -0.005454018432646982
386 0.006282063843668429 0.0030307526472002928 0.005214962682399384
165 -0.0003873679103834095 0.000152310732149412 -0.003986918238936436
210 0.020152215663009163 -0.004377361574055415 -0.0004039351425840199
855 0.004763343488934815 -0.006001028432090445 -0.0012106868932555582
449 -0.002713869972278534 -0.005382927710783635 -0.005982657118617003
808 0.004475837535229794 0.0024419655185537116 0.0007287294389280129
32 -0.002429265705674367 -0.003750916934014276 0.00572720584289726
809 -3.509736247510228e-05 -0.007052090362832545 0.005309025388622065
814 0.005820632615389931 -0.014095847872593438 0.0028102930982120203
810 -3.79286293837779e-05 -0.0001947067318150857 0.000657235131885764
807 -0.0012987595236005863 -0.005932904166319921 0.003484463704825603
391 -0.006744135144851443 0.0009096955054277614 -0.0021736885049168436
392 -0.021405789193869297 -0.017179657345314115 0.016438500458710856
388 -0.0036991689067540187 -0.0014822758158935002 -0.010808128539529583
385 -0.0004591035878341432 -0.0063341583290019215 -0.0022301720462579956
861 0.008835488273594832 0.015826873028845917 0.006876181775166715
856 -0.004572095169398276 -0.00905842824609455 -0.0021774192608059926
357 0.010560018026733353 0.01609580585699422 -0.006644470580750343
853 -0.005372782286610919 -0.0018699220461951356 0.009679051828262168
854 0.003170473806834724 0.003385155307970052 0.003235454012500015
859 -0.02458451492555347 0.006532246552200584 0.009612506576028607
350 0.005238195888884158 -0.0008633176892323669 0.0033842154679842944
356 0.003156986749616398 -0.03571776506481048 0.00932083569474348
349 -0.0008962308520331013 0.0027985085963084994 -0.0030702271097146246
355 0.01517789313091782 0.013250320407834172 0.0010503651365259192
745 -0.001148803177868364 0.00043354159762085256 0.009857249311426359
393 -0.01628383790920432 -0.00946519680984321 -0.005889529212009919
860 0.023470255727909183 -0.010706329405022436 0.012432672051898436
31 -0.003306929176709981 0.0063002919271210826 0.0006885968281906362
36 -0.004165376731439532 0.0010163430572033088 0.004212134399943009
34 -0.0029028122766200197 -0.001657780472244958 0.0002365959556236816
669 -0.01392330519929251 -0.008024966415870997 0.003021711327929464
746 0.0010250552171076287 0.0015493376421952807 -0.0010959466244180793
935 -0.0039674579745137715 -0.024139470363263138 0.022803563617531625
663 0.0008163740502611798 0.0005066222783821139 -0.0049370535317678835
661 -0.00610299540367261 0.0013856546984144184 -0.006016807900003636
936 -0.0250525490635451 0.009353315381122084 -0.021694184388463766
930 0.0017059670177211495 0.0062212621638150145 0.0020717272741337884
33 0.008799763337010795 -0.003529391518148628 -0.0015826646588244183
662 -0.005175256733050307 -0.0012622562198498365 0.005301687490961859
752 -0.016441580860741416 0.008162147966137755 -0.001333080990689069
35 0.004191629040924406 0.0021797315169992423 -0.003519873524471133
665 -0.001715409268262601 -0.002194972146662055 -0.006787071436082472
668 0.027042257593329195 -0.007835182122211376 -0.007070963697778184
38 -0.005363317035521975 0.017671895550903472 0.022832558883834522
260 -0.00581566200467943 0.01644301013100321 -0.022747210955969537
753 0.0018207068498782802 0.015081052715280112 0.0026716350892187837
450 -0.0027724598477633514 -0.0025725444159563154 0.005292209231536072
751 0.00591203007221697 -0.003187812645598534 0.0011783831265581902
724 -0.004325926713166627 -0.002876564484180199 -0.0045501811445939075
40 -0.0185640660863915 0.00811885345152716 0.005886154694306747
667 -0.02256185422587042 0.030922078251692815 0.013641933446376936
806 -0.005906047226375541 0.0033492058230900866 0.0030688733388848487
456 -0.022527889790056863 -0.005136589369929967 -0.027552753865236916
49 0.0032070004688776227 0.02332291273822121 0.02553696785874236
203 0.00015350772369339465 1.7860300555127846e-05 -0.0007789841690763752
447 -0.004152330005814753 0.002342904185604401 0.00035152147833172366
256 -0.002688680091569377 0.0032942629751309426 8.82039221928745e-05
253 -0.008017290815455679 -0.0003854922452142503 0.0009874922318163317
978 -0.0021185839794891645 0.0011680681735700483 0.0008600354296389592
446 -0.0005213682915409194 0.001541531314446537 -0.002780986604859989
747 -0.005364888284984012 0.001190155793030518 0.001970994866073276
254 -0.0034672577089062684 -0.002260496506407584 0.0010479512192924482
252 0.005025612607722393 -0.00212690638842761 0.0012810930479673665
666 0.00035569692287134604 -0.003755333895333204 -0.0048336007146567795
258 0.00942863624922815 0.0019300399616571542 -0.011898946385644508
664 -0.0038318369731716656 1.0340424654114565e-05 -0.001037692620638616
670 -0.0026103404676558676 0.02074099691484156 0.019290987799917222
828 -0.03967157929556728 0.0006163462210808772 -0.0031164720012619674
381 0.02250976480997403 0.013145690161391688 0.029791000384479058
351 -0.00041705451992565226 -0.0010792529610404709 0.005361403846748613
487 -0.01612071895279626 -0.0063804612590601575 0.008500891139099102
83 -0.0007868614256104856 0.0006378295929879158 -0.002374106626205034
488 -0.026047447889448665 -0.003944392138600784 0.016946226963336218
89 0.004381874249369526 -0.024009547548029576 -0.0005696526376397027
866 0.008128304740939075 0.0034964189517955736 -0.003679793511033606
575 0.00866865940995803 -0.0003270592332130363 -0.005441272229947436
259 -0.0009516675581520391 -0.0024670299052543558 0.0038423068331031006
47 -0.02790534478181827 -0.00034800915089609123 -0.028483711367834876
421 -0.0013263975700768217 0.0027299675304179637 -0.004531402782599325
225 -0.0019232970811963119 -0.005251093968208728 -0.0036441328016142576
85 0.001825110913366487 0.005326425590904744 0.0018190825390383305
874 -0.0017529642191137771 0.00859026013894141 -0.007452948765838352
489 -0.0120995069134392 -0.021823927259757698 0.00231435781107085
700 -0.007642037363317071 0.005823584920561267 0.004860648326430657
970 -0.015017265232042604 0.004215477584763838 -0.014739033747096491
315 -0.002611557257373433 -0.002269109901415315 -0.003996234323988355
1006 0.00174555758190488 -0.0014282104187979183 -0.0005400126549212556
50 -0.013820369755304858 0.004540960844319073 0.013950191927197764
42 0.0010138760689893263 0.0025129189538864584 -0.0023705472457085453
224 0.008127625147118123 -0.003348455320497245 0.0013804405920121994
1009 0.0017855175568762057 0.004378614754364435 0.002764186809458709
324 0.019270274098033432 0.009403618371235978 0.017365314165801653
974 -0.004422332308611423 -0.005609341900380955 -0.0010567947635022994
838 0.01171780599867091 -0.010966878260139926 0.015351448679622579
309 -0.03783149000275615 0.0025785723305131103 0.0247250568671225
223 -0.0042345629181523075 0.006188346400199103 0.0030301200979258036
368 -0.010973644100921446 0.0031318546636434023 -0.00938044193237292
251 0.004273526033181967 0.0061261245975041175 0.0006708848311263751
587 0.0058444298378365735 -0.00805816648922618 -0.028037025691166298
226 -0.0010836513905072144 0.0003242507155667093 0.0011208811599609412
352 -0.0037096091599860977 0.003076766324793707 -0.004876474746359305
672 -0.00239485990559736 0.023421458117982158 -0.035112867498414704
369 0.00252191200359828 -0.002867741235045286 0.0017398032224370148
429 0.02481142456675396 -0.020040132292749337 -0.0014342721588475674
600 0.006973358088918084 -0.0050646105022372975 0.013301376606786064
582 0.003575544430875589 0.001525605343138573 -0.0006070693355303094
704 0.009048460002976787 0.014756572796418265 -0.03870049598776923
588 -0.0031799714587211567 0.024541279808716458 0.012722218766800828
965 -0.004175408172002692 0.0113510266310569 -0.0024295810577238215
875 0.009419643945994621 -0.0021352262121172947 0.006815207714720122
84 0.0003379414003095942 0.004629928079643342 -0.00035952067470631024
257 -0.0002810872380213138 -0.004827404070523097 -0.01019491109881647
43 -0.0003867295383865228 0.0016121163315124024 -0.0006353513470115733
46 0.006490376011609773 -0.0035318416870557456 0.002339310927776763
367 -0.005719256533552009 -0.006572788430257748 0.017323155172661468
972 0.011919637257095266 0.023327847100902785 0.009677695817690967
570 -0.0016458067361456688 -0.002564145133756679 -0.003212360295689166
868 -0.0027785890647247977 -0.0023927845210047205 0.005049692802919394
316 0.002653289399138444 0.0037724527630212164 -0.006183616564394669
362 0.0009216917230107386 -0.001149279112826081 -0.0006909942696079004
48 -0.024373689850428138 0.03701465242076823 -0.011004231566215114
45 -0.001596576003732871 -0.0018963827059536485 0.0034196782829173764
869 -0.0022047247244694535 0.002407949746646832 -0.00878808379303851
88 -0.009349627835787272 0.011106168201081462 -0.010245720056384936
82 0.003017242362768741 -0.00849250787878663 0.003543882054886794
44 0.0006328484821103433 -0.0019529326818970444 -0.0019423215076086824
363 -0.0005163666025167563 -0.0021242002295079033 0.0018061902615767514
15 0.0039477238924809956 0.0025321622229403542 -0.0013342605207751217
87 0.00445744114263741 0.001141307296955726 0.00234186376632194
86 0.001079608946305824 -0.006325160204104517 0.0013517397100676347
598 -0.006160776754897517 -0.0171861972265033 -0.011130590601459236
1005 -0.0033931082788713563 -0.0002547819194791391 -0.0029864237508709403
1008 0.00032301788762120434 0.0028835895404063414 0.001386977058043721
586 0.0024983294033358618 0.009760846939626226 0.03284725147495894
361 -0.014507544932263068 0.003719729689724629 -0.0035326275951508023
966 0.0110617681152593 -0.0023994551854904203 0.004443967487937217
1007 -0.0013639212328557142 -0.0009413562417011391 -0.003998881126635525
876 0.007533081043013899 -0.004088766220287125 0.017862165443529927
870 -0.003135426958684067 0.004072375905262807 0.0020935694442879315
364 -0.0014849917688423103 -0.00410195934978864 -0.003749573859097598
971 -0.0002053696978404542 0.024133221126882858 0.005576714556143192
81 -0.00042883182461674556 -0.003589342949060498 0.006213271065918289
41 -0.011626893786490185 -0.00041352293493342185 0.0018715533018326738
90 0.014588293035840662 0.0011605874593429695 0.021619281832884703
867 -0.007976114427637777 0.0018315890255974623 -0.005396073124060652
594 -0.004279745369193256 -0.006525753953973096 0.002979263964718707
599 -0.0221570421209937 0.020177491253801545 0.008049545796675973
659 0.040046767352680604 -0.018745577760079377 -0.00806956532997319
614 -0.0037189055540122968 -0.002401580921209465 -0.0016413956349460063
603 0.004662213626005135 0.0010585525946543676 -0.0020122029524690093
327 0.0008666720697502141 -0.004530826246498831 0.009651315119742983
795 -0.003813698124132496 0.0019081491550585808 0.00419012064178146
797 0.005641838502314937 0.0004027476862021593 -0.005597089073699415
796 0.004233963138504319 0.00011649028240668394 -0.0012097301850527951
798 0.0017254261608824176 0.007016623430321401 0.0015475288638527752
804 0.018357363613497844 -0.015688878147810004 0.025647150714715353
803 0.010164604494246603 -0.02609805747093068 -0.0019252847157470478
330 -0.0039056239312136014 0.0030767656102714336 -0.0008171776503463437
336 0.015100661972658079 -0.0005952045691019524 -0.01230917177805435
802 0.026588488372136995 -0.007077050991351733 0.0002115001004474263
976 0.0029891003025601004 0.007198749395455683 -0.012724575090378254
604 -0.00026079202529383314 -0.0027780328396011674 -0.001578047474603765
605 0.0012455264723019361 -0.0034463685349906733 0.0011131401592259886
1014 0.0032059431762271125 0.003852357762617238 -0.00478075948756031
606 0.0032242490102454514 1.2500739996522913e-05 -0.004749307275151679
612 0.006130947463261401 0.021770172540183846 0.020471640155504903
611 0.012889295678551939 -0.0011959448223111506 -0.012653503186477294
1011 -3.3421787692489526e-06 -0.002028611018055924 -0.0018519653036022138
602 0.0032735725604601225 -0.004342852488562236 -0.00048125706427255984
601 -0.0004894886880185314 0.010534866916444304 6.133084453336209e-05
924 0.01387573081206201 -0.010224471150606136 0.00401813958892619
406 -0.0100308056985883 -0.014953208414408024 -0.004521921046100519
407 -0.02309186710869307 0.015188060371795336 -0.006606808886817863
145 -0.0015275306486149153 -0.003488019695320797 -0.0050345382631514805
918 0.00923981545005384 0.005980710408416512 0.0005501365005375579
402 -0.0008785410421184371 -0.0002239583552052229 -0.0036314335751990094
408 -0.005504449078089403 -0.008629912407038282 -0.008083216067978655
169 -0.003309597160118918 -0.01698126088424058 0.007553964382458309
607 -0.010448329312892449 0.0006163577891074076 0.016142430545702507
401 -0.0037693638877580376 -0.003992868326982656 0.006065311862060335
334 -0.010676909461949873 -0.02667498850341106 0.03576025151354104
328 0.0008273373366969481 -0.0032024088145996455 4.067623094589659e-05
608 0.0018451301880069767 -0.0022914296924982673 -0.014013302263633882
1013 0.0019151031930863289 0.002788910209309107 -0.006129695958898776
1010 0.0025970283309100757 -0.004066230303968643 0.00497875048760633
329 -0.003977449459121639 -0.00045178887259170593 -0.0004354112785790534
170 0.02698086340327533 -0.02882393202026138 -0.012452101014581938
162 -0.000550475480411069 0.006833025042173596 0.0017606885484080178
335 -0.007442363188948147 -0.020172039956833955 -0.02173209864841753
52 -0.0004997485913870905 -9.580826235967783e-05 -0.0012536368688425273
60 0.019138975440432464 -0.007680487787592851 0.014464837438139944
923 0.022266485236388307 -0.023727022769649428 0.012473594267481772
615 -0.007857868177590877 0.003438831689560733 0.0020769359199296253
609 -0.019271295862544332 -0.020195898315428378 -0.027993964577011924
216 0.002493162635133087 -0.0036221430270305713 -0.004609811150854358
610 0.021967251049938557 0.016636722455630016 -0.0024347482839930483
839 0.027935555998797844 0.028376886816484873 -0.026394042601043593
922 -0.008160998270620763 -0.0037177660485031173 -0.0048207654733052364
820 -0.0010497644676533428 -0.001248228306671347 0.00291287235092338
58 0.01970122740015605 -0.009053275477224475 -0.0209532635561176
486 0.0071548926187355345 0.0031753301504561953 -0.0020013292740108917
167 0.00625199951690665 0.02280424990536406 0.014131003736508118
917 -0.0011889011057441275 -0.002307634262254866 -0.007524983678348155
399 0.001190528683173634 0.0008125166268653132 -0.0072271879757910195
916 -0.004435868365853155 0.00397312215345042 -0.00014676279230878904
915 0.005728846751508303 0.007077677362048952 -0.0048361131903220285
290 -0.016932607417348127 0.0022985245570411664 0.0018623390067720386
326 -0.0014372503621136686 0.004828381037589674 -0.0031732698831102015
635 0.009382665927900618 0.02328896667138792 0.012493993035593889
1012 -0.0018167642167947707 0.003932489377276098 -0.005453212632281751
448 0.004620942592672165 0.006113352964338016 0.005845837940666765
569 -0.004384412579171934 -0.0028019210605020545 -0.000985853959558461
636 -0.0004683325447018263 0.009005251568681778 -0.002590472814028389
452 0.003277758883892243 -0.014074279535010002 0.008278733880745102
799 -0.0031583675615813695 -0.006656294749727253 0.0008848105180029602
485 0.0070272163366555465 -0.0009966396816354893 -0.0012101025247726097
53 0.004541404648450591 0.0038840654050959463 -0.001640611178342618
59 0.019312856272947643 0.02774942232694214 0.011106938756616707
282 -0.004320268989211829 -0.0003419969159314169 0.0006007756454057484
289 -0.0009588432992440869 0.00520125259348783 0.00767916863741416
54 -0.0026234263613682043 -0.0015511187405496485 -0.005399093665361126
331 -0.005702113483272474 0.012635414260356106 -4.819158652949289e-05
794 0.0016332427985360045 -0.004225893145540138 0.003194203779446483
630 0.005487993426489654 0.007352706730371278 0.001929286180658358
678 0.001430313290084005 0.004960032334354604 0.006594464342630204
241 -0.0037090651918893426 0.006491619493881785 -0.0025236715626694704
568 -0.0003624469403914563 -0.00041643121425665537 0.003486949982196495
919 -0.021649298702555345 0.014196868729871527 -0.0006327342284243405
821 -0.0012421992319042096 0.0024058277452159984 0.0005846087525429951
634 0.005940638879482418 -0.010039425050235489 0.005701985035291577
302 -0.0036607744947286924 -0.004276944067093491 -0.000502381862274899
580 0.0006383718264421729 0.0013273051394524075 -0.009970677690212185
118 -0.017116340810631014 0.0069452334973659335 -0.007190908472113692
161 -0.004126430342472167 0.001062440874324725 0.008847475758999988
445 -0.0024655096976600897 -0.008793115949858214 0.0012457186185464745
1002 -0.0006619329728536467 -0.0013749847799404294 -0.004905086306482635
163 0.0010847234000350208 0.010136514493768236 -0.0027215906301106354
168 -0.031169267873055885 -0.014112034326982072 0.031142146181199294
451 -0.010765390675219989 -0.009289979484054614 0.02422581409070502
51 -0.0012877284397711966 0.002667691660838967 -0.0019981587079288595
214 0.0053261859760610954 0.0052046182213593625 -0.00262944260117978
211 0.0017767940542915508 -0.002899633927067941 -0.0033625705515583776
280 0.0163386363862783 0.0006947728387132566 -0.019973146171037622
245 0.0037128763463512445 -0.004147969124625296 -0.006181218405275117
819 -0.0005403884760307566 0.0014247631981847927 -0.0008258836043655265
219 0.021366416596006244 0.025229481630013505 -0.009865120004224803
246 -0.00409085316008961 0.0034801553569400352 -0.0028865955081431925
166 0.0013531838786484916 -0.00011812449884338906 -0.007316409195254642
57 -0.0042989525651099085 -0.02100210585484044 -0.007627211131601346
56 0.003129196808507948 -0.00045797567504886956 0.001563323300278859
134 -0.006170224957739336 0.006701443770349835 -0.0026277513556862597
55 -0.0002814978735835295 -0.0011839344682418073 -0.00024533573483075414
117 -0.005459258656772898 -0.017321695516803112 -0.0031765236360225026
213 0.009846161491499458 0.0038101683707494256 -0.007301796483595968
212 -0.007149595657930131 -0.0005549524674874129 -0.003967102628235606
244 -0.00273299635969765 -0.006871817968894448 0.0017979060780807317
242 -0.0021767747255070488 -0.002472735531490663 -0.003155278567990348
120 -0.007531464225243912 -0.014984730225724139 0.013005203797715565
541 0.003067215056502513 0.0024290075598617134 -0.010004612062045688
542 -0.0012902217790460924 0.0014234180862270523 0.0021500911686076155
545 0.003413119556573168 -0.0016715002617905073 -0.0008930636326936075
551 0.013075971432278743 0.00733790207792679 -0.018132308464025124
543 -0.0032516357297857766 -0.004232988485539957 -0.003915490111709585
546 3.639940821372822e-05 -0.004007388635102508 -0.0013330054431637376
552 0.007275397731667199 0.018421171120273253 0.01960148235947599
550 0.023759617459214465 0.010118798000026635 0.01993608414462892
544 0.0028246429681643573 0.005239329233356751 -0.003508155658201763
138 -0.00413763039819037 0.013710525274374752 0.0030185598674685515
441 -0.003164421688133075 -0.017820083972946172 -0.0096046401831013
131 -0.008231147258122956 -0.0003168182480829129 0.006590570567213979
436 -0.0011668961302519706 0.003992060795493067 0.006596828507488046
132 0.008234462005158694 -0.001757860783448939 -0.001126251425467293
137 0.006962131424527591 -0.01748353788175401 0.010889026954889063
140 0.02466403834870149 0.004581405696947334 0.021135205443118685
139 -0.01394596036462241 0.003471381777167357 -0.006452826274389194
112 -0.000895485389046688 -0.0030878290475485322 0.0015635004219165891
549 0.032141021067478605 -0.007182373218441951 -0.015304863345937761
119 -0.006916221002903172 0.0006035915722313839 -0.0047071428939953934
547 0.004081646462783082 -0.0174578458960561 0.003241719282664081
548 0.007587873648309494 -0.003910825376159388 0.0014991715856708756
113 -0.005155716680852814 -0.006020907403198535 -0.001702504492088945
442 0.02039512168774231 -0.007161525754697022 0.003959594461129937
435 -0.0017652153410191457 -0.0014631982966466668 0.0012955580932358392
438 -0.0005821243256122863 0.0023874438110207596 -0.004412564858130022
434 -0.0005568577841409004 -0.0023673396249661214 -0.004399225860711706
243 0.00316210475139903 0.00174186181029073 -0.0008349156611216506
437 -0.005469117084287662 0.000895207922661235 0.007176856060550985
111 -0.0006246908974700707 -0.0014786096686230158 0.0024155097809579022
114 0.007418263253508679 0.004909827362821415 0.004734169510918551
116 0.004608244636556158 0.0007862449836168918 0.0005060032561720993
433 -0.001218600491770938 -0.0005630211318148129 0.00032861487765756226
250 -0.011177507097201795 0.00041776250518516314 -0.014164893859528628
133 -0.007395996144562042 -0.008251186378416448 0.0005544282973651694
444 -0.0010998556630754533 0.0026961824658715346 -0.031765035972064676
443 0.007040932955641562 -0.031228139271760356 0.011115294302741404
218 0.0016863590403972104 0.034066322414049464 -0.011337183173322714
220 -0.029430206103971734 0.030245264601911837 -0.037705834066318035
136 0.003182524733732139 -0.004872459863621332 -0.0008112252123299539
453 -0.0008886252315814373 0.004409771935722821 -0.014185469193781667
115 -0.008248852958260326 0.002432046044888384 -0.0032825907801948824
440 0.01001948318729539 0.0028766102988443064 0.010827101312838929
521 0.0010483739358365775 0.004933535408151621 -0.00478288959124573
255 0.0016337650868636843 -0.006863118562981522 -0.00797902424223314
872 0.004288341270961801 -0.020858978831122685 0.009732842504422693
272 0.0035405197995413825 -0.004222408988894172 -0.0009496890561742754
135 0.011125937969726175 -0.0018396650885293654 0.0005719681254889518
217 0.000881205520567922 -0.018576614253159252 -0.00404447194834104
283 -0.0003712922328117271 0.0012047143703373937 0.004307369917355253
249 -0.011170716342767973 -0.013512798325287526 -0.026781831720297567
279 -0.012732264143783312 -0.00014525275677512597 -0.017640968511852644
164 0.0038107808773048505 0.011211751994510744 0.013807941378186436
522 -0.008877734167266182 0.0014849041816386317 0.005511742084661146
222 -0.006222469898187014 0.0003512656217697673 -0.0011530186737779792
400 0.0033880344273217755 -0.0032545835466153525 0.0019472142058235323
684 -0.01235276920617957 -0.013100127911769866 -0.01789025070691532
492 0.03566195918580415 0.010961577032645251 2.6465035355210335e-06
300 0.002235296279293305 0.004383127327448424 0.011587105570989218
439 -0.027019255210182166 -0.007244709749537686 -0.004301504158797909
295 -0.00016155095427411535 -0.004542813392858575 0.004359035016142395
579 0.0042871646974442 -0.00856654594358644 0.00038720432518849824
584 0.028646650966934875 -0.009108720227674472 0.04055364202458325
291 0.002929146896029185 -0.0025503735538311505 0.006208133007584411
299 0.009009088165437355 0.022084121896756223 0.01330482468736647
229 0.011780831456942314 -0.014967455223847154 0.0214306857867953
228 0.011567150409175532 -0.01141972444221255 -0.004472882284680359
376 -0.0004189040619567115 -0.0032763375847278866 0.0007384445106762193
292 -0.0013311763839657074 -0.0009059930891740734 0.008437368881642903
527 -0.0025443354028717763 0.013501300890952563 -0.004606443009856777
384 -0.031439664678604755 -0.019898023842403266 0.011928750676137773
378 0.008329312985750225 0.006244755393535844 0.0013056902253110163
913 0.007059714358564095 -0.004475037481513261 -0.0057801066968194165
430 0.027773740784027588 0.027390234530390287 -0.014008934787208346
865 0.003535438270531113 0.005281407044946829 0.010857844724146316
422 -0.00027730707686683567 -0.007619665814813538 -0.004753528090839854
424 0.0053925562736309605 0.0022119897869443766 -0.007355538334046805
920 -0.0019124519302478192 -0.004427150377804439 0.005628411335504659
297 0.012581137648317912 0.0018045892847016196 -0.018614901083962795
578 0.0020419184511937943 -0.0025550351809016667 -8.964462005047586e-05
572 -0.0018572638087315972 0.006196549518764524 0.016395131184077025
873 -0.0056672241028439705 0.007063752758745295 0.00135924307339383
296 2.5434015496065085e-05 -0.0027945622493268187 0.0010951677112626952
565 -0.0018514016053751332 0.0006881099805858458 -0.005288322142741972
294 0.005023138501331504 -0.007817900479056828 0.014796643893736116
293 0.0005399795940996594 -0.00020995387626889384 -0.005448859251097752
780 0.000780433943380464 -4.618589220077964e-05 -0.009146728794251291
675 -0.005089952702544257 -0.004418875140558599 0.006693742537003663
921 -0.02508569450785082 0.010862096331736706 0.00746580886612707
679 -0.007797144145528307 0.0006248009373197114 -0.03041088290088616
673 -0.0017743405582408497 -0.004553524428004154 -0.0027815793320654426
773 -0.0009772433619285393 0.005352013962980334 0.0011869473829112462
383 -0.02403933144290909 0.0017175177352957956 -0.0045130975776650414
482 -0.003382556235002834 0.003989937451257849 0.0064319389004509455
774 0.004337707436474738 0.0029409608742052844 -0.011727061902827567
319 0.011234106309310671 0.019415731156590354 0.010430541699600933
681 0.01149305425181066 0.006530872334082866 -0.020021600785271033
573 0.012774753472374318 0.01600150327529111 0.014288819071257848
676 0.003174162398448269 -0.0004494187854748433 0.001551578369864289
321 -0.015314955575531301 0.03084192388709248 0.01526166915635098
374 0.002883457882633408 -0.0023842803070951734 0.009451512292492116
484 -0.006078895197059535 0.00042151813551316033 -0.00024379268664154546
567 0.007691549014015111 0.00026376390857514413 0.006600393361336774
871 -0.014463777114472925 -0.015873453276495825 0.0022988702408906045
577 -0.005381613277732128 0.0048845224907594405 0.0008079929667122664
405 0.019635925164303524 -0.0048850117343847595 -0.02717851348777876
680 0.017374430374266503 -0.0062288967676447414 -0.013997810648424024
375 -0.0036846160364623543 0.001610214528921424 0.010485387133581868
914 0.0006514205389062312 0.003557395994505504 -0.0015200002789735277
571 -0.018772313434147914 -0.005736372042296112 -0.013999441099862609
320 -0.007847910734497799 -0.006895225949373447 -0.000214002960843404
674 0.0006661703274229911 -0.0027102957909979036 0.0030597537909120764
373 0.004924837386821194 0.0022534579374889866 -0.0013101363610923634
566 -0.0014143244074394843 0.0026883991119056277 0.001546712242172349
583 0.0364244251787846 0.008079815997208079 0.0008584155831803438
778 0.02933405639677731 -0.004737897311836325 -0.000307690699965213
779 -0.03994382652903183 0.024896625024659363 0.011840686713581159
682 0.0023439561254825956 -0.006979299852599529 -9.792552067194264e-06
677 -0.0006761469156278679 0.006345542818461081 0.0031737959390311914
221 0.008953535281908754 -0.0004638246472041088 0.00025802677472910217
617 -0.0006925195740094929 0.006945382369049583 0.004247144975665906
379 -0.00011394004405282642 -0.014496403686476035 0.01998544364962884
313 0.002558361879984177 0.0006854491114604458 0.004754873167518266
377 0.0022270518842891535 0.0006757239932689912 -0.002735768117059173
483 0.0019959128805723952 -0.0026588595488837023 0.004488463683492418
432 -0.040062586347026884 -0.011305179074483179 0.010565053191123549
431 -0.002047599098316374 -0.002546698992638241 0.0061481313116628815
227 0.006982091942740126 0.0038841485174600176 0.018599876057951503
426 0.0077177254583144315 -0.005313692988957596 -0.002378526316603572
425 0.001545230656080292 -0.0015523430257185266 0.006478364110842892
423 0.001388860962894238 -0.0031177687634019423 -0.0010472886898280158
314 -0.004015746841307366 -0.0007066987931191747 -0.006503946738872366
526 -0.030752026828757884 0.007750108612115111 -0.012737026657226248
528 0.0005054562419491843 0.009056914085005514 0.0005644412740162643
281 0.0012340389976886325 -0.007994831726972483 0.006989871470158101
288 0.013569220356350775 0.001235339003400348 -0.01382660291529906
287 0.007948799201522617 0.024954218905446524 0.009930402928418321
215 -0.00930114662906774 0.0027667324460775335 0.0040475828704482275
298 -0.027272600742437553 -0.010680793746632482 0.0009720156322795231
826 -0.02023467479937722 0.00018808257530855406 -0.020847777725328018
382 0.011749700677594989 0.04199186197738557 0.007472383836093656
403 0.0008526174253203843 0.012951020839493411 -0.02194120721853229
427 -0.018542936690726885 0.027651452067639352 0.016537119461296237
380 0.022052051656726038 0.026677253132530065 -0.005575571524992888
898 -0.0046829305684760346 0.014819098806264707 0.009554402327699057
261 0.01725768630703057 -0.0018617670511094232 0.006724335067480798
270 -0.021484803510879516 0.004176401698466053 -0.013914239831214521
266 -0.0025285523149922735 0.005523083975554329 -0.00023692270415966323
340 0.0022764948314548633 -0.0003105683245885748 0.0006917023849567297
262 -0.000496151750249833 -0.0007735957080384459 0.0067912321403699565
264 0.0023214642935703777 -0.006104900462265994 0.0020075896223308754
268 -0.01630438835401196 0.02991631936979314 0.010302487511151384
267 -0.018325065385924034 0.01450244057123053 0.0020814727878294974
269 0.014253634822896126 -0.02074302440876946 0.018334106070577786
339 -0.005831418088706131 0.006066375051077004 -0.0015119229683300886
23 0.00019096833632743592 0.002271679073287159 -0.0012974650321435964
24 -0.0020480977854682985 -0.0038205001221177865 0.006589798534913318
338 -0.0006915544478595298 0.0013667854378525664 -0.0011181558705152935
341 0.0001531811818849477 0.004478509831595285 -0.004755138353880198
22 -0.001843328958556633 -0.002135332483509506 0.005150054398076204
29 -0.0159262337594547 0.003773057669188974 0.03325038488349898
342 -0.0025481953025422153 -0.00034007060168187136 0.0010972190376399846
30 -0.005698295173940521 0.008488229585525704 -0.00038680026454732293
346 -0.005503349174801088 -0.00040095184817275087 0.004830535385869103
25 0.00040005405843747155 -0.001612622967438686 -0.0016561619749474068
21 0.0032129382911614255 -0.0014480778051505331 -0.008040677657455706
27 0.002985181025450348 0.013396411916249618 -0.017339498117792344
26 -0.0048592961506643785 -0.0005203541895201231 0.001459927905701353
512 0.011236572233219477 0.016429433004724135 0.004801958391331777
505 -0.0024755561189827753 -0.0006995349833380317 0.004932856103195904
348 -0.016470351009026295 -0.03581196623160195 0.01899739524956037
513 0.003319547378244381 -0.010527075034999195 -0.029780275082810143
511 -0.003741439681709445 0.02286387578892562 0.0015609774598730826
347 0.009812077032529298 0.011168122062995868 -0.014493606016987215
940 -0.00032663985774516774 -0.0019205803500360297 0.002569017535486698
945 0.00039176633956440496 0.03620631757955781 -0.013519892396471328
937 -0.0003141129173647962 0.0030904319997870056 0.006746377206100416
893 -0.002320218976823695 0.005301670236588882 -0.0012596688204109263
616 0.0012434455506179034 -0.00182998324179878 -0.0045310252346472055
654 0.00024670478797390763 -0.0030699483426856336 0.005692471865921568
658 -0.0013342828939333837 0.017691568473408067 -0.011366790290695096
695 -0.02225935923929231 -0.0007366068449298738 -0.009547505181204908
887 0.00046484105148714453 0.006258054183824441 -0.03316401595487163
651 0.0018784445953717404 0.0037787350920604804 -0.00032029458516235655
653 -0.0007055416931177986 0.0005699997834140895 0.008292575972884055
882 -0.002652972088906916 0.0005572171995939126 -0.0051642888696561496
879 0.001721047848449265 -0.0046293976285824625 -0.002976365619318356
939 -0.006574428550152794 -0.0025725920417372593 -0.0010483043521515535
948 0.008051100909073763 -0.02665656688236823 0.025706359376437338
886 0.006416556605821045 -0.014972265313814811 -0.001945788050720977
694 -0.013279000610555484 -0.0441960113628087 0.0048754000602817486
650 0.0009897801483315916 -0.0009115030512861596 0.0028863276800683317
881 0.003308006574492921 -0.003936417730562557 0.005501287294172199
690 0.005303328657773438 0.0018649409451016402 0.003823195742462808
337 0.00019523694795594247 -0.0007166140324197709 0.006117126858636985
345 0.011501354706384446 -0.012867587803343915 -0.020063512340725228
122 0.002478485391271124 -5.650278971270294e-06 -0.0009611985119804431
189 -0.011991487431306885 -0.01596373329172849 0.01778706506989794
190 -0.018095445086997283 -0.007712974536709433 -0.007115203063565712
943 -0.03901061759209695 -0.0029593949604776906 -0.012690863714506773
888 0.005519259589822053 0.0014131705747024274 0.0015850925375923558
891 0.0032666472163849747 -0.0028849757719118653 0.004334897576750783
506 0.00023214113705757774 0.0025429425057059366 0.0004629241543307866
183 0.00514828215944274 -0.004305504973636059 0.0003006333620703133
182 -0.0007609324104804737 -0.004814585586281705 -0.009749145818834664
944 -0.008712448218891191 0.0053978916375531545 -0.003048854503937872
938 -0.0037880657970887984 -0.00387241978189088 -0.000371276044399411
880 0.00033052166073755036 0.002349361493461533 -0.0002767564254952887
595 0.00775657458411263 -0.007923331316967402 -0.00042893500629871554
454 -0.0385813509240908 0.01653269824106421 0.0013226699190034864
199 0.004843274986287499 0.00617929880358522 0.004228635559852762
763 -0.008501527544430634 0.016159849709779454 0.008804450874227349
731 -0.003628816527716612 -0.004569779328208174 0.015838561914076957
725 0.0014236225921697863 -0.0025336842901474525 -0.0019859780260115863
726 -0.00528909039326671 -0.003084059573868801 0.0026919148057806992
343 -0.013440899836649808 0.0010668685185034196 0.02069028755209401
762 0.005192554779218868 -0.0020072755605917577 -0.0005259992891425929
304 -0.008269210362092555 0.002968097900967674 -0.0031552976111424392
894 -0.0005622028559727748 0.008190892973123557 0.006239842727543162
766 -0.028996900373714142 0.0021674308019692984 -0.007463692895507282
750 0.0011359280348596837 -0.0012915017571759294 -0.005408626818098344
732 0.03080902636476225 -0.026794100453747315 0.014920154352890973
698 -0.012145075995788518 0.0011137356804023018 0.0020875782447180302
649 0.005989487968402146 -0.007762027252795892 -0.001125120403207297
657 -0.00986732745145714 -0.0011531647726986758 0.021654193236489695
656 0.029681513422521948 -0.014356829623116286 -0.026589958265192143
28 0.017517853859148044 0.0040229426555889874 0.017625428849048618
899 -0.01628490240332509 -0.013142312880955487 0.015892497960429283
247 0.005646594656507807 -0.010003403035960957 -0.007418464966791945
263 -0.0007466944789328474 -0.0029996080149294474 -0.0034986822665705212
14 -8.046083504458694e-05 -0.0029222715859035797 0.002435915870964134
928 0.0002595678010562822 -0.002128704794952246 0.006438047208580875
209 -0.019639607689998274 0.020022638439903536 -0.016052953246467272
931 0.001824420164055188 0.02221556423393918 -0.027683689663438905
696 -0.020910825968464893 -0.0036592487157037445 -0.014348397416936073
927 -0.006056687125495951 0.0011649608160218012 -0.006232886204158829
754 0.020046572168741204 -0.022356001479152583 -0.007320427916605937
194 -0.0009462984543626449 0.0008448548731016872 0.00023042284306235103
889 0.0026046187670008647 0.001675573659186586 -0.004598815002602666
128 -0.0004710400978783097 0.005675829780008114 -0.00985091791071559
192 -0.002233309159077217 -0.005229103624724994 0.0014302248268399285
200 0.007084693462062822 -7.447788740521364e-05 -0.0009676349447633975
193 0.0005241130570806145 -0.0024496675437514276 0.0036299947358922864
812 -0.01899125675148276 -0.007216265925564907 -0.008115886984345878
755 0.01265230597025371 0.026699226777367618 0.001894266472285716
811 -0.0005440252531136293 -0.004330057945021555 -0.020268534880639413
69 0.0029587791660430542 0.004877206515244735 0.009837043813511288
121 -0.0030885193918153216 0.00703160735458239 -0.0032750549644626663
344 0.0029351145530413206 -0.015356242536039478 -0.009942778753617345
730 0.0211121092301413 -0.0008577812860807972 0.03349022721281152
354 0.006862454081345647 -0.005282401910554783 0.003267793483406081
359 0.004953930765893972 -0.024217505037058214 0.009839731580730647
998 -0.0018926695197959962 -0.0007338960462521997 0.0014260523477936124
999 0.003553629994803898 0.005437466696564463 -0.002205321719821501
418 -0.017218545944998026 -0.011958400632304711 0.008155943266184256
419 -0.033954925439176296 0.005416157196471283 0.006222862193633514
414 -0.0011279150010657778 -0.0030444349108190963 -0.0061054738529159255
420 -0.0168970087461377 0.018404909599547145 0.0011444912918037653
413 -0.004031858711803134 0.003468579504678869 0.0016969650159316596
412 0.00047833465358719675 0.0014468295480026274 0.001366186779062329
411 3.070376916171748e-05 0.008611243754881044 -0.004649350153166468
516 0.006981487776858007 -0.011358359583646147 -0.008577471160535807
515 0.013261795045708394 0.020821356465019855 0.01784296428448806
514 0.03599616849019677 0.012100215587021724 0.004133940629720561
510 -9.606666501326777e-05 0.0006395995452781576 0.002351687378286423
410 -0.004725091018352021 0.0008266499069099769 0.0025895264572591134
996 0.003380515394702224 -0.0007073943204803074 0.003467750470698656
186 -0.000990374094631265 -0.004078835081194454 -0.004468569243927833
187 0.03716046627414386 0.006525384490316331 0.022385231938061512
509 0.008682350701993536 -0.004527523486158455 -0.0023943145525727695
188 -0.0030023982496902384 0.02879047946857467 0.013465946838487366
507 -0.005318852811365831 -0.00036053692285967914 0.0014403710900301537
181 0.0005136712958153117 0.0027073020760068327 -0.007732136967609644
185 0.005265780644493216 0.001294990139878085 -0.0029784678261246147
184 0.006452266075858227 0.0021843043307634602 -0.004800803059665465
508 0.005731393453467436 -0.0014129124306798732 0.001094818937424194
358 -0.0011750473553841278 0.010975740890004897 -0.03260189964595445
995 -0.0006202717452760327 -0.0006396033294375695 -0.002993921428971148
997 0.0001236073059546251 0.00015847200207406704 0.0005331340243523042
360 0.02463199833598811 -0.009642263776487423 0.017323489394156517
126 0.0038660885790476242 0.00240087810878045 0.006091985577660767
805 -0.0002224628072710422 -0.002132192110362899 0.00021540429808230562
813 -0.029150459015723884 0.03483082987562752 0.01831339111202404
63 0.002536186347607529 -0.007859733766568323 0.0032997654037184836
539 0.01553766717477472 0.020840481660625045 -0.015882242312675113
890 -0.002087193487114614 0.0015058541620359225 0.0027322096866551956
195 -0.003034324160168556 0.0030303665787332983 -0.004411625605792068
409 0.001958399063809708 0.004878075626818904 -0.0068407965156080325
417 0.004685574997655885 -0.02152487791839311 -0.0021129164778707606
480 0.005963711884442051 0.028161658179889075 -0.014395931453286078
540 0.008783195871454381 0.004272854111723883 0.02085874728094499
896 0.015137015316235312 -0.01571525126172722 -0.01820585282532813
64 0.003442942862248247 0.003279181865359262 -0.00035163017235787354
463 0.005905782005095086 -0.011555754466051471 -0.03996667099672071
353 0.0011137797931571806 -0.002646483222232736 -0.0029459103866053007
62 0.00019053199481497884 0.000917484710155219 0.0010949945158132642
124 0.0033861518038550264 0.006720187964874539 0.003922110057779853
123 0.002328722812780401 0.0038846773178466284 0.0009161455434362951
791 0.012467594546035295 0.021741301689779075 -0.014510015955739355
897 0.004943950143109969 -0.008518387517812757 0.012662682929031437
756 -0.0030751975779912378 -0.006542980477610362 -0.007464672459033532
597 0.011307997586734406 -0.003369281922427389 -0.005118854065363335
768 0.0280965912474457 -0.010252541135314914 -0.005905146061583847
127 -0.00036175621685041043 0.009988470222955754 -0.0007734240621058716
16 -0.0006102589589362272 -0.0010295716855291215 0.003031446118084874
757 -0.0059147953881184216 0.003967610346793442 0.0019614292226537355
17 -0.014916678036651303 0.008405965352148694 0.010871120608335293
372 0.0009832555191074976 0.02516013426669836 0.019041924101136726
841 0.004011366149939901 0.0026078632914113445 -0.0018911320280025246
660 -0.0012096250642294817 0.01950897314455441 -0.008371965982694931
761 -0.007299536733659192 -0.0005180225128607778 -0.0027253797473953153
734 -0.000747328707527457 -0.005907384251036158 0.004615161551369788
760 -0.0027800653887096204 0.0038294783511135036 0.0015662142049741776
702 -0.006089401815350824 -0.0037246062269218603 0.009296475934366447
589 -0.0006283618516230643 0.0010066776133576428 0.0033785035382866858
788 -0.017237251891718573 0.014672325399167121 0.008230123140522731
847 -0.014443084909346463 -0.005419828733513282 -0.016857282705768785
781 -0.012918184327206893 -0.007852050890274916 -0.0037707511310601724
370 -0.00830214956447057 0.00863450448099161 -0.0025141839256658605
765 0.011955185987204579 -0.025394462760596488 -0.027135101018595495
592 -0.00132020072661557 -0.006966251181241913 -0.0077301666183981314
498 0.00613999218091717 0.00407667020975866 -0.002095043069950238
742 0.014292126913672692 0.023426438494313077 -0.01196832031720377
416 -0.004225905877125942 0.018624514339946642 -0.024217915989450143
464 0.009225787381383365 -0.0016707435537604383 -0.003994999755584456
457 0.002215521185141977 -0.005765892711020591 -0.0005625487240840485
465 0.0184350513868384 -0.0170848960987778 0.04010740783949686
738 -0.003601681274665253 0.0009087898670263265 -0.0042411838715346655
743 0.023886588296167327 -0.0007387591321572689 -0.0019394022180114119
460 -0.0014902930511746558 0.004347069970167886 0.0008343108296089849
741 0.006809020401929638 0.0008769690046487961 -0.019536058003043998
503 -0.013105274994812772 0.010435230733896156 0.008684204910985465
591 0.002996517973381214 -0.001560091882848343 0.0036338222123981647
467 0.04595599506941306 0.011733971298176436 -0.022872179052616803
365 -0.0006015332189761916 0.011143016835170869 0.0034401085124144606
13 0.005113007648566856 0.00376656748830894 0.0012808335945669331
849 0.03177413258142738 0.0018793347630544144 -0.02043981627214802
739 0.01746410122521606 -0.01074271952436085 -0.003746893396320803
19 0.00616215819217607 0.005910012683327788 -0.015084393966956662
366 0.0011914147604643432 -0.0018006739495380968 -0.004670111735749868
784 0.0015102048833770044 -0.0007269667062442715 -0.0012036462976272144
322 -0.01543266749891571 0.005515567372348366 -0.0087887936515838
371 0.013302981007163515 0.01339728473017572 -0.005402420148100872
786 0.010369200278551434 -0.00513333129112829 -0.00417742094202789
790 -0.017195913725152206 -0.0003982387250555943 0.0011010233870354163
792 0.008232230847742031 0.0004281633373848697 0.011808294360094868
735 -0.007905899162315965 -0.007133152358166288 -0.00421973748423908
593 -0.0016390294622458078 0.003308283407923153 0.0009238511772311706
652 0.00235930512483443 0.00239735416913572 -0.0031977639347174984
942 0.003318727212785072 -0.0031828181395268836 0.004420551513829256
459 -0.003366716744293596 -0.0024654079014243386 -0.004326144399362613
941 -0.0008526752992686197 0.0032642272551356532 -0.006477427046288906
946 -0.01045342270297928 0.012004935130830877 0.026263619184073078
787 0.021056014652186362 -0.011299023847929877 0.0022180450351613175
458 -0.00343667893844875 -0.0006082820623824452 0.00028631692074897636
744 -0.0032031446060166208 -0.021102699215116528 0.002120036009036661
20 -0.002453495571193265 -0.02560984670620659 0.010922789094538886
759 -0.009186414857494158 -0.0019225859612298766 -0.008654280653875088
785 0.004191375848191786 -0.002240766871671766 0.002519660606010659
706 0.004926336902501827 -0.017316476639962976 -0.014672624372892486
782 -0.0036255291096325584 -0.004616751321823886 -0.003618473561562023
699 0.0024970687010711927 0.002383061006830481 -5.9165352104204646e-05
655 -0.019614020016417346 0.031079009772589216 0.0022219622199223525
596 0.007268604647396556 0.001491588021096499 -0.012634894268274586
947 0.009982950038621274 0.01871774206482477 0.01424874260333012
317 0.004162445295384055 0.0020314937083865084 0.001758408926384074
740 -0.03059330701896487 -0.012746274216523919 -0.011081090543528162
733 0.003636154084295223 0.002222270598788297 -0.0015861098370204287
318 0.0010704461106577439 0.007151410885818714 0.0014383269982885818
415 -0.03895617165828062 -0.013879692430811693 0.005271940656412146
708 -0.03335944500191445 0.00022451289086756945 0.016301796132420616
323 -0.016389844189201874 -0.003469404396514673 0.008851738545732079
18 -0.00027832201863104995 -0.00920844280323552 0.0017524181407512058
783 -0.001979382029312502 0.0064187522408092204 0.002380049550324835
737 0.002532196385580742 -0.004083768380041381 -0.004162624370949054
707 0.01105950823039079 -0.004210423350219934 0.01780913271029149
789 -0.020958133558528953 0.018919684408392975 0.03004635541150086
468 0.0061093749961731916 -0.0003916706042073749 0.0004407072380117182
466 -0.008678798819004144 -0.01954961498353936 0.01879645653627251
462 -0.007894499375321672 0.0019187868244289533 0.004974201002085837
461 0.0011953599296663149 -0.0031139393961204485 0.0027221407368472877
701 0.004744559528592144 -0.0017091898755049726 -0.0007031297926890419
736 0.0013779627906460726 -0.0032331838023799886 0.0027015769293674777
11 0.0034383036970226095 -0.00383251345392916 -0.0040983465322593175
12 -0.005133040881320571 -0.0007889265264783416 0.004273623333649156
848 0.0006669278635100667 -0.02812921902574535 -0.014705501264098829
590 0.0017514886294155351 0.0010483869421562496 0.0033414086273304095
758 -0.000509382698607633 0.0021610105857496737 0.00046884529156445017
883 0.024515029130775752 -0.008938506259183389 0.015743246007902726
198 -0.031889061279584546 -0.0267900622619515 -0.019668384866871884
1000 -0.001938089730879071 -0.0026905453736658716 0.00026696974539813936
723 0.002726052470199408 -0.0037676501916676765 -0.002589867243955498
70 -0.01800287380274758 0.0077652621309685236 0.02281414540257707
307 0.002113935681853051 0.023898088652023766 -0.009278594498840276
764 -0.003033862637099618 0.009383186920650889 -0.02652562516313009
639 0.0041924073496257715 -0.002873630600860367 -0.005074716313283469
638 -0.0009537265098550426 0.0001446307190598332 -0.001731848320118862
640 -0.0014096558550644209 -0.005025724323883215 -0.004310493450297868
641 -0.0030405037661991765 0.0025339002039054277 3.6893566933315066e-05
642 -0.001074686509229888 -0.0035270354618759875 0.0012239615790040927
647 -0.014939737865406826 0.0006036710689160812 0.012984289576041405
648 -0.0047366429396186556 0.01005919986907293 0.00303401480001669
104 0.007505887664127431 -0.005096705179470975 -0.002320373912960641
105 -0.0016754262096073046 0.0017946253762014606 -0.0006843925935855663
151 0.010417349075053137 -0.005607926377966689 -0.00585395513718642
637 0.0006077136159195959 0.00814790463691266 0.00396649110197484
643 0.03786406694304689 0.007956049887419924 -0.007834119209535313
644 -8.48935579518042e-05 0.007785255103145821 0.016124347008054936
645 0.010978994942387939 -0.008178003827876866 0.005914511290653042
646 -0.02645412329064186 0.01032442217115197 0.008893807041904907
106 0.0008756884017099933 0.0005235852663878354 5.353212381498432e-05
623 -0.002415064023683912 -0.006121678698641255 0.020646927420477686
979 0.008142281018047277 -0.0009141317169526253 -0.007000206508006709
625 0.009575560582543104 0.00038504228643294804 -0.003677699893821982
626 0.003316295328050594 0.00861413463743721 -0.002374783294592309
627 0.004537960146005184 0.004146214643229661 -0.002014934586485951
157 0.018990994846323134 -0.0006490004400050908 -0.01669975828465648
152 -0.000817192047257703 -0.011429553143182381 -0.0010802255199435112
903 -0.003087041953812701 0.00467379931742881 0.004918397466941235
160 -0.0069859201042416245 0.0008850118724771541 -0.0003405453070005869
159 0.005775419755555144 -0.016903175735081478 -0.015471949681696292
306 2.4767290942782943e-05 -0.010368927923432903 -0.0032647782390626177
902 0.002098547098159766 -0.007165187953286907 -0.00735761010271471
312 -0.028539226394625354 -0.0020185067304570987 0.0021222680622231976
103 -0.0010522079679574064 0.0035967763640358096 0.0012503287989867966
275 0.009849583002884788 -0.00013821037138874408 0.006259702723074855
158 -0.019378935205671723 -0.0030564493687017646 0.00013450227676028818
905 0.0044192402432604045 -0.0022753782688897583 0.0012545490184186772
305 -0.002963318299325151 0.003118658569782381 0.0014250908375754098
310 0.021376182410656145 -0.000541676381572106 0.008952710571185834
274 -0.001235540252050101 -0.0006590183145539901 0.0027979043382026043
276 -0.003920073255607002 -0.00746250883856367 0.00410907131756455
901 -0.005133935083456606 -0.00718593634735251 -0.007901301859876104
990 0.0035398447266984817 -0.007605838418116518 -0.005366706487446105
908 -0.01941325335324555 0.034883988460014115 0.004000117370704574
303 -0.002236627822312062 0.0017921518895127764 -0.0038023621834507118
628 -0.003217407352082785 -0.0012044642481575814 -0.0006181499691168947
631 -0.014899978388380487 -0.010717770956641046 -0.000661103806125044
629 -0.004620872582186352 -0.0017828845194483493 -0.0013197394438277865
911 0.028362730713488497 0.0051943047712224985 0.017166882127938224
632 0.010578832495013579 0.010465060432271647 -0.011639906215701662
618 0.004468577417092206 0.0005893127835636913 0.0012200651016138256
146 0.0007372562061351948 -0.002120120893043271 0.0027761563191385464
906 -0.000305008596585559 0.005348401580599874 0.0030392638133997607
904 -0.007742841877218718 0.002843559137822034 -0.0021336040070924433
153 -0.0014084942210930256 -0.007362810191415222 -0.006435276129619005
149 -0.006025065076157188 0.027229083168399594 0.011715332125453204
560 -0.013316027897821874 -0.0013276581654302448 -0.0047057680265346
992 -0.003923142799567102 -0.006107564682716764 -0.00335205493461756
101 0.005441839715214966 0.0054227460481447096 0.005099199969998729
885 -0.0009765082043534214 0.003002254298727245 -0.00938670168665354
910 -0.020281043955183403 -0.013566724426639318 -0.013729623847243697
561 -0.0012641502681210782 0.010746823247753945 -0.005038469872040921
472 0.0014565939076865604 0.0004867809572199946 0.0002564631598634276
553 -0.015989255736819637 -0.00887186642953522 0.0007075103943201335
554 -0.003875876235873278 0.005367356590454656 0.0003917505062244136
956 0.017538283799114273 -0.002310788213416388 -0.006841668913023915
474 -0.002027456300011917 -0.006300591975691056 -0.0014116798677141697
102 -0.003790843140951538 -0.0003717975644615705 -0.004091139497609467
110 0.003203944115423941 -0.016091502021810145 0.011641280210166088
109 -0.0075128272174292 -0.01973935746059822 0.022601605235780847
504 -0.022029108600733125 0.012288950482754479 0.01479901454889571
823 -0.014098935445651346 0.023240178534049714 0.0002580401570102986
633 0.016716390092921356 -0.0031548085717985792 -0.009239939143354038
559 -0.0027081360848925234 0.04035330760333092 0.00011673415148524542
884 0.013860429864513427 -0.013923849216003006 0.030993674248569338
265 -0.003973558939668619 -0.0021553264893048063 -0.0053929106707715875
895 -0.007197814700745525 0.012400128442650355 0.0008027970020740086
877 0.0020102023511662935 0.0025232423399115683 0.0004210509570450416
624 -0.0008864355365553734 -0.011863980420566777 -0.03861153296301355
817 0.00028100028311118255 0.004323196395599227 0.0060706273549927265
824 -0.012055386638849221 0.02631578816433557 -0.025111901562355075
818 -0.00044566937138160135 0.003985964905052769 0.0037218403994126285
622 0.0022064875845328523 -0.004405973708392712 -0.004160859339274186
900 0.04759038738054928 0.00011384330244579343 -0.005508149338472459
878 0.0030810033303598746 0.012810029519312432 -0.0022592038005073457
727 0.015129456971505795 0.0029375545133179357 0.0025112142385306496
907 0.012290386094720145 0.04220507710088624 -0.015581891786200848
108 0.02634172196974408 0.020141213700667064 0.005335223356730685
107 0.002279794295691746 0.006984656438957058 -0.02592749932768516
311 0.028699918074313026 -0.009632573416517336 0.0001543224245202739
955 0.0005445352788957013 -0.01789449106787706 -0.006712089981929213
949 0.010075902550834211 0.011008598692844832 -0.004413761496815614
197 -0.009522425685746691 -0.007487938717487102 -0.0061998920612258875
926 0.0029330215874832496 -0.005696708382480587 -0.0013993310752011866
66 -0.00024343385252649193 0.00014998149855681276 0.0027681776290274427
722 -0.004054186419617462 0.005779997788986279 -0.002815584600399295
1001 0.005574073243476365 -0.004670471187929277 0.002542680847894271
683 -0.020746401692135732 0.015087901934746593 0.0023702394280578714
728 0.01987664540399854 0.01706990184642689 -0.000811935199972964
721 0.0044570212892720866 0.0029192443874113956 0.005404404214768469
196 -0.004771946086837036 0.007064860043058071 0.0015599777849118416
233 -7.755838303805953e-05 -0.00501582630572628 0.0037609563140289554
909 -0.0015178518338728494 0.01499399115304159 -0.010344554168481304
129 0.0003497812078048549 0.002711877747063785 -0.01936466219620552
519 -0.007948899437893814 0.0017786062972085619 0.0011431776610373295
10 0.024438763574922105 -0.008484357814174037 0.0035492196536895757
9 -0.025094169251156723 -0.00866782875171056 0.006340906915109551
237 -0.01170353335937359 0.012023055911468048 -0.010021574792198439
177 0.011942866612035327 -0.004515576197353081 -0.009417305742874726
932 0.0007412530941628684 0.026694567971774694 -0.004963911988192253
993 0.0020332026703976484 0.0003959122005325421 -4.6400265755599415e-05
236 0.004439783078269051 -0.001217218085783251 0.0002608837766411969
2 0.0018961875634566049 -0.0032372955113119726 0.005324507991872484
729 0.0011910597777353604 -0.026289795207863037 0.020934202274071972
538 0.005307698298817976 -0.0009629675623199219 0.013036735952890354
173 0.0007195934784646786 0.0006255415220216048 -0.0065549026567501955
8 0.009476386536049715 -0.004320006813959841 0.028880501402912626
6 -0.006695598718096482 -0.001367214230038544 -0.0002035884369872388
1 -0.005035041091359691 -0.0038884108312114444 -0.005641089782303445
7 -0.0017913544359509375 0.013011401294384576 -0.016475322272249394
235 -0.002450711418986897 0.007015135563004056 -0.0032167721308054855
234 -0.0011654910566672074 0.005905511695827825 -0.0013406505406293803
179 0.02159329718048315 -0.005669762649883159 -0.022676973461016638
174 -0.004509358973865736 0.005790809682385152 -0.006611918729079633
175 -0.0008956771460525979 -0.0054679715722974085 0.0022408957498814648
517 -0.004401505889527168 0.002334434960585967 0.000991433778522471
950 -0.00024496173852703404 0.008211289154214017 -0.0002068533413370126
957 0.011518693080485318 0.006383780857665198 0.013104624265559759
952 0.001008844762148727 -0.0013011059579955291 -0.0038428328592200215
951 -0.005411022894696958 -0.005536025075974747 0.0019178922787025324
953 -0.0020516066123678974 0.0008488112816490189 0.0025663729068787257
954 -0.0010791334407132746 -0.006478050000596213 -5.717736078264264e-05
958 0.00392386833892056 -0.001735419682009864 0.039618962964435414
960 -0.0069837559665148945 -0.010031790740531885 -0.00031103620871842687
959 0.03296193012303984 -0.016409978455061654 -0.02216707646788463
523 -0.005788315031666563 -0.021230856546040674 -0.03943279278631311
524 -0.021206031688909357 0.01503549974943914 0.00026460070174250333
525 0.020545324687111278 -0.021527235796727138 0.03661454221841385
176 0.00015352684361461943 0.002991381767345779 0.0007192050598435738
975 0.0030341945865566063 -0.0028504409890666004 -0.004183035093184832
991 0.00048542918008082975 -0.0043827498812498596 0.003240337549560582
171 0.0001301993452836057 -0.0019617608646897064 0.004266753099698867
172 0.0011996645784411832 -0.002160171225115843 -0.003489146092236143
180 0.00832504402506578 0.010015806222686037 -0.006366549533687494
144 -0.0017931905967839756 -0.004818364447251923 -0.0007760459138249052
994 -0.004138970501964918 -0.003344060500411066 0.00012321305412366903
178 -0.015723364031240063 -0.008796101323583902 -0.0009973367545841217
231 -0.0016503259881216477 0.003952959654869833 0.006237299230382224
532 0.006752350487944109 -0.0013001693663746991 0.0030860775151009107
531 0.00038514058357107933 0.008265667157372812 -0.004607063844985253
1003 0.004020154826370423 0.0017038815680878016 -0.005583958674923532
518 -0.00048196639179719117 -0.0025445639281649703 -0.005222896656324883
238 -0.0031064317217141773 -0.016108720130322954 -0.004751979374461745
925 0.0019344272834136682 -0.002534667684017884 4.3206139092450725e-05
404 0.006498378027625923 0.01714674788701933 0.0014718674506529743
933 -0.008813999252705904 -0.026563484967965206 0.004729492457234097
232 -0.010773798600375861 -0.003375660304466769 -0.0021291962304452465
248 0.005203224308985543 -0.006500142908753529 -0.011840195655146917
982 -0.0026701109685709204 0.002628818389324015 -0.00327230284401072
475 -0.0145871629935039 0.0026037928634808855 0.008529516707530634
845 0.006568310959809088 -0.0026313233088482856 -0.004528390200720574
271 0.00414861078099885 -0.0004709127578319727 -0.00013147307005313826
273 0.0029220697054100765 -0.005304852293892159 -0.005888467038746752
277 -0.018358179837628913 0.0002538345518273569 0.0073231863475556845
398 0.00030851497010999783 9.293430995569048e-05 -0.0010642276238372642
68 -0.015880841363701378 0.03039879800466364 0.019939487225949206
520 -0.004048425834138068 0.002653792866137618 -0.0033569001280650077
3 -0.005863036640052355 -0.00016393794043712223 -0.00865622872206544
912 -0.009759676276770497 -0.0071171490468474674 0.019891471637994405
533 -0.0017169175939858508 0.0001874860756938315 -0.000607763439610608
983 -0.0038766530725525936 -0.007440191154036135 -0.0057449889292473175
67 0.01501667041062466 -0.01174115924466856 0.0026914747253037104
850 0.015572610102792438 0.003310218949357524 0.030180764703716483
825 0.00878819643165398 0.015148914374414027 -0.020964749022157253
61 0.007417491478419546 0.0015053209569467476 0.004605116632773294
770 0.002203962128336279 0.0024247904172800183 0.002511008373082073
585 -0.010329206557175716 -0.002935676446261289 -0.00761495582688768
477 -0.005141516433170727 -0.006498778137973561 -0.005149081562086524
147 0.0007311192009239406 -0.02338880296950866 0.01976103849162208
156 0.001016916286559979 0.002467748243975278 0.0001616028277903628
141 -7.680059611126113e-05 0.0030089656037597832 -0.004640335866022115
771 0.0017177737544231924 0.0012729998853005964 -0.004470768064809717
4 -0.0008304747059197327 0.0037086888853711513 0.000845880800009584
469 -0.009791413399912118 0.004098866005518612 0.0018578078595910777
154 -0.005323719822500239 0.005984545552088438 0.0013974259772408688
94 0.008049535213594894 -0.008459165827891931 0.004208899515545315
5 0.0012452702396406844 -0.004712730522869875 0.002662966800396071
471 -0.005198632070519658 0.0036189180786435015 -0.002643415580168401
980 0.0005838948464236584 0.0020123802101385587 0.0021662644108351756
1004 -0.0013481732890149555 0.0040731275409171906 0.0042081518979244885
239 0.006321045433032407 -0.00260659144459288 -0.015761924592582556
537 0.013339740244830966 0.0009206916045142212 0.0205256758207728
130 -0.006621454291857442 -0.00013714522355231205 0.0019845979219563336
530 0.001273297419063456 0.0006253515828799139 0.006539178405819296
775 -0.016191493323116427 0.004585781723825465 -0.015922941999082472
397 -0.008257003606385933 0.00524835483836616 -0.0009134877716547463
143 -0.003783678125587616 0.00417637137004164 -0.004123460601901049
99 -0.004340249186680892 -0.004739975461477485 -0.007885466381345827
495 0.0005641281698845519 0.0032617106711245584 0.0041040934523281355
98 -0.026161553556366915 0.010121050833958227 0.00404640479511881
777 -0.017593283199856542 0.0011282164707480452 -0.030901161380812274
473 -0.003884536186339144 -0.0005684719070822974 -0.009782451513464845
563 0.006354976640469021 -0.008435934996555688 0.00020860575344334108
97 -0.00077436907197288 0.013638399917902513 -0.010985498697876614
476 0.000829158369856657 -0.028544525026428992 -0.0036464260741160964
494 0.0037952616098753836 -0.002298554671456058 -0.004179052565363027
478 0.008257045512139603 0.027586999427485256 -0.00566182202309234
470 0.007369908632185672 0.0037347246058100627 -0.005445389761941994
490 0.022354572110950717 0.0012887489906947777 0.006728005112185345
984 0.0015283090298257769 0.0026389957824848303 0.0009920505237808802
100 0.020732643128663075 0.015003568748714478 -0.003960947200628123
772 0.00018675756337786472 -0.0020562514083041815 -0.0031635220231916875
491 0.010963495144163431 -0.009074234186236731 -0.01813118882735797
842 0.0007192850005883234 -0.0005002118474872717 -0.0024222134532305255
493 0.005643613994039885 -0.0103223031761542 -0.005298677063899795
500 0.012737710735913704 -0.001768193317709205 0.011011512222038621
562 0.027165073421935488 -0.016193738156572345 -0.0032965503327702637
501 0.011326513591061597 0.003486652096193237 -0.012593878785458895
496 -0.00047119148849359327 0.003462237050736574 -0.003750197694464124
497 0.0037197765403542355 -0.010769648469120196 0.003234646962039669
278 0.012859939661317571 -0.0003702152851914164 0.02622080635167118
499 -0.026361669625176668 -0.0024826755039066605 0.024677433227155588
148 0.022194751513638318 -0.0303296386574769 0.005770218725963122
852 -0.012781397615907053 -0.00539396278172579 0.007101111405015836
529 -0.004174169481201324 0.006002907894516619 -0.003634629197942369
535 0.01169183191224526 -0.01344930929036768 0.005281951496966704
846 -0.0032652251745817805 -0.002033243527670006 0.0016738102128675022
96 0.001922201941564698 0.0038604527996418552 -0.004628753881848094
91 0.0019501637958756705 0.013733358855044942 -0.00011447665273998562
240 0.006960490473708515 -0.019171059340008702 -0.006054989980715534
536 -0.017322052483742734 -0.021818282533029566 0.013820969247374637
95 0.0009100664326740597 -0.004662534386788138 0.007279519754003558
564 -0.02789050803839305 0.013944204077186877 -0.000752672833862102
851 0.009024918777128728 -0.0023198111947068567 0.03751904634179127
981 -0.001448250036981211 0.00030637674536065435 0.0012289227772742776
150 0.010695779933912424 0.0035110399680925238 -0.030948102341117105
769 -0.0028974329381721855 0.0011740175311117343 0.007223586478094923
776 -0.004033442855302653 0.001289855434573537 -0.010175002314992791
844 0.0006901804335018283 0.0005698734217699493 0.0006232417791787405
142 -0.005789358471083331 -0.0003728851848758106 -0.0014141313124498847
155 0.0029036958958096786 0.005863411346093425 -0.004890087575085622
93 0.00048429551198993584 -0.006081555307778745 0.001928944553339289
558 -0.004897998569459585 -0.00044948473683915213 -0.0004374245745219385
556 -0.0018913209615653832 0.00422502129521867 0.00016872308069315885
843 0.0040148973757780345 -0.0007749851338596115 0.010886321452912767
557 0.004430309521808575 -0.0007087062849055927 -0.00588321114775833
92 0.00720360797337404 0.005225569285124848 0.00279370548130478
555 0.001152794593958448 -0.004395811506182366 0.00720252080575351
534 0.003466838251042629 0.0008721594835311736 0.0040533131280318735
479 0.0007115479236936431 -0.009639040798047853 0.00831043654356401
502 -0.012727719067631486 0.012490550883923032 -0.01624163858363256
230 -0.016617383890373892 0.006412393544524601 -0.03239998198732159
892 -0.005248938918523304 0.009544127981987439 0.008509439320082735
191 0.0019280905647463395 0.00570289569749627 -0.0014367990349025313

Bonds

1 5 831 832
2 4 831 833
3 6 986 987
4 6 986 988
5 6 986 989
6 4 830 831
7 6 985 986
8 2 829 830
9 3 829 835
10 3 829 836
11 3 829 837
12 4 73 74
13 5 74 75
14 4 74 76
15 5 711 712
16 4 711 713
17 3 858 862
18 3 858 863
19 3 858 864
20 4 686 687
21 2 709 710
22 3 709 715
23 3 709 716
24 3 709 717
25 3 390 394
26 3 390 395
27 3 390 396
28 1 71 72
29 2 71 76
30 3 71 77
31 3 71 78
32 2 713 714
33 4 710 711
34 3 714 718
35 3 714 719
36 3 714 720
37 5 687 688
38 4 687 689
39 2 72 73
40 3 72 79
41 3 72 80
42 2 685 686
43 3 685 691
44 3 685 692
45 3 685 693
46 2 613 614
47 3 613 619
48 3 613 620
49 3 613 621
50 2 389 390
51 2 833 834
52 5 204 205
53 4 204 206
54 4 962 963
55 2 961 962
56 3 961 967
57 3 961 968
58 3 961 969
59 2 793 794
60 3 793 799
61 3 793 800
62 3 793 801
63 5 963 964
64 4 963 965
65 3 834 838
66 3 834 839
67 3 834 840
68 2 581 582
69 2 697 698
70 3 697 703
71 3 697 704
72 3 697 705
73 2 689 690
74 2 301 302
75 3 301 307
76 3 301 308
77 3 301 309
78 3 822 826
79 3 822 827
80 3 822 828
81 2 857 858
82 2 749 750
83 2 929 930
84 2 481 482
85 3 481 487
86 3 481 488
87 3 481 489
88 2 325 326
89 3 325 331
90 3 325 332
91 3 325 333
92 1 201 202
93 2 201 206
94 3 201 207
95 3 201 208
96 5 387 388
97 4 387 389
98 5 284 285
99 4 284 286
100 2 202 203
101 3 202 209
102 3 202 210
103 4 386 387
104 5 855 856
105 4 855 857
106 2 449 450
107 2 32 33
108 3 32 39
109 3 32 40
110 2 809 810
111 3 810 814
112 3 810 815
113 3 810 816
114 5 807 808
115 4 807 809
116 2 385 386
117 3 385 391
118 3 385 392
119 3 385 393
120 2 853 854
121 3 853 859
122 3 853 860
123 3 853 861
124 4 854 855
125 4 350 351
126 2 349 350
127 3 349 355
128 3 349 356
129 3 349 357
130 2 745 746
131 3 745 751
132 3 745 752
133 3 745 753
134 1 31 32
135 2 31 36
136 3 31 37
137 3 31 38
138 5 34 35
139 4 34 36
140 4 746 747
141 5 663 664
142 4 663 665
143 2 661 662
144 3 661 667
145 3 661 668
146 3 661 669
147 3 930 934
148 3 930 935
149 3 930 936
150 4 33 34
151 4 662 663
152 2 665 666
153 3 450 454
154 3 450 455
155 3 450 456
156 4 806 807
157 4 203 204
158 5 447 448
159 4 447 449
160 4 253 254
161 4 446 447
162 5 747 748
163 4 747 749
164 5 254 255
165 4 254 256
166 2 252 253
167 3 252 259
168 3 252 260
169 3 666 670
170 3 666 671
171 3 666 672
172 5 351 352
173 4 351 353
174 4 83 84
175 4 866 867
176 2 421 422
177 3 421 427
178 3 421 428
179 3 421 429
180 5 315 316
181 4 315 317
182 6 1006 1007
183 6 1006 1008
184 6 1006 1009
185 2 42 43
186 3 42 49
187 3 42 50
188 5 224 225
189 4 224 226
190 4 223 224
191 1 251 252
192 2 251 256
193 3 251 257
194 3 251 258
195 3 582 586
196 3 582 587
197 3 582 588
198 2 965 966
199 5 84 85
200 4 84 86
201 4 43 44
202 3 570 574
203 3 570 575
204 3 570 576
205 4 362 363
206 2 869 870
207 2 82 83
208 3 82 89
209 3 82 90
210 5 44 45
211 4 44 46
212 5 363 364
213 4 363 365
214 6 1005 1006
215 2 361 362
216 3 361 367
217 3 361 368
218 3 361 369
219 3 966 970
220 3 966 971
221 3 966 972
222 3 870 874
223 3 870 875
224 3 870 876
225 1 81 82
226 2 81 86
227 3 81 87
228 3 81 88
229 1 41 42
230 2 41 46
231 3 41 47
232 3 41 48
233 5 867 868
234 4 867 869
235 3 594 598
236 3 594 599
237 3 594 600
238 4 614 615
239 5 603 604
240 4 603 605
241 5 327 328
242 4 327 329
243 5 795 796
244 4 795 797
245 2 797 798
246 3 798 802
247 3 798 803
248 3 798 804
249 3 330 334
250 3 330 335
251 3 330 336
252 2 605 606
253 3 606 610
254 3 606 611
255 3 606 612
256 6 1011 1012
257 6 1011 1013
258 6 1011 1014
259 4 602 603
260 2 601 602
261 3 601 607
262 3 601 608
263 3 601 609
264 3 918 922
265 3 918 923
266 3 918 924
267 3 402 406
268 3 402 407
269 3 402 408
270 2 401 402
271 6 1010 1011
272 2 329 330
273 2 162 163
274 3 162 169
275 3 162 170
276 2 52 53
277 3 52 59
278 3 52 60
279 5 615 616
280 4 615 617
281 3 486 490
282 3 486 491
283 3 486 492
284 2 917 918
285 5 399 400
286 4 399 401
287 5 915 916
288 4 915 917
289 4 326 327
290 2 569 570
291 2 485 486
292 4 53 54
293 2 282 283
294 3 282 289
295 3 282 290
296 5 54 55
297 4 54 56
298 4 794 795
299 3 630 634
300 3 630 635
301 3 630 636
302 3 678 682
303 3 678 683
304 3 678 684
305 1 241 242
306 2 241 246
307 3 241 247
308 3 241 248
309 2 821 822
310 4 302 303
311 1 161 162
312 2 161 166
313 3 161 167
314 3 161 168
315 2 445 446
316 3 445 451
317 3 445 452
318 3 445 453
319 4 163 164
320 1 51 52
321 2 51 56
322 3 51 57
323 3 51 58
324 5 214 215
325 4 214 216
326 1 211 212
327 2 211 216
328 3 211 217
329 3 211 218
330 5 819 820
331 4 819 821
332 5 134 135
333 4 134 136
334 4 213 214
335 2 212 213
336 3 212 219
337 3 212 220
338 5 244 245
339 4 244 246
340 2 242 243
341 3 242 249
342 3 242 250
343 2 541 542
344 3 541 547
345 3 541 548
346 3 541 549
347 4 542 543
348 2 545 546
349 5 543 544
350 4 543 545
351 3 546 550
352 3 546 551
353 3 546 552
354 1 131 132
355 2 131 136
356 3 131 137
357 3 131 138
358 2 132 133
359 3 132 139
360 3 132 140
361 2 112 113
362 3 112 119
363 3 112 120
364 4 113 114
365 5 435 436
366 4 435 437
367 3 438 442
368 3 438 443
369 3 438 444
370 4 434 435
371 4 243 244
372 2 437 438
373 1 111 112
374 2 111 116
375 3 111 117
376 3 111 118
377 5 114 115
378 4 114 116
379 2 433 434
380 3 433 439
381 3 433 440
382 3 433 441
383 4 133 134
384 2 521 522
385 2 272 273
386 3 272 279
387 3 272 280
388 4 283 284
389 5 164 165
390 4 164 166
391 3 522 526
392 3 522 527
393 3 522 528
394 2 222 223
395 3 222 229
396 3 222 230
397 5 579 580
398 4 579 581
399 1 291 292
400 2 291 296
401 3 291 297
402 3 291 298
403 2 292 293
404 3 292 299
405 3 292 300
406 3 378 382
407 3 378 383
408 3 378 384
409 2 913 914
410 3 913 919
411 3 913 920
412 3 913 921
413 2 865 866
414 3 865 871
415 3 865 872
416 3 865 873
417 4 422 423
418 4 578 579
419 2 565 566
420 3 565 571
421 3 565 572
422 3 565 573
423 5 294 295
424 4 294 296
425 4 293 294
426 5 675 676
427 4 675 677
428 2 673 674
429 3 673 679
430 3 673 680
431 3 673 681
432 2 773 774
433 4 482 483
434 3 774 778
435 3 774 779
436 3 774 780
437 4 374 375
438 5 567 568
439 4 567 569
440 2 577 578
441 3 577 583
442 3 577 584
443 3 577 585
444 5 375 376
445 4 375 377
446 4 914 915
447 4 674 675
448 2 373 374
449 3 373 379
450 3 373 380
451 3 373 381
452 4 566 567
453 2 677 678
454 1 221 222
455 2 221 226
456 3 221 227
457 3 221 228
458 2 617 618
459 2 313 314
460 3 313 319
461 3 313 320
462 3 313 321
463 2 377 378
464 5 483 484
465 4 483 485
466 3 426 430
467 3 426 431
468 3 426 432
469 2 425 426
470 5 423 424
471 4 423 425
472 4 314 315
473 1 281 282
474 2 281 286
475 3 281 287
476 3 281 288
477 1 261 262
478 2 261 266
479 3 261 267
480 3 261 268
481 2 262 263
482 3 262 269
483 3 262 270
484 5 264 265
485 4 264 266
486 5 339 340
487 4 339 341
488 4 23 24
489 5 24 25
490 4 24 26
491 4 338 339
492 2 341 342
493 2 22 23
494 3 22 29
495 3 22 30
496 3 342 346
497 3 342 347
498 3 342 348
499 1 21 22
500 2 21 26
501 3 21 27
502 3 21 28
503 2 505 506
504 3 505 511
505 3 505 512
506 3 505 513
507 2 937 938
508 3 937 943
509 3 937 944
510 3 937 945
511 2 893 894
512 3 654 658
513 3 654 659
514 3 654 660
515 5 651 652
516 4 651 653
517 2 653 654
518 3 882 886
519 3 882 887
520 3 882 888
521 5 879 880
522 4 879 881
523 5 939 940
524 4 939 941
525 4 650 651
526 2 881 882
527 3 690 694
528 3 690 695
529 3 690 696
530 2 337 338
531 3 337 343
532 3 337 344
533 3 337 345
534 2 122 123
535 3 122 129
536 3 122 130
537 5 891 892
538 4 891 893
539 4 506 507
540 4 183 184
541 2 182 183
542 3 182 189
543 3 182 190
544 4 938 939
545 2 725 726
546 3 726 730
547 3 726 731
548 3 726 732
549 3 762 766
550 3 762 767
551 3 762 768
552 3 894 898
553 3 894 899
554 3 894 900
555 3 750 754
556 3 750 755
557 3 750 756
558 4 698 699
559 2 649 650
560 3 649 655
561 3 649 656
562 3 649 657
563 4 263 264
564 5 14 15
565 4 14 16
566 5 927 928
567 4 927 929
568 5 194 195
569 4 194 196
570 2 889 890
571 3 889 895
572 3 889 896
573 3 889 897
574 2 192 193
575 3 192 199
576 3 192 200
577 4 193 194
578 1 121 122
579 2 121 126
580 3 121 127
581 3 121 128
582 3 354 358
583 3 354 359
584 3 354 360
585 3 414 418
586 3 414 419
587 3 414 420
588 2 413 414
589 5 411 412
590 4 411 413
591 3 510 514
592 3 510 515
593 3 510 516
594 4 410 411
595 6 996 997
596 6 996 998
597 6 996 999
598 2 509 510
599 5 507 508
600 4 507 509
601 1 181 182
602 2 181 186
603 3 181 187
604 3 181 188
605 5 184 185
606 4 184 186
607 6 995 996
608 2 805 806
609 3 805 811
610 3 805 812
611 3 805 813
612 4 63 64
613 4 890 891
614 2 409 410
615 3 409 415
616 3 409 416
617 3 409 417
618 5 64 65
619 4 64 66
620 2 353 354
621 2 62 63
622 3 62 69
623 3 62 70
624 5 124 125
625 4 124 126
626 4 123 124
627 2 757 758
628 3 757 763
629 3 757 764
630 3 757 765
631 2 841 842
632 3 841 847
633 3 841 848
634 3 841 849
635 2 761 762
636 4 734 735
637 3 702 706
638 3 702 707
639 3 702 708
640 2 589 590
641 3 589 595
642 3 589 596
643 3 589 597
644 2 781 782
645 3 781 787
646 3 781 788
647 3 781 789
648 3 498 502
649 3 498 503
650 3 498 504
651 2 457 458
652 3 457 463
653 3 457 464
654 3 457 465
655 3 738 742
656 3 738 743
657 3 738 744
658 5 591 592
659 4 591 593
660 2 365 366
661 4 13 14
662 3 366 370
663 3 366 371
664 3 366 372
665 3 786 790
666 3 786 791
667 3 786 792
668 5 735 736
669 4 735 737
670 2 593 594
671 3 942 946
672 3 942 947
673 3 942 948
674 5 459 460
675 4 459 461
676 2 941 942
677 4 458 459
678 5 759 760
679 4 759 761
680 2 785 786
681 4 782 783
682 5 699 700
683 4 699 701
684 2 317 318
685 2 733 734
686 3 733 739
687 3 733 740
688 3 733 741
689 3 318 322
690 3 318 323
691 3 318 324
692 5 783 784
693 4 783 785
694 2 737 738
695 3 462 466
696 3 462 467
697 3 462 468
698 2 461 462
699 2 701 702
700 1 11 12
701 2 11 16
702 3 11 17
703 3 11 18
704 2 12 13
705 3 12 19
706 3 12 20
707 4 590 591
708 4 758 759
709 6 1000 1001
710 5 723 724
711 4 723 725
712 5 639 640
713 4 639 641
714 4 638 639
715 2 641 642
716 3 642 646
717 3 642 647
718 3 642 648
719 5 104 105
720 4 104 106
721 1 151 152
722 2 151 156
723 3 151 157
724 3 151 158
725 2 637 638
726 3 637 643
727 3 637 644
728 3 637 645
729 2 625 626
730 3 625 631
731 3 625 632
732 3 625 633
733 4 626 627
734 5 627 628
735 4 627 629
736 2 152 153
737 3 152 159
738 3 152 160
739 5 903 904
740 4 903 905
741 3 306 310
742 3 306 311
743 3 306 312
744 4 902 903
745 4 103 104
746 2 905 906
747 2 305 306
748 5 274 275
749 4 274 276
750 2 901 902
751 3 901 907
752 3 901 908
753 3 901 909
754 6 990 991
755 5 303 304
756 4 303 305
757 2 629 630
758 3 618 622
759 3 618 623
760 3 618 624
761 3 906 910
762 3 906 911
763 3 906 912
764 4 153 154
765 1 101 102
766 2 101 106
767 3 101 107
768 3 101 108
769 2 553 554
770 3 553 559
771 3 553 560
772 3 553 561
773 4 554 555
774 3 474 478
775 3 474 479
776 3 474 480
777 2 102 103
778 3 102 109
779 3 102 110
780 2 877 878
781 3 877 883
782 3 877 884
783 3 877 885
784 2 817 818
785 3 817 823
786 3 817 824
787 3 817 825
788 4 818 819
789 4 878 879
790 2 949 950
791 3 949 955
792 3 949 956
793 3 949 957
794 4 926 927
795 4 722 723
796 6 1001 1002
797 6 1001 1003
798 6 1001 1004
799 2 721 722
800 3 721 727
801 3 721 728
802 3 721 729
803 4 233 234
804 5 519 520
805 4 519 521
806 2 2 3
807 3 2 9
808 3 2 10
809 4 173 174
810 1 1 2
811 2 1 6
812 3 1 7
813 3 1 8
814 5 234 235
815 4 234 236
816 5 174 175
817 4 174 176
818 2 517 518
819 3 517 523
820 3 517 524
821 3 517 525
822 4 950 951
823 5 951 952
824 4 951 953
825 2 953 954
826 3 954 958
827 3 954 959
828 3 954 960
829 6 991 992
830 6 991 993
831 6 991 994
832 1 171 172
833 2 171 176
834 3 171 177
835 3 171 178
836 2 172 173
837 3 172 179
838 3 172 180
839 5 144 145
840 4 144 146
841 1 231 232
842 2 231 236
843 3 231 237
844 3 231 238
845 5 531 532
846 4 531 533
847 4 518 519
848 2 925 926
849 3 925 931
850 3 925 932
851 3 925 933
852 2 232 233
853 3 232 239
854 3 232 240
855 2 845 846
856 1 271 272
857 2 271 276
858 3 271 277
859 3 271 278
860 4 273 274
861 4 398 399
862 4 3 4
863 2 533 534
864 1 61 62
865 2 61 66
866 3 61 67
867 3 61 68
868 4 770 771
869 1 141 142
870 2 141 146
871 3 141 147
872 3 141 148
873 5 771 772
874 4 771 773
875 5 4 5
876 4 4 6
877 2 469 470
878 3 469 475
879 3 469 476
880 3 469 477
881 5 154 155
882 4 154 156
883 5 94 95
884 4 94 96
885 5 471 472
886 4 471 473
887 6 980 981
888 4 530 531
889 2 397 398
890 3 397 403
891 3 397 404
892 3 397 405
893 4 143 144
894 5 495 496
895 4 495 497
896 2 473 474
897 4 494 495
898 4 470 471
899 4 842 843
900 2 493 494
901 3 493 499
902 3 493 500
903 3 493 501
904 2 497 498
905 2 529 530
906 3 529 535
907 3 529 536
908 3 529 537
909 3 846 850
910 3 846 851
911 3 846 852
912 1 91 92
913 2 91 96
914 3 91 97
915 3 91 98
916 6 981 982
917 6 981 983
918 6 981 984
919 2 769 770
920 3 769 775
921 3 769 776
922 3 769 777
923 2 142 143
924 3 142 149
925 3 142 150
926 4 93 94
927 3 558 562
928 3 558 563
929 3 558 564
930 5 843 844
931 4 843 845
932 2 557 558
933 2 92 93
934 3 92 99
935 3 92 100
936 5 555 556
937 4 555 557
938 3 534 538
939 3 534 539
940 3 534 540
941 1 191 192
942 2 191 196
943 3 191 197
944 3 191 198

Angles

1 3 830 831 832
2 6 830 831 833
3 3 832 831 833
4 7 985 986 987
5 7 985 986 988
6 7 985 986 989
7 7 987 986 988
8 7 987 986 989
9 7 988 986 989
10 5 829 830 831
11 2 830 829 835
12 2 830 829 836
13 2 830 829 837
14 4 835 829 836
15 4 835 829 837
16 4 836 829 837
17 1 72 73 74
18 3 73 74 75
19 1 73 74 76
20 3 75 74 76
21 3 710 711 712
22 6 710 711 713
23 3 712 711 713
24 2 857 858 862
25 2 857 858 863
26 2 857 858 864
27 4 862 858 863
28 4 862 858 864
29 4 863 858 864
30 5 685 686 687
31 2 710 709 715
32 2 710 709 716
33 2 710 709 717
34 4 715 709 716
35 4 715 709 717
36 4 716 709 717
37 2 389 390 394
38 2 389 390 395
39 2 389 390 396
40 4 394 390 395
41 4 394 390 396
42 4 395 390 396
43 1 71 76 74
44 1 72 71 76
45 2 72 71 77
46 2 72 71 78
47 2 76 71 77
48 2 76 71 78
49 4 77 71 78
50 5 711 713 714
51 5 709 710 711
52 2 713 714 718
53 2 713 714 719
54 2 713 714 720
55 4 718 714 719
56 4 718 714 720
57 4 719 714 720
58 3 686 687 688
59 6 686 687 689
60 3 688 687 689
61 1 71 72 73
62 2 71 72 79
63 2 71 72 80
64 2 73 72 79
65 2 73 72 80
66 4 79 72 80
67 2 686 685 691
68 2 686 685 692
69 2 686 685 693
70 4 691 685 692
71 4 691 685 693
72 4 692 685 693
73 2 614 613 619
74 2 614 613 620
75 2 614 613 621
76 4 619 613 620
77 4 619 613 621
78 4 620 613 621
79 5 387 389 390
80 5 831 833 834
81 3 203 204 205
82 1 203 204 206
83 3 205 204 206
84 5 961 962 963
85 1 201 206 204
86 2 962 961 967
87 2 962 961 968
88 2 962 961 969
89 4 967 961 968
90 4 967 961 969
91 4 968 961 969
92 2 794 793 799
93 2 794 793 800
94 2 794 793 801
95 4 799 793 800
96 4 799 793 801
97 4 800 793 801
98 3 962 963 964
99 6 962 963 965
100 3 964 963 965
101 2 833 834 838
102 2 833 834 839
103 2 833 834 840
104 4 838 834 839
105 4 838 834 840
106 4 839 834 840
107 5 579 581 582
108 2 698 697 703
109 2 698 697 704
110 2 698 697 705
111 4 703 697 704
112 4 703 697 705
113 4 704 697 705
114 5 687 689 690
115 2 302 301 307
116 2 302 301 308
117 2 302 301 309
118 4 307 301 308
119 4 307 301 309
120 4 308 301 309
121 2 821 822 826
122 2 821 822 827
123 2 821 822 828
124 4 826 822 827
125 4 826 822 828
126 4 827 822 828
127 5 855 857 858
128 5 747 749 750
129 5 927 929 930
130 2 482 481 487
131 2 482 481 488
132 2 482 481 489
133 4 487 481 488
134 4 487 481 489
135 4 488 481 489
136 2 326 325 331
137 2 326 325 332
138 2 326 325 333
139 4 331 325 332
140 4 331 325 333
141 4 332 325 333
142 1 202 201 206
143 2 202 201 207
144 2 202 201 208
145 2 206 201 207
146 2 206 201 208
147 4 207 201 208
148 1 281 286 284
149 3 386 387 388
150 6 386 387 389
151 3 388 387 389
152 3 283 284 285
153 1 283 284 286
154 3 285 284 286
155 1 201 202 203
156 2 201 202 209
157 2 201 202 210
158 2 203 202 209
159 2 203 202 210
160 4 209 202 210
161 5 385 386 387
162 3 854 855 856
163 6 854 855 857
164 3 856 855 857
165 5 447 449 450
166 1 31 32 33
167 2 31 32 39
168 2 31 32 40
169 2 33 32 39
170 2 33 32 40
171 4 39 32 40
172 5 807 809 810
173 2 809 810 814
174 2 809 810 815
175 2 809 810 816
176 4 814 810 815
177 4 814 810 816
178 4 815 810 816
179 3 806 807 808
180 6 806 807 809
181 3 808 807 809
182 2 386 385 391
183 2 386 385 392
184 2 386 385 393
185 4 391 385 392
186 4 391 385 393
187 4 392 385 393
188 2 854 853 859
189 2 854 853 860
190 2 854 853 861
191 4 859 853 860
192 4 859 853 861
193 4 860 853 861
194 5 853 854 855
195 5 349 350 351
196 2 350 349 355
197 2 350 349 356
198 2 350 349 357
199 4 355 349 356
200 4 355 349 357
201 4 356 349 357
202 2 746 745 751
203 2 746 745 752
204 2 746 745 753
205 4 751 745 752
206 4 751 745 753
207 4 752 745 753
208 1 32 31 36
209 2 32 31 37
210 2 32 31 38
211 2 36 31 37
212 2 36 31 38
213 4 37 31 38
214 1 31 36 34
215 3 33 34 35
216 1 33 34 36
217 3 35 34 36
218 5 745 746 747
219 3 662 663 664
220 6 662 663 665
221 3 664 663 665
222 2 662 661 667
223 2 662 661 668
224 2 662 661 669
225 4 667 661 668
226 4 667 661 669
227 4 668 661 669
228 2 929 930 934
229 2 929 930 935
230 2 929 930 936
231 4 934 930 935
232 4 934 930 936
233 4 935 930 936
234 1 32 33 34
235 5 661 662 663
236 5 663 665 666
237 2 449 450 454
238 2 449 450 455
239 2 449 450 456
240 4 454 450 455
241 4 454 450 456
242 4 455 450 456
243 5 805 806 807
244 1 202 203 204
245 3 446 447 448
246 6 446 447 449
247 3 448 447 449
248 1 251 256 254
249 1 252 253 254
250 5 445 446 447
251 3 746 747 748
252 6 746 747 749
253 3 748 747 749
254 3 253 254 255
255 1 253 254 256
256 3 255 254 256
257 1 251 252 253
258 2 251 252 259
259 2 251 252 260
260 2 253 252 259
261 2 253 252 260
262 4 259 252 260
263 2 665 666 670
264 2 665 666 671
265 2 665 666 672
266 4 670 666 671
267 4 670 666 672
268 4 671 666 672
269 3 350 351 352
270 6 350 351 353
271 3 352 351 353
272 1 82 83 84
273 5 865 866 867
274 2 422 421 427
275 2 422 421 428
276 2 422 421 429
277 4 427 421 428
278 4 427 421 429
279 4 428 421 429
280 3 314 315 316
281 6 314 315 317
282 3 316 315 317
283 7 1005 1006 1007
284 7 1005 1006 1008
285 7 1005 1006 1009
286 7 1007 1006 1008
287 7 1007 1006 1009
288 7 1008 1006 1009
289 1 41 42 43
290 2 41 42 49
291 2 41 42 50
292 2 43 42 49
293 2 43 42 50
294 4 49 42 50
295 3 223 224 225
296 1 223 224 226
297 3 225 224 226
298 1 222 223 224
299 1 252 251 256
300 2 252 251 257
301 2 252 251 258
302 2 256 251 257
303 2 256 251 258
304 4 257 251 258
305 1 221 226 224
306 2 581 582 586
307 2 581 582 587
308 2 581 582 588
309 4 586 582 587
310 4 586 582 588
311 4 587 582 588
312 5 963 965 966
313 3 83 84 85
314 1 83 84 86
315 3 85 84 86
316 1 42 43 44
317 1 41 46 44
318 2 569 570 574
319 2 569 570 575
320 2 569 570 576
321 4 574 570 575
322 4 574 570 576
323 4 575 570 576
324 5 361 362 363
325 5 867 869 870
326 1 81 82 83
327 2 81 82 89
328 2 81 82 90
329 2 83 82 89
330 2 83 82 90
331 4 89 82 90
332 3 43 44 45
333 1 43 44 46
334 3 45 44 46
335 3 362 363 364
336 6 362 363 365
337 3 364 363 365
338 1 81 86 84
339 2 362 361 367
340 2 362 361 368
341 2 362 361 369
342 4 367 361 368
343 4 367 361 369
344 4 368 361 369
345 2 965 966 970
346 2 965 966 971
347 2 965 966 972
348 4 970 966 971
349 4 970 966 972
350 4 971 966 972
351 2 869 870 874
352 2 869 870 875
353 2 869 870 876
354 4 874 870 875
355 4 874 870 876
356 4 875 870 876
357 1 82 81 86
358 2 82 81 87
359 2 82 81 88
360 2 86 81 87
361 2 86 81 88
362 4 87 81 88
363 1 42 41 46
364 2 42 41 47
365 2 42 41 48
366 2 46 41 47
367 2 46 41 48
368 4 47 41 48
369 3 866 867 868
370 6 866 867 869
371 3 868 867 869
372 2 593 594 598
373 2 593 594 599
374 2 593 594 600
375 4 598 594 599
376 4 598 594 600
377 4 599 594 600
378 5 613 614 615
379 3 602 603 604
380 6 602 603 605
381 3 604 603 605
382 3 326 327 328
383 6 326 327 329
384 3 328 327 329
385 3 794 795 796
386 6 794 795 797
387 3 796 795 797
388 5 795 797 798
389 2 797 798 802
390 2 797 798 803
391 2 797 798 804
392 4 802 798 803
393 4 802 798 804
394 4 803 798 804
395 2 329 330 334
396 2 329 330 335
397 2 329 330 336
398 4 334 330 335
399 4 334 330 336
400 4 335 330 336
401 5 603 605 606
402 2 605 606 610
403 2 605 606 611
404 2 605 606 612
405 4 610 606 611
406 4 610 606 612
407 4 611 606 612
408 7 1010 1011 1012
409 7 1010 1011 1013
410 7 1010 1011 1014
411 7 1012 1011 1013
412 7 1012 1011 1014
413 7 1013 1011 1014
414 5 601 602 603
415 2 602 601 607
416 2 602 601 608
417 2 602 601 609
418 4 607 601 608
419 4 607 601 609
420 4 608 601 609
421 2 917 918 922
422 2 917 918 923
423 2 917 918 924
424 4 922 918 923
425 4 922 918 924
426 4 923 918 924
427 2 401 402 406
428 2 401 402 407
429 2 401 402 408
430 4 406 402 407
431 4 406 402 408
432 4 407 402 408
433 5 399 401 402
434 5 327 329 330
435 1 161 162 163
436 2 161 162 169
437 2 161 162 170
438 2 163 162 169
439 2 163 162 170
440 4 169 162 170
441 1 51 52 53
442 2 51 52 59
443 2 51 52 60
444 2 53 52 59
445 2 53 52 60
446 4 59 52 60
447 3 614 615 616
448 6 614 615 617
449 3 616 615 617
450 1 211 216 214
451 2 485 486 490
452 2 485 486 491
453 2 485 486 492
454 4 490 486 491
455 4 490 486 492
456 4 491 486 492
457 5 915 917 918
458 3 398 399 400
459 6 398 399 401
460 3 400 399 401
461 3 914 915 916
462 6 914 915 917
463 3 916 915 917
464 5 325 326 327
465 5 567 569 570
466 5 483 485 486
467 1 52 53 54
468 1 281 282 283
469 2 281 282 289
470 2 281 282 290
471 2 283 282 289
472 2 283 282 290
473 4 289 282 290
474 3 53 54 55
475 1 53 54 56
476 3 55 54 56
477 5 793 794 795
478 2 629 630 634
479 2 629 630 635
480 2 629 630 636
481 4 634 630 635
482 4 634 630 636
483 4 635 630 636
484 2 677 678 682
485 2 677 678 683
486 2 677 678 684
487 4 682 678 683
488 4 682 678 684
489 4 683 678 684
490 1 242 241 246
491 2 242 241 247
492 2 242 241 248
493 2 246 241 247
494 2 246 241 248
495 4 247 241 248
496 5 819 821 822
497 5 301 302 303
498 1 162 161 166
499 2 162 161 167
500 2 162 161 168
501 2 166 161 167
502 2 166 161 168
503 4 167 161 168
504 2 446 445 451
505 2 446 445 452
506 2 446 445 453
507 4 451 445 452
508 4 451 445 453
509 4 452 445 453
510 1 162 163 164
511 1 52 51 56
512 2 52 51 57
513 2 52 51 58
514 2 56 51 57
515 2 56 51 58
516 4 57 51 58
517 3 213 214 215
518 1 213 214 216
519 3 215 214 216
520 1 212 211 216
521 2 212 211 217
522 2 212 211 218
523 2 216 211 217
524 2 216 211 218
525 4 217 211 218
526 3 818 819 820
527 6 818 819 821
528 3 820 819 821
529 1 241 246 244
530 1 161 166 164
531 1 51 56 54
532 3 133 134 135
533 1 133 134 136
534 3 135 134 136
535 1 212 213 214
536 1 211 212 213
537 2 211 212 219
538 2 211 212 220
539 2 213 212 219
540 2 213 212 220
541 4 219 212 220
542 3 243 244 245
543 1 243 244 246
544 3 245 244 246
545 1 241 242 243
546 2 241 242 249
547 2 241 242 250
548 2 243 242 249
549 2 243 242 250
550 4 249 242 250
551 2 542 541 547
552 2 542 541 548
553 2 542 541 549
554 4 547 541 548
555 4 547 541 549
556 4 548 541 549
557 5 541 542 543
558 5 543 545 546
559 3 542 543 544
560 6 542 543 545
561 3 544 543 545
562 2 545 546 550
563 2 545 546 551
564 2 545 546 552
565 4 550 546 551
566 4 550 546 552
567 4 551 546 552
568 1 132 131 136
569 2 132 131 137
570 2 132 131 138
571 2 136 131 137
572 2 136 131 138
573 4 137 131 138
574 1 131 132 133
575 2 131 132 139
576 2 131 132 140
577 2 133 132 139
578 2 133 132 140
579 4 139 132 140
580 1 111 112 113
581 2 111 112 119
582 2 111 112 120
583 2 113 112 119
584 2 113 112 120
585 4 119 112 120
586 1 112 113 114
587 3 434 435 436
588 6 434 435 437
589 3 436 435 437
590 2 437 438 442
591 2 437 438 443
592 2 437 438 444
593 4 442 438 443
594 4 442 438 444
595 4 443 438 444
596 5 433 434 435
597 1 242 243 244
598 5 435 437 438
599 1 112 111 116
600 2 112 111 117
601 2 112 111 118
602 2 116 111 117
603 2 116 111 118
604 4 117 111 118
605 3 113 114 115
606 1 113 114 116
607 3 115 114 116
608 1 111 116 114
609 2 434 433 439
610 2 434 433 440
611 2 434 433 441
612 4 439 433 440
613 4 439 433 441
614 4 440 433 441
615 1 132 133 134
616 1 131 136 134
617 5 519 521 522
618 1 271 272 273
619 2 271 272 279
620 2 271 272 280
621 2 273 272 279
622 2 273 272 280
623 4 279 272 280
624 1 282 283 284
625 3 163 164 165
626 1 163 164 166
627 3 165 164 166
628 2 521 522 526
629 2 521 522 527
630 2 521 522 528
631 4 526 522 527
632 4 526 522 528
633 4 527 522 528
634 1 221 222 223
635 2 221 222 229
636 2 221 222 230
637 2 223 222 229
638 2 223 222 230
639 4 229 222 230
640 3 578 579 580
641 6 578 579 581
642 3 580 579 581
643 1 292 291 296
644 2 292 291 297
645 2 292 291 298
646 2 296 291 297
647 2 296 291 298
648 4 297 291 298
649 1 291 292 293
650 2 291 292 299
651 2 291 292 300
652 2 293 292 299
653 2 293 292 300
654 4 299 292 300
655 2 377 378 382
656 2 377 378 383
657 2 377 378 384
658 4 382 378 383
659 4 382 378 384
660 4 383 378 384
661 2 914 913 919
662 2 914 913 920
663 2 914 913 921
664 4 919 913 920
665 4 919 913 921
666 4 920 913 921
667 2 866 865 871
668 2 866 865 872
669 2 866 865 873
670 4 871 865 872
671 4 871 865 873
672 4 872 865 873
673 5 421 422 423
674 5 577 578 579
675 1 291 296 294
676 2 566 565 571
677 2 566 565 572
678 2 566 565 573
679 4 571 565 572
680 4 571 565 573
681 4 572 565 573
682 3 293 294 295
683 1 293 294 296
684 3 295 294 296
685 1 292 293 294
686 3 674 675 676
687 6 674 675 677
688 3 676 675 677
689 2 674 673 679
690 2 674 673 680
691 2 674 673 681
692 4 679 673 680
693 4 679 673 681
694 4 680 673 681
695 5 771 773 774
696 5 481 482 483
697 2 773 774 778
698 2 773 774 779
699 2 773 774 780
700 4 778 774 779
701 4 778 774 780
702 4 779 774 780
703 5 373 374 375
704 3 566 567 568
705 6 566 567 569
706 3 568 567 569
707 2 578 577 583
708 2 578 577 584
709 2 578 577 585
710 4 583 577 584
711 4 583 577 585
712 4 584 577 585
713 3 374 375 376
714 6 374 375 377
715 3 376 375 377
716 5 913 914 915
717 5 673 674 675
718 2 374 373 379
719 2 374 373 380
720 2 374 373 381
721 4 379 373 380
722 4 379 373 381
723 4 380 373 381
724 5 565 566 567
725 5 675 677 678
726 1 222 221 226
727 2 222 221 227
728 2 222 221 228
729 2 226 221 227
730 2 226 221 228
731 4 227 221 228
732 5 615 617 618
733 2 314 313 319
734 2 314 313 320
735 2 314 313 321
736 4 319 313 320
737 4 319 313 321
738 4 320 313 321
739 5 375 377 378
740 3 482 483 484
741 6 482 483 485
742 3 484 483 485
743 2 425 426 430
744 2 425 426 431
745 2 425 426 432
746 4 430 426 431
747 4 430 426 432
748 4 431 426 432
749 5 423 425 426
750 3 422 423 424
751 6 422 423 425
752 3 424 423 425
753 5 313 314 315
754 1 282 281 286
755 2 282 281 287
756 2 282 281 288
757 2 286 281 287
758 2 286 281 288
759 4 287 281 288
760 1 262 261 266
761 2 262 261 267
762 2 262 261 268
763 2 266 261 267
764 2 266 261 268
765 4 267 261 268
766 1 261 266 264
767 1 261 262 263
768 2 261 262 269
769 2 261 262 270
770 2 263 262 269
771 2 263 262 270
772 4 269 262 270
773 3 263 264 265
774 1 263 264 266
775 3 265 264 266
776 3 338 339 340
777 6 338 339 341
778 3 340 339 341
779 1 22 23 24
780 3 23 24 25
781 1 23 24 26
782 3 25 24 26
783 5 337 338 339
784 5 339 341 342
785 1 21 22 23
786 2 21 22 29
787 2 21 22 30
788 2 23 22 29
789 2 23 22 30
790 4 29 22 30
791 2 341 342 346
792 2 341 342 347
793 2 341 342 348
794 4 346 342 347
795 4 346 342 348
796 4 347 342 348
797 1 22 21 26
798 2 22 21 27
799 2 22 21 28
800 2 26 21 27
801 2 26 21 28
802 4 27 21 28
803 1 21 26 24
804 2 506 505 511
805 2 506 505 512
806 2 506 505 513
807 4 511 505 512
808 4 511 505 513
809 4 512 505 513
810 2 938 937 943
811 2 938 937 944
812 2 938 937 945
813 4 943 937 944
814 4 943 937 945
815 4 944 937 945
816 5 891 893 894
817 2 653 654 658
818 2 653 654 659
819 2 653 654 660
820 4 658 654 659
821 4 658 654 660
822 4 659 654 660
823 3 650 651 652
824 6 650 651 653
825 3 652 651 653
826 5 651 653 654
827 2 881 882 886
828 2 881 882 887
829 2 881 882 888
830 4 886 882 887
831 4 886 882 888
832 4 887 882 888
833 3 878 879 880
834 6 878 879 881
835 3 880 879 881
836 3 938 939 940
837 6 938 939 941
838 3 940 939 941
839 5 649 650 651
840 5 879 881 882
841 2 689 690 694
842 2 689 690 695
843 2 689 690 696
844 4 694 690 695
845 4 694 690 696
846 4 695 690 696
847 2 338 337 343
848 2 338 337 344
849 2 338 337 345
850 4 343 337 344
851 4 343 337 345
852 4 344 337 345
853 1 121 122 123
854 2 121 122 129
855 2 121 122 130
856 2 123 122 129
857 2 123 122 130
858 4 129 122 130
859 3 890 891 892
860 6 890 891 893
861 3 892 891 893
862 5 505 506 507
863 1 182 183 184
864 1 181 182 183
865 2 181 182 189
866 2 181 182 190
867 2 183 182 189
868 2 183 182 190
869 4 189 182 190
870 5 937 938 939
871 5 723 725 726
872 2 725 726 730
873 2 725 726 731
874 2 725 726 732
875 4 730 726 731
876 4 730 726 732
877 4 731 726 732
878 2 761 762 766
879 2 761 762 767
880 2 761 762 768
881 4 766 762 767
882 4 766 762 768
883 4 767 762 768
884 2 893 894 898
885 2 893 894 899
886 2 893 894 900
887 4 898 894 899
888 4 898 894 900
889 4 899 894 900
890 2 749 750 754
891 2 749 750 755
892 2 749 750 756
893 4 754 750 755
894 4 754 750 756
895 4 755 750 756
896 5 697 698 699
897 2 650 649 655
898 2 650 649 656
899 2 650 649 657
900 4 655 649 656
901 4 655 649 657
902 4 656 649 657
903 1 262 263 264
904 3 13 14 15
905 1 13 14 16
906 3 15 14 16
907 3 926 927 928
908 6 926 927 929
909 3 928 927 929
910 3 193 194 195
911 1 193 194 196
912 3 195 194 196
913 2 890 889 895
914 2 890 889 896
915 2 890 889 897
916 4 895 889 896
917 4 895 889 897
918 4 896 889 897
919 1 191 192 193
920 2 191 192 199
921 2 191 192 200
922 2 193 192 199
923 2 193 192 200
924 4 199 192 200
925 1 192 193 194
926 1 122 121 126
927 2 122 121 127
928 2 122 121 128
929 2 126 121 127
930 2 126 121 128
931 4 127 121 128
932 2 353 354 358
933 2 353 354 359
934 2 353 354 360
935 4 358 354 359
936 4 358 354 360
937 4 359 354 360
938 2 413 414 418
939 2 413 414 419
940 2 413 414 420
941 4 418 414 419
942 4 418 414 420
943 4 419 414 420
944 5 411 413 414
945 3 410 411 412
946 6 410 411 413
947 3 412 411 413
948 2 509 510 514
949 2 509 510 515
950 2 509 510 516
951 4 514 510 515
952 4 514 510 516
953 4 515 510 516
954 5 409 410 411
955 7 995 996 997
956 7 995 996 998
957 7 995 996 999
958 7 997 996 998
959 7 997 996 999
960 7 998 996 999
961 1 181 186 184
962 5 507 509 510
963 3 506 507 508
964 6 506 507 509
965 3 508 507 509
966 1 182 181 186
967 2 182 181 187
968 2 182 181 188
969 2 186 181 187
970 2 186 181 188
971 4 187 181 188
972 3 183 184 185
973 1 183 184 186
974 3 185 184 186
975 1 121 126 124
976 2 806 805 811
977 2 806 805 812
978 2 806 805 813
979 4 811 805 812
980 4 811 805 813
981 4 812 805 813
982 1 62 63 64
983 5 889 890 891
984 2 410 409 415
985 2 410 409 416
986 2 410 409 417
987 4 415 409 416
988 4 415 409 417
989 4 416 409 417
990 3 63 64 65
991 1 63 64 66
992 3 65 64 66
993 5 351 353 354
994 1 61 62 63
995 2 61 62 69
996 2 61 62 70
997 2 63 62 69
998 2 63 62 70
999 4 69 62 70
1000 3 123 124 125
1001 1 123 124 126
1002 3 125 124 126
1003 1 122 123 124
1004 1 11 16 14
1005 2 758 757 763
1006 2 758 757 764
1007 2 758 757 765
1008 4 763 757 764
1009 4 763 757 765
1010 4 764 757 765
1011 2 842 841 847
1012 2 842 841 848
1013 2 842 841 849
1014 4 847 841 848
1015 4 847 841 849
1016 4 848 841 849
1017 5 759 761 762
1018 5 733 734 735
1019 2 701 702 706
1020 2 701 702 707
1021 2 701 702 708
1022 4 706 702 707
1023 4 706 702 708
1024 4 707 702 708
1025 2 590 589 595
1026 2 590 589 596
1027 2 590 589 597
1028 4 595 589 596
1029 4 595 589 597
1030 4 596 589 597
1031 2 782 781 787
1032 2 782 781 788
1033 2 782 781 789
1034 4 787 781 788
1035 4 787 781 789
1036 4 788 781 789
1037 2 497 498 502
1038 2 497 498 503
1039 2 497 498 504
1040 4 502 498 503
1041 4 502 498 504
1042 4 503 498 504
1043 2 458 457 463
1044 2 458 457 464
1045 2 458 457 465
1046 4 463 457 464
1047 4 463 457 465
1048 4 464 457 465
1049 2 737 738 742
1050 2 737 738 743
1051 2 737 738 744
1052 4 742 738 743
1053 4 742 738 744
1054 4 743 738 744
1055 3 590 591 592
1056 6 590 591 593
1057 3 592 591 593
1058 5 363 365 366
1059 1 12 13 14
1060 2 365 366 370
1061 2 365 366 371
1062 2 365 366 372
1063 4 370 366 371
1064 4 370 366 372
1065 4 371 366 372
1066 2 785 786 790
1067 2 785 786 791
1068 2 785 786 792
1069 4 790 786 791
1070 4 790 786 792
1071 4 791 786 792
1072 3 734 735 736
1073 6 734 735 737
1074 3 736 735 737
1075 5 591 593 594
1076 2 941 942 946
1077 2 941 942 947
1078 2 941 942 948
1079 4 946 942 947
1080 4 946 942 948
1081 4 947 942 948
1082 3 458 459 460
1083 6 458 459 461
1084 3 460 459 461
1085 5 939 941 942
1086 5 457 458 459
1087 3 758 759 760
1088 6 758 759 761
1089 3 760 759 761
1090 5 783 785 786
1091 5 781 782 783
1092 3 698 699 700
1093 6 698 699 701
1094 3 700 699 701
1095 5 315 317 318
1096 2 734 733 739
1097 2 734 733 740
1098 2 734 733 741
1099 4 739 733 740
1100 4 739 733 741
1101 4 740 733 741
1102 2 317 318 322
1103 2 317 318 323
1104 2 317 318 324
1105 4 322 318 323
1106 4 322 318 324
1107 4 323 318 324
1108 3 782 783 784
1109 6 782 783 785
1110 3 784 783 785
1111 5 735 737 738
1112 2 461 462 466
1113 2 461 462 467
1114 2 461 462 468
1115 4 466 462 467
1116 4 466 462 468
1117 4 467 462 468
1118 5 459 461 462
1119 5 699 701 702
1120 1 12 11 16
1121 2 12 11 17
1122 2 12 11 18
1123 2 16 11 17
1124 2 16 11 18
1125 4 17 11 18
1126 1 11 12 13
1127 2 11 12 19
1128 2 11 12 20
1129 2 13 12 19
1130 2 13 12 20
1131 4 19 12 20
1132 5 589 590 591
1133 5 757 758 759
1134 3 722 723 724
1135 6 722 723 725
1136 3 724 723 725
1137 3 638 639 640
1138 6 638 639 641
1139 3 640 639 641
1140 5 637 638 639
1141 5 639 641 642
1142 2 641 642 646
1143 2 641 642 647
1144 2 641 642 648
1145 4 646 642 647
1146 4 646 642 648
1147 4 647 642 648
1148 3 103 104 105
1149 1 103 104 106
1150 3 105 104 106
1151 1 152 151 156
1152 2 152 151 157
1153 2 152 151 158
1154 2 156 151 157
1155 2 156 151 158
1156 4 157 151 158
1157 2 638 637 643
1158 2 638 637 644
1159 2 638 637 645
1160 4 643 637 644
1161 4 643 637 645
1162 4 644 637 645
1163 1 101 106 104
1164 2 626 625 631
1165 2 626 625 632
1166 2 626 625 633
1167 4 631 625 632
1168 4 631 625 633
1169 4 632 625 633
1170 5 625 626 627
1171 3 626 627 628
1172 6 626 627 629
1173 3 628 627 629
1174 1 151 152 153
1175 2 151 152 159
1176 2 151 152 160
1177 2 153 152 159
1178 2 153 152 160
1179 4 159 152 160
1180 3 902 903 904
1181 6 902 903 905
1182 3 904 903 905
1183 2 305 306 310
1184 2 305 306 311
1185 2 305 306 312
1186 4 310 306 311
1187 4 310 306 312
1188 4 311 306 312
1189 5 901 902 903
1190 1 102 103 104
1191 5 903 905 906
1192 5 303 305 306
1193 3 273 274 275
1194 1 273 274 276
1195 3 275 274 276
1196 1 271 276 274
1197 2 902 901 907
1198 2 902 901 908
1199 2 902 901 909
1200 4 907 901 908
1201 4 907 901 909
1202 4 908 901 909
1203 3 302 303 304
1204 6 302 303 305
1205 3 304 303 305
1206 5 627 629 630
1207 2 617 618 622
1208 2 617 618 623
1209 2 617 618 624
1210 4 622 618 623
1211 4 622 618 624
1212 4 623 618 624
1213 1 141 146 144
1214 2 905 906 910
1215 2 905 906 911
1216 2 905 906 912
1217 4 910 906 911
1218 4 910 906 912
1219 4 911 906 912
1220 1 152 153 154
1221 1 102 101 106
1222 2 102 101 107
1223 2 102 101 108
1224 2 106 101 107
1225 2 106 101 108
1226 4 107 101 108
1227 2 554 553 559
1228 2 554 553 560
1229 2 554 553 561
1230 4 559 553 560
1231 4 559 553 561
1232 4 560 553 561
1233 5 553 554 555
1234 2 473 474 478
1235 2 473 474 479
1236 2 473 474 480
1237 4 478 474 479
1238 4 478 474 480
1239 4 479 474 480
1240 1 101 102 103
1241 2 101 102 109
1242 2 101 102 110
1243 2 103 102 109
1244 2 103 102 110
1245 4 109 102 110
1246 2 878 877 883
1247 2 878 877 884
1248 2 878 877 885
1249 4 883 877 884
1250 4 883 877 885
1251 4 884 877 885
1252 2 818 817 823
1253 2 818 817 824
1254 2 818 817 825
1255 4 823 817 824
1256 4 823 817 825
1257 4 824 817 825
1258 5 817 818 819
1259 5 877 878 879
1260 2 950 949 955
1261 2 950 949 956
1262 2 950 949 957
1263 4 955 949 956
1264 4 955 949 957
1265 4 956 949 957
1266 5 925 926 927
1267 1 61 66 64
1268 5 721 722 723
1269 7 1000 1001 1002
1270 7 1000 1001 1003
1271 7 1000 1001 1004
1272 7 1002 1001 1003
1273 7 1002 1001 1004
1274 7 1003 1001 1004
1275 2 722 721 727
1276 2 722 721 728
1277 2 722 721 729
1278 4 727 721 728
1279 4 727 721 729
1280 4 728 721 729
1281 1 191 196 194
1282 1 232 233 234
1283 3 518 519 520
1284 6 518 519 521
1285 3 520 519 521
1286 1 231 236 234
1287 1 1 2 3
1288 2 1 2 9
1289 2 1 2 10
1290 2 3 2 9
1291 2 3 2 10
1292 4 9 2 10
1293 1 172 173 174
1294 1 1 6 4
1295 1 2 1 6
1296 2 2 1 7
1297 2 2 1 8
1298 2 6 1 7
1299 2 6 1 8
1300 4 7 1 8
1301 3 233 234 235
1302 1 233 234 236
1303 3 235 234 236
1304 3 173 174 175
1305 1 173 174 176
1306 3 175 174 176
1307 2 518 517 523
1308 2 518 517 524
1309 2 518 517 525
1310 4 523 517 524
1311 4 523 517 525
1312 4 524 517 525
1313 5 949 950 951
1314 3 950 951 952
1315 6 950 951 953
1316 3 952 951 953
1317 5 951 953 954
1318 2 953 954 958
1319 2 953 954 959
1320 2 953 954 960
1321 4 958 954 959
1322 4 958 954 960
1323 4 959 954 960
1324 1 171 176 174
1325 7 990 991 992
1326 7 990 991 993
1327 7 990 991 994
1328 7 992 991 993
1329 7 992 991 994
1330 7 993 991 994
1331 1 172 171 176
1332 2 172 171 177
1333 2 172 171 178
1334 2 176 171 177
1335 2 176 171 178
1336 4 177 171 178
1337 1 171 172 173
1338 2 171 172 179
1339 2 171 172 180
1340 2 173 172 179
1341 2 173 172 180
1342 4 179 172 180
1343 3 143 144 145
1344 1 143 144 146
1345 3 145 144 146
1346 1 232 231 236
1347 2 232 231 237
1348 2 232 231 238
1349 2 236 231 237
1350 2 236 231 238
1351 4 237 231 238
1352 3 530 531 532
1353 6 530 531 533
1354 3 532 531 533
1355 5 517 518 519
1356 2 926 925 931
1357 2 926 925 932
1358 2 926 925 933
1359 4 931 925 932
1360 4 931 925 933
1361 4 932 925 933
1362 1 231 232 233
1363 2 231 232 239
1364 2 231 232 240
1365 2 233 232 239
1366 2 233 232 240
1367 4 239 232 240
1368 5 843 845 846
1369 1 272 271 276
1370 2 272 271 277
1371 2 272 271 278
1372 2 276 271 277
1373 2 276 271 278
1374 4 277 271 278
1375 1 272 273 274
1376 5 397 398 399
1377 1 2 3 4
1378 5 531 533 534
1379 1 62 61 66
1380 2 62 61 67
1381 2 62 61 68
1382 2 66 61 67
1383 2 66 61 68
1384 4 67 61 68
1385 5 769 770 771
1386 1 151 156 154
1387 1 142 141 146
1388 2 142 141 147
1389 2 142 141 148
1390 2 146 141 147
1391 2 146 141 148
1392 4 147 141 148
1393 3 770 771 772
1394 6 770 771 773
1395 3 772 771 773
1396 3 3 4 5
1397 1 3 4 6
1398 3 5 4 6
1399 2 470 469 475
1400 2 470 469 476
1401 2 470 469 477
1402 4 475 469 476
1403 4 475 469 477
1404 4 476 469 477
1405 3 153 154 155
1406 1 153 154 156
1407 3 155 154 156
1408 3 93 94 95
1409 1 93 94 96
1410 3 95 94 96
1411 3 470 471 472
1412 6 470 471 473
1413 3 472 471 473
1414 5 529 530 531
1415 2 398 397 403
1416 2 398 397 404
1417 2 398 397 405
1418 4 403 397 404
1419 4 403 397 405
1420 4 404 397 405
1421 1 142 143 144
1422 3 494 495 496
1423 6 494 495 497
1424 3 496 495 497
1425 5 471 473 474
1426 5 493 494 495
1427 5 469 470 471
1428 5 841 842 843
1429 2 494 493 499
1430 2 494 493 500
1431 2 494 493 501
1432 4 499 493 500
1433 4 499 493 501
1434 4 500 493 501
1435 5 495 497 498
1436 2 530 529 535
1437 2 530 529 536
1438 2 530 529 537
1439 4 535 529 536
1440 4 535 529 537
1441 4 536 529 537
1442 2 845 846 850
1443 2 845 846 851
1444 2 845 846 852
1445 4 850 846 851
1446 4 850 846 852
1447 4 851 846 852
1448 1 91 96 94
1449 1 92 91 96
1450 2 92 91 97
1451 2 92 91 98
1452 2 96 91 97
1453 2 96 91 98
1454 4 97 91 98
1455 7 980 981 982
1456 7 980 981 983
1457 7 980 981 984
1458 7 982 981 983
1459 7 982 981 984
1460 7 983 981 984
1461 2 770 769 775
1462 2 770 769 776
1463 2 770 769 777
1464 4 775 769 776
1465 4 775 769 777
1466 4 776 769 777
1467 1 141 142 143
1468 2 141 142 149
1469 2 141 142 150
1470 2 143 142 149
1471 2 143 142 150
1472 4 149 142 150
1473 1 92 93 94
1474 2 557 558 562
1475 2 557 558 563
1476 2 557 558 564
1477 4 562 558 563
1478 4 562 558 564
1479 4 563 558 564
1480 3 842 843 844
1481 6 842 843 845
1482 3 844 843 845
1483 5 555 557 558
1484 1 91 92 93
1485 2 91 92 99
1486 2 91 92 100
1487 2 93 92 99
1488 2 93 92 100
1489 4 99 92 100
1490 3 554 555 556
1491 6 554 555 557
1492 3 556 555 557
1493 2 533 534 538
1494 2 533 534 539
1495 2 533 534 540
1496 4 538 534 539
1497 4 538 534 540
1498 4 539 534 540
1499 1 192 191 196
1500 2 192 191 197
1501 2 192 191 198
1502 2 196 191 197
1503 2 196 191 198
1504 4 197 191 198

Dihedrals

1 12 830 831 833 834
2 10 832 831 833 834
3 11 832 831 833 834
4 10 829 830 831 832
5 11 829 830 831 832
6 12 829 830 831 833
7 8 831 830 829 835
8 8 831 830 829 836
9 8 831 830 829 837
10 3 72 73 74 75
11 3 72 73 74 76
12 8 74 73 72 79
13 8 74 73 72 80
14 12 710 711 713 714
15 10 712 711 713 714
16 11 712 711 713 714
17 10 685 686 687 688
18 11 685 686 687 688
19 12 685 686 687 689
20 8 687 686 685 691
21 8 687 686 685 692
22 8 687 686 685 693
23 3 71 76 74 73
24 3 71 76 74 75
25 8 74 76 71 77
26 8 74 76 71 78
27 1 72 71 76 74
28 2 72 71 76 74
29 6 76 71 72 79
30 7 76 71 72 79
31 6 76 71 72 80
32 7 76 71 72 80
33 9 77 71 72 79
34 9 77 71 72 80
35 9 78 71 72 79
36 9 78 71 72 80
37 8 711 713 714 718
38 8 711 713 714 719
39 8 711 713 714 720
40 10 709 710 711 712
41 11 709 710 711 712
42 12 709 710 711 713
43 8 711 710 709 715
44 8 711 710 709 716
45 8 711 710 709 717
46 12 686 687 689 690
47 10 688 687 689 690
48 11 688 687 689 690
49 1 71 72 73 74
50 2 71 72 73 74
51 4 73 72 71 76
52 5 73 72 71 76
53 6 73 72 71 77
54 7 73 72 71 77
55 6 73 72 71 78
56 7 73 72 71 78
57 8 387 389 390 394
58 8 387 389 390 395
59 8 387 389 390 396
60 8 831 833 834 838
61 8 831 833 834 839
62 8 831 833 834 840
63 10 961 962 963 964
64 11 961 962 963 964
65 12 961 962 963 965
66 8 963 962 961 967
67 8 963 962 961 968
68 8 963 962 961 969
69 3 201 206 204 203
70 3 201 206 204 205
71 8 204 206 201 207
72 8 204 206 201 208
73 12 962 963 965 966
74 10 964 963 965 966
75 11 964 963 965 966
76 8 579 581 582 586
77 8 579 581 582 587
78 8 579 581 582 588
79 8 687 689 690 694
80 8 687 689 690 695
81 8 687 689 690 696
82 8 855 857 858 862
83 8 855 857 858 863
84 8 855 857 858 864
85 8 747 749 750 754
86 8 747 749 750 755
87 8 747 749 750 756
88 8 927 929 930 934
89 8 927 929 930 935
90 8 927 929 930 936
91 1 202 201 206 204
92 2 202 201 206 204
93 6 206 201 202 209
94 7 206 201 202 209
95 6 206 201 202 210
96 7 206 201 202 210
97 9 207 201 202 209
98 9 207 201 202 210
99 9 208 201 202 209
100 9 208 201 202 210
101 3 281 286 284 283
102 3 281 286 284 285
103 8 284 286 281 287
104 8 284 286 281 288
105 12 386 387 389 390
106 10 388 387 389 390
107 11 388 387 389 390
108 1 201 202 203 204
109 2 201 202 203 204
110 4 203 202 201 206
111 5 203 202 201 206
112 6 203 202 201 207
113 7 203 202 201 207
114 6 203 202 201 208
115 7 203 202 201 208
116 10 385 386 387 388
117 11 385 386 387 388
118 12 385 386 387 389
119 8 387 386 385 391
120 8 387 386 385 392
121 8 387 386 385 393
122 12 854 855 857 858
123 10 856 855 857 858
124 11 856 855 857 858
125 8 447 449 450 454
126 8 447 449 450 455
127 8 447 449 450 456
128 1 31 32 33 34
129 2 31 32 33 34
130 4 33 32 31 36
131 5 33 32 31 36
132 6 33 32 31 37
133 7 33 32 31 37
134 6 33 32 31 38
135 7 33 32 31 38
136 8 807 809 810 814
137 8 807 809 810 815
138 8 807 809 810 816
139 12 806 807 809 810
140 10 808 807 809 810
141 11 808 807 809 810
142 10 853 854 855 856
143 11 853 854 855 856
144 12 853 854 855 857
145 8 855 854 853 859
146 8 855 854 853 860
147 8 855 854 853 861
148 10 349 350 351 352
149 11 349 350 351 352
150 12 349 350 351 353
151 8 351 350 349 355
152 8 351 350 349 356
153 8 351 350 349 357
154 1 32 31 36 34
155 2 32 31 36 34
156 6 36 31 32 39
157 7 36 31 32 39
158 6 36 31 32 40
159 7 36 31 32 40
160 9 37 31 32 39
161 9 37 31 32 40
162 9 38 31 32 39
163 9 38 31 32 40
164 3 31 36 34 33
165 3 31 36 34 35
166 8 34 36 31 37
167 8 34 36 31 38
168 10 745 746 747 748
169 11 745 746 747 748
170 12 745 746 747 749
171 8 747 746 745 751
172 8 747 746 745 752
173 8 747 746 745 753
174 12 662 663 665 666
175 10 664 663 665 666
176 11 664 663 665 666
177 3 32 33 34 35
178 3 32 33 34 36
179 8 34 33 32 39
180 8 34 33 32 40
181 10 661 662 663 664
182 11 661 662 663 664
183 12 661 662 663 665
184 8 663 662 661 667
185 8 663 662 661 668
186 8 663 662 661 669
187 8 663 665 666 670
188 8 663 665 666 671
189 8 663 665 666 672
190 10 805 806 807 808
191 11 805 806 807 808
192 12 805 806 807 809
193 8 807 806 805 811
194 8 807 806 805 812
195 8 807 806 805 813
196 3 202 203 204 205
197 3 202 203 204 206
198 8 204 203 202 209
199 8 204 203 202 210
200 12 446 447 449 450
201 10 448 447 449 450
202 11 448 447 449 450
203 3 251 256 254 253
204 3 251 256 254 255
205 8 254 256 251 257
206 8 254 256 251 258
207 3 252 253 254 255
208 3 252 253 254 256
209 8 254 253 252 259
210 8 254 253 252 260
211 10 445 446 447 448
212 11 445 446 447 448
213 12 445 446 447 449
214 8 447 446 445 451
215 8 447 446 445 452
216 8 447 446 445 453
217 12 746 747 749 750
218 10 748 747 749 750
219 11 748 747 749 750
220 1 251 252 253 254
221 2 251 252 253 254
222 4 253 252 251 256
223 5 253 252 251 256
224 6 253 252 251 257
225 7 253 252 251 257
226 6 253 252 251 258
227 7 253 252 251 258
228 12 350 351 353 354
229 10 352 351 353 354
230 11 352 351 353 354
231 3 82 83 84 85
232 3 82 83 84 86
233 8 84 83 82 89
234 8 84 83 82 90
235 10 865 866 867 868
236 11 865 866 867 868
237 12 865 866 867 869
238 8 867 866 865 871
239 8 867 866 865 872
240 8 867 866 865 873
241 12 314 315 317 318
242 10 316 315 317 318
243 11 316 315 317 318
244 1 41 42 43 44
245 2 41 42 43 44
246 4 43 42 41 46
247 5 43 42 41 46
248 6 43 42 41 47
249 7 43 42 41 47
250 6 43 42 41 48
251 7 43 42 41 48
252 3 222 223 224 225
253 3 222 223 224 226
254 8 224 223 222 229
255 8 224 223 222 230
256 1 252 251 256 254
257 2 252 251 256 254
258 6 256 251 252 259
259 7 256 251 252 259
260 6 256 251 252 260
261 7 256 251 252 260
262 9 257 251 252 259
263 9 257 251 252 260
264 9 258 251 252 259
265 9 258 251 252 260
266 3 221 226 224 223
267 3 221 226 224 225
268 8 224 226 221 227
269 8 224 226 221 228
270 8 963 965 966 970
271 8 963 965 966 971
272 8 963 965 966 972
273 3 42 43 44 45
274 3 42 43 44 46
275 8 44 43 42 49
276 8 44 43 42 50
277 3 41 46 44 43
278 3 41 46 44 45
279 8 44 46 41 47
280 8 44 46 41 48
281 10 361 362 363 364
282 11 361 362 363 364
283 12 361 362 363 365
284 8 363 362 361 367
285 8 363 362 361 368
286 8 363 362 361 369
287 8 867 869 870 874
288 8 867 869 870 875
289 8 867 869 870 876
290 1 81 82 83 84
291 2 81 82 83 84
292 4 83 82 81 86
293 5 83 82 81 86
294 6 83 82 81 87
295 7 83 82 81 87
296 6 83 82 81 88
297 7 83 82 81 88
298 12 362 363 365 366
299 10 364 363 365 366
300 11 364 363 365 366
301 3 81 86 84 83
302 3 81 86 84 85
303 8 84 86 81 87
304 8 84 86 81 88
305 1 82 81 86 84
306 2 82 81 86 84
307 6 86 81 82 89
308 7 86 81 82 89
309 6 86 81 82 90
310 7 86 81 82 90
311 9 87 81 82 89
312 9 87 81 82 90
313 9 88 81 82 89
314 9 88 81 82 90
315 1 42 41 46 44
316 2 42 41 46 44
317 6 46 41 42 49
318 7 46 41 42 49
319 6 46 41 42 50
320 7 46 41 42 50
321 9 47 41 42 49
322 9 47 41 42 50
323 9 48 41 42 49
324 9 48 41 42 50
325 12 866 867 869 870
326 10 868 867 869 870
327 11 868 867 869 870
328 10 613 614 615 616
329 11 613 614 615 616
330 12 613 614 615 617
331 8 615 614 613 619
332 8 615 614 613 620
333 8 615 614 613 621
334 12 602 603 605 606
335 10 604 603 605 606
336 11 604 603 605 606
337 12 326 327 329 330
338 10 328 327 329 330
339 11 328 327 329 330
340 12 794 795 797 798
341 10 796 795 797 798
342 11 796 795 797 798
343 8 795 797 798 802
344 8 795 797 798 803
345 8 795 797 798 804
346 8 603 605 606 610
347 8 603 605 606 611
348 8 603 605 606 612
349 10 601 602 603 604
350 11 601 602 603 604
351 12 601 602 603 605
352 8 603 602 601 607
353 8 603 602 601 608
354 8 603 602 601 609
355 8 399 401 402 406
356 8 399 401 402 407
357 8 399 401 402 408
358 8 327 329 330 334
359 8 327 329 330 335
360 8 327 329 330 336
361 1 161 162 163 164
362 2 161 162 163 164
363 4 163 162 161 166
364 5 163 162 161 166
365 6 163 162 161 167
366 7 163 162 161 167
367 6 163 162 161 168
368 7 163 162 161 168
369 1 51 52 53 54
370 2 51 52 53 54
371 4 53 52 51 56
372 5 53 52 51 56
373 6 53 52 51 57
374 7 53 52 51 57
375 6 53 52 51 58
376 7 53 52 51 58
377 12 614 615 617 618
378 10 616 615 617 618
379 11 616 615 617 618
380 3 211 216 214 213
381 3 211 216 214 215
382 8 214 216 211 217
383 8 214 216 211 218
384 8 915 917 918 922
385 8 915 917 918 923
386 8 915 917 918 924
387 12 398 399 401 402
388 10 400 399 401 402
389 11 400 399 401 402
390 12 914 915 917 918
391 10 916 915 917 918
392 11 916 915 917 918
393 10 325 326 327 328
394 11 325 326 327 328
395 12 325 326 327 329
396 8 327 326 325 331
397 8 327 326 325 332
398 8 327 326 325 333
399 8 567 569 570 574
400 8 567 569 570 575
401 8 567 569 570 576
402 8 483 485 486 490
403 8 483 485 486 491
404 8 483 485 486 492
405 3 52 53 54 55
406 3 52 53 54 56
407 8 54 53 52 59
408 8 54 53 52 60
409 1 281 282 283 284
410 2 281 282 283 284
411 4 283 282 281 286
412 5 283 282 281 286
413 6 283 282 281 287
414 7 283 282 281 287
415 6 283 282 281 288
416 7 283 282 281 288
417 10 793 794 795 796
418 11 793 794 795 796
419 12 793 794 795 797
420 8 795 794 793 799
421 8 795 794 793 800
422 8 795 794 793 801
423 1 242 241 246 244
424 2 242 241 246 244
425 6 246 241 242 249
426 7 246 241 242 249
427 6 246 241 242 250
428 7 246 241 242 250
429 9 247 241 242 249
430 9 247 241 242 250
431 9 248 241 242 249
432 9 248 241 242 250
433 8 819 821 822 826
434 8 819 821 822 827
435 8 819 821 822 828
436 10 301 302 303 304
437 11 301 302 303 304
438 12 301 302 303 305
439 8 303 302 301 307
440 8 303 302 301 308
441 8 303 302 301 309
442 1 162 161 166 164
443 2 162 161 166 164
444 6 166 161 162 169
445 7 166 161 162 169
446 6 166 161 162 170
447 7 166 161 162 170
448 9 167 161 162 169
449 9 167 161 162 170
450 9 168 161 162 169
451 9 168 161 162 170
452 3 162 163 164 165
453 3 162 163 164 166
454 8 164 163 162 169
455 8 164 163 162 170
456 1 52 51 56 54
457 2 52 51 56 54
458 6 56 51 52 59
459 7 56 51 52 59
460 6 56 51 52 60
461 7 56 51 52 60
462 9 57 51 52 59
463 9 57 51 52 60
464 9 58 51 52 59
465 9 58 51 52 60
466 1 212 211 216 214
467 2 212 211 216 214
468 6 216 211 212 219
469 7 216 211 212 219
470 6 216 211 212 220
471 7 216 211 212 220
472 9 217 211 212 219
473 9 217 211 212 220
474 9 218 211 212 219
475 9 218 211 212 220
476 12 818 819 821 822
477 10 820 819 821 822
478 11 820 819 821 822
479 3 241 246 244 243
480 3 241 246 244 245
481 8 244 246 241 247
482 8 244 246 241 248
483 3 161 166 164 163
484 3 161 166 164 165
485 8 164 166 161 167
486 8 164 166 161 168
487 3 51 56 54 53
488 3 51 56 54 55
489 8 54 56 51 57
490 8 54 56 51 58
491 3 212 213 214 215
492 3 212 213 214 216
493 8 214 213 212 219
494 8 214 213 212 220
495 1 211 212 213 214
496 2 211 212 213 214
497 4 213 212 211 216
498 5 213 212 211 216
499 6 213 212 211 217
500 7 213 212 211 217
501 6 213 212 211 218
502 7 213 212 211 218
503 1 241 242 243 244
504 2 241 242 243 244
505 4 243 242 241 246
506 5 243 242 241 246
507 6 243 242 241 247
508 7 243 242 241 247
509 6 243 242 241 248
510 7 243 242 241 248
511 10 541 542 543 544
512 11 541 542 543 544
513 12 541 542 543 545
514 8 543 542 541 547
515 8 543 542 541 548
516 8 543 542 541 549
517 8 543 545 546 550
518 8 543 545 546 551
519 8 543 545 546 552
520 12 542 543 545 546
521 10 544 543 545 546
522 11 544 543 545 546
523 1 132 131 136 134
524 2 132 131 136 134
525 6 136 131 132 139
526 7 136 131 132 139
527 6 136 131 132 140
528 7 136 131 132 140
529 9 137 131 132 139
530 9 137 131 132 140
531 9 138 131 132 139
532 9 138 131 132 140
533 1 131 132 133 134
534 2 131 132 133 134
535 4 133 132 131 136
536 5 133 132 131 136
537 6 133 132 131 137
538 7 133 132 131 137
539 6 133 132 131 138
540 7 133 132 131 138
541 1 111 112 113 114
542 2 111 112 113 114
543 4 113 112 111 116
544 5 113 112 111 116
545 6 113 112 111 117
546 7 113 112 111 117
547 6 113 112 111 118
548 7 113 112 111 118
549 3 112 113 114 115
550 3 112 113 114 116
551 8 114 113 112 119
552 8 114 113 112 120
553 12 434 435 437 438
554 10 436 435 437 438
555 11 436 435 437 438
556 10 433 434 435 436
557 11 433 434 435 436
558 12 433 434 435 437
559 8 435 434 433 439
560 8 435 434 433 440
561 8 435 434 433 441
562 3 242 243 244 245
563 3 242 243 244 246
564 8 244 243 242 249
565 8 244 243 242 250
566 8 435 437 438 442
567 8 435 437 438 443
568 8 435 437 438 444
569 1 112 111 116 114
570 2 112 111 116 114
571 6 116 111 112 119
572 7 116 111 112 119
573 6 116 111 112 120
574 7 116 111 112 120
575 9 117 111 112 119
576 9 117 111 112 120
577 9 118 111 112 119
578 9 118 111 112 120
579 3 111 116 114 113
580 3 111 116 114 115
581 8 114 116 111 117
582 8 114 116 111 118
583 3 132 133 134 135
584 3 132 133 134 136
585 8 134 133 132 139
586 8 134 133 132 140
587 3 131 136 134 133
588 3 131 136 134 135
589 8 134 136 131 137
590 8 134 136 131 138
591 8 519 521 522 526
592 8 519 521 522 527
593 8 519 521 522 528
594 1 271 272 273 274
595 2 271 272 273 274
596 4 273 272 271 276
597 5 273 272 271 276
598 6 273 272 271 277
599 7 273 272 271 277
600 6 273 272 271 278
601 7 273 272 271 278
602 3 282 283 284 285
603 3 282 283 284 286
604 8 284 283 282 289
605 8 284 283 282 290
606 1 221 222 223 224
607 2 221 222 223 224
608 4 223 222 221 226
609 5 223 222 221 226
610 6 223 222 221 227
611 7 223 222 221 227
612 6 223 222 221 228
613 7 223 222 221 228
614 12 578 579 581 582
615 10 580 579 581 582
616 11 580 579 581 582
617 1 292 291 296 294
618 2 292 291 296 294
619 6 296 291 292 299
620 7 296 291 292 299
621 6 296 291 292 300
622 7 296 291 292 300
623 9 297 291 292 299
624 9 297 291 292 300
625 9 298 291 292 299
626 9 298 291 292 300
627 1 291 292 293 294
628 2 291 292 293 294
629 4 293 292 291 296
630 5 293 292 291 296
631 6 293 292 291 297
632 7 293 292 291 297
633 6 293 292 291 298
634 7 293 292 291 298
635 10 421 422 423 424
636 11 421 422 423 424
637 12 421 422 423 425
638 8 423 422 421 427
639 8 423 422 421 428
640 8 423 422 421 429
641 10 577 578 579 580
642 11 577 578 579 580
643 12 577 578 579 581
644 8 579 578 577 583
645 8 579 578 577 584
646 8 579 578 577 585
647 3 291 296 294 293
648 3 291 296 294 295
649 8 294 296 291 297
650 8 294 296 291 298
651 3 292 293 294 295
652 3 292 293 294 296
653 8 294 293 292 299
654 8 294 293 292 300
655 12 674 675 677 678
656 10 676 675 677 678
657 11 676 675 677 678
658 8 771 773 774 778
659 8 771 773 774 779
660 8 771 773 774 780
661 10 481 482 483 484
662 11 481 482 483 484
663 12 481 482 483 485
664 8 483 482 481 487
665 8 483 482 481 488
666 8 483 482 481 489
667 10 373 374 375 376
668 11 373 374 375 376
669 12 373 374 375 377
670 8 375 374 373 379
671 8 375 374 373 380
672 8 375 374 373 381
673 12 566 567 569 570
674 10 568 567 569 570
675 11 568 567 569 570
676 12 374 375 377 378
677 10 376 375 377 378
678 11 376 375 377 378
679 10 913 914 915 916
680 11 913 914 915 916
681 12 913 914 915 917
682 8 915 914 913 919
683 8 915 914 913 920
684 8 915 914 913 921
685 10 673 674 675 676
686 11 673 674 675 676
687 12 673 674 675 677
688 8 675 674 673 679
689 8 675 674 673 680
690 8 675 674 673 681
691 10 565 566 567 568
692 11 565 566 567 568
693 12 565 566 567 569
694 8 567 566 565 571
695 8 567 566 565 572
696 8 567 566 565 573
697 8 675 677 678 682
698 8 675 677 678 683
699 8 675 677 678 684
700 1 222 221 226 224
701 2 222 221 226 224
702 6 226 221 222 229
703 7 226 221 222 229
704 6 226 221 222 230
705 7 226 221 222 230
706 9 227 221 222 229
707 9 227 221 222 230
708 9 228 221 222 229
709 9 228 221 222 230
710 8 615 617 618 622
711 8 615 617 618 623
712 8 615 617 618 624
713 8 375 377 378 382
714 8 375 377 378 383
715 8 375 377 378 384
716 12 482 483 485 486
717 10 484 483 485 486
718 11 484 483 485 486
719 8 423 425 426 430
720 8 423 425 426 431
721 8 423 425 426 432
722 12 422 423 425 426
723 10 424 423 425 426
724 11 424 423 425 426
725 10 313 314 315 316
726 11 313 314 315 316
727 12 313 314 315 317
728 8 315 314 313 319
729 8 315 314 313 320
730 8 315 314 313 321
731 1 282 281 286 284
732 2 282 281 286 284
733 6 286 281 282 289
734 7 286 281 282 289
735 6 286 281 282 290
736 7 286 281 282 290
737 9 287 281 282 289
738 9 287 281 282 290
739 9 288 281 282 289
740 9 288 281 282 290
741 1 262 261 266 264
742 2 262 261 266 264
743 6 266 261 262 269
744 7 266 261 262 269
745 6 266 261 262 270
746 7 266 261 262 270
747 9 267 261 262 269
748 9 267 261 262 270
749 9 268 261 262 269
750 9 268 261 262 270
751 3 261 266 264 263
752 3 261 266 264 265
753 8 264 266 261 267
754 8 264 266 261 268
755 1 261 262 263 264
756 2 261 262 263 264
757 4 263 262 261 266
758 5 263 262 261 266
759 6 263 262 261 267
760 7 263 262 261 267
761 6 263 262 261 268
762 7 263 262 261 268
763 12 338 339 341 342
764 10 340 339 341 342
765 11 340 339 341 342
766 3 22 23 24 25
767 3 22 23 24 26
768 8 24 23 22 29
769 8 24 23 22 30
770 10 337 338 339 340
771 11 337 338 339 340
772 12 337 338 339 341
773 8 339 338 337 343
774 8 339 338 337 344
775 8 339 338 337 345
776 8 339 341 342 346
777 8 339 341 342 347
778 8 339 341 342 348
779 1 21 22 23 24
780 2 21 22 23 24
781 4 23 22 21 26
782 5 23 22 21 26
783 6 23 22 21 27
784 7 23 22 21 27
785 6 23 22 21 28
786 7 23 22 21 28
787 1 22 21 26 24
788 2 22 21 26 24
789 6 26 21 22 29
790 7 26 21 22 29
791 6 26 21 22 30
792 7 26 21 22 30
793 9 27 21 22 29
794 9 27 21 22 30
795 9 28 21 22 29
796 9 28 21 22 30
797 3 21 26 24 23
798 3 21 26 24 25
799 8 24 26 21 27
800 8 24 26 21 28
801 8 891 893 894 898
802 8 891 893 894 899
803 8 891 893 894 900
804 12 650 651 653 654
805 10 652 651 653 654
806 11 652 651 653 654
807 8 651 653 654 658
808 8 651 653 654 659
809 8 651 653 654 660
810 12 878 879 881 882
811 10 880 879 881 882
812 11 880 879 881 882
813 12 938 939 941 942
814 10 940 939 941 942
815 11 940 939 941 942
816 10 649 650 651 652
817 11 649 650 651 652
818 12 649 650 651 653
819 8 651 650 649 655
820 8 651 650 649 656
821 8 651 650 649 657
822 8 879 881 882 886
823 8 879 881 882 887
824 8 879 881 882 888
825 1 121 122 123 124
826 2 121 122 123 124
827 4 123 122 121 126
828 5 123 122 121 126
829 6 123 122 121 127
830 7 123 122 121 127
831 6 123 122 121 128
832 7 123 122 121 128
833 12 890 891 893 894
834 10 892 891 893 894
835 11 892 891 893 894
836 10 505 506 507 508
837 11 505 506 507 508
838 12 505 506 507 509
839 8 507 506 505 511
840 8 507 506 505 512
841 8 507 506 505 513
842 3 182 183 184 185
843 3 182 183 184 186
844 8 184 183 182 189
845 8 184 183 182 190
846 1 181 182 183 184
847 2 181 182 183 184
848 4 183 182 181 186
849 5 183 182 181 186
850 6 183 182 181 187
851 7 183 182 181 187
852 6 183 182 181 188
853 7 183 182 181 188
854 10 937 938 939 940
855 11 937 938 939 940
856 12 937 938 939 941
857 8 939 938 937 943
858 8 939 938 937 944
859 8 939 938 937 945
860 8 723 725 726 730
861 8 723 725 726 731
862 8 723 725 726 732
863 10 697 698 699 700
864 11 697 698 699 700
865 12 697 698 699 701
866 8 699 698 697 703
867 8 699 698 697 704
868 8 699 698 697 705
869 3 262 263 264 265
870 3 262 263 264 266
871 8 264 263 262 269
872 8 264 263 262 270
873 12 926 927 929 930
874 10 928 927 929 930
875 11 928 927 929 930
876 1 191 192 193 194
877 2 191 192 193 194
878 4 193 192 191 196
879 5 193 192 191 196
880 6 193 192 191 197
881 7 193 192 191 197
882 6 193 192 191 198
883 7 193 192 191 198
884 3 192 193 194 195
885 3 192 193 194 196
886 8 194 193 192 199
887 8 194 193 192 200
888 1 122 121 126 124
889 2 122 121 126 124
890 6 126 121 122 129
891 7 126 121 122 129
892 6 126 121 122 130
893 7 126 121 122 130
894 9 127 121 122 129
895 9 127 121 122 130
896 9 128 121 122 129
897 9 128 121 122 130
898 8 411 413 414 418
899 8 411 413 414 419
900 8 411 413 414 420
901 12 410 411 413 414
902 10 412 411 413 414
903 11 412 411 413 414
904 10 409 410 411 412
905 11 409 410 411 412
906 12 409 410 411 413
907 8 411 410 409 415
908 8 411 410 409 416
909 8 411 410 409 417
910 3 181 186 184 183
911 3 181 186 184 185
912 8 184 186 181 187
913 8 184 186 181 188
914 8 507 509 510 514
915 8 507 509 510 515
916 8 507 509 510 516
917 12 506 507 509 510
918 10 508 507 509 510
919 11 508 507 509 510
920 1 182 181 186 184
921 2 182 181 186 184
922 6 186 181 182 189
923 7 186 181 182 189
924 6 186 181 182 190
925 7 186 181 182 190
926 9 187 181 182 189
927 9 187 181 182 190
928 9 188 181 182 189
929 9 188 181 182 190
930 3 121 126 124 123
931 3 121 126 124 125
932 8 124 126 121 127
933 8 124 126 121 128
934 3 62 63 64 65
935 3 62 63 64 66
936 8 64 63 62 69
937 8 64 63 62 70
938 10 889 890 891 892
939 11 889 890 891 892
940 12 889 890 891 893
941 8 891 890 889 895
942 8 891 890 889 896
943 8 891 890 889 897
944 8 351 353 354 358
945 8 351 353 354 359
946 8 351 353 354 360
947 1 61 62 63 64
948 2 61 62 63 64
949 4 63 62 61 66
950 5 63 62 61 66
951 6 63 62 61 67
952 7 63 62 61 67
953 6 63 62 61 68
954 7 63 62 61 68
955 3 122 123 124 125
956 3 122 123 124 126
957 8 124 123 122 129
958 8 124 123 122 130
959 3 11 16 14 13
960 3 11 16 14 15
961 8 14 16 11 17
962 8 14 16 11 18
963 8 759 761 762 766
964 8 759 761 762 767
965 8 759 761 762 768
966 10 733 734 735 736
967 11 733 734 735 736
968 12 733 734 735 737
969 8 735 734 733 739
970 8 735 734 733 740
971 8 735 734 733 741
972 12 590 591 593 594
973 10 592 591 593 594
974 11 592 591 593 594
975 8 363 365 366 370
976 8 363 365 366 371
977 8 363 365 366 372
978 3 12 13 14 15
979 3 12 13 14 16
980 8 14 13 12 19
981 8 14 13 12 20
982 12 734 735 737 738
983 10 736 735 737 738
984 11 736 735 737 738
985 8 591 593 594 598
986 8 591 593 594 599
987 8 591 593 594 600
988 12 458 459 461 462
989 10 460 459 461 462
990 11 460 459 461 462
991 8 939 941 942 946
992 8 939 941 942 947
993 8 939 941 942 948
994 10 457 458 459 460
995 11 457 458 459 460
996 12 457 458 459 461
997 8 459 458 457 463
998 8 459 458 457 464
999 8 459 458 457 465
1000 12 758 759 761 762
1001 10 760 759 761 762
1002 11 760 759 761 762
1003 8 783 785 786 790
1004 8 783 785 786 791
1005 8 783 785 786 792
1006 10 781 782 783 784
1007 11 781 782 783 784
1008 12 781 782 783 785
1009 8 783 782 781 787
1010 8 783 782 781 788
1011 8 783 782 781 789
1012 12 698 699 701 702
1013 10 700 699 701 702
1014 11 700 699 701 702
1015 8 315 317 318 322
1016 8 315 317 318 323
1017 8 315 317 318 324
1018 12 782 783 785 786
1019 10 784 783 785 786
1020 11 784 783 785 786
1021 8 735 737 738 742
1022 8 735 737 738 743
1023 8 735 737 738 744
1024 8 459 461 462 466
1025 8 459 461 462 467
1026 8 459 461 462 468
1027 8 699 701 702 706
1028 8 699 701 702 707
1029 8 699 701 702 708
1030 1 12 11 16 14
1031 2 12 11 16 14
1032 6 16 11 12 19
1033 7 16 11 12 19
1034 6 16 11 12 20
1035 7 16 11 12 20
1036 9 17 11 12 19
1037 9 17 11 12 20
1038 9 18 11 12 19
1039 9 18 11 12 20
1040 1 11 12 13 14
1041 2 11 12 13 14
1042 4 13 12 11 16
1043 5 13 12 11 16
1044 6 13 12 11 17
1045 7 13 12 11 17
1046 6 13 12 11 18
1047 7 13 12 11 18
1048 10 589 590 591 592
1049 11 589 590 591 592
1050 12 589 590 591 593
1051 8 591 590 589 595
1052 8 591 590 589 596
1053 8 591 590 589 597
1054 10 757 758 759 760
1055 11 757 758 759 760
1056 12 757 758 759 761
1057 8 759 758 757 763
1058 8 759 758 757 764
1059 8 759 758 757 765
1060 12 722 723 725 726
1061 10 724 723 725 726
1062 11 724 723 725 726
1063 12 638 639 641 642
1064 10 640 639 641 642
1065 11 640 639 641 642
1066 10 637 638 639 640
1067 11 637 638 639 640
1068 12 637 638 639 641
1069 8 639 638 637 643
1070 8 639 638 637 644
1071 8 639 638 637 645
1072 8 639 641 642 646
1073 8 639 641 642 647
1074 8 639 641 642 648
1075 1 152 151 156 154
1076 2 152 151 156 154
1077 6 156 151 152 159
1078 7 156 151 152 159
1079 6 156 151 152 160
1080 7 156 151 152 160
1081 9 157 151 152 159
1082 9 157 151 152 160
1083 9 158 151 152 159
1084 9 158 151 152 160
1085 3 101 106 104 103
1086 3 101 106 104 105
1087 8 104 106 101 107
1088 8 104 106 101 108
1089 10 625 626 627 628
1090 11 625 626 627 628
1091 12 625 626 627 629
1092 8 627 626 625 631
1093 8 627 626 625 632
1094 8 627 626 625 633
1095 12 626 627 629 630
1096 10 628 627 629 630
1097 11 628 627 629 630
1098 1 151 152 153 154
1099 2 151 152 153 154
1100 4 153 152 151 156
1101 5 153 152 151 156
1102 6 153 152 151 157
1103 7 153 152 151 157
1104 6 153 152 151 158
1105 7 153 152 151 158
1106 12 902 903 905 906
1107 10 904 903 905 906
1108 11 904 903 905 906
1109 10 901 902 903 904
1110 11 901 902 903 904
1111 12 901 902 903 905
1112 8 903 902 901 907
1113 8 903 902 901 908
1114 8 903 902 901 909
1115 3 102 103 104 105
1116 3 102 103 104 106
1117 8 104 103 102 109
1118 8 104 103 102 110
1119 8 903 905 906 910
1120 8 903 905 906 911
1121 8 903 905 906 912
1122 8 303 305 306 310
1123 8 303 305 306 311
1124 8 303 305 306 312
1125 3 271 276 274 273
1126 3 271 276 274 275
1127 8 274 276 271 277
1128 8 274 276 271 278
1129 12 302 303 305 306
1130 10 304 303 305 306
1131 11 304 303 305 306
1132 8 627 629 630 634
1133 8 627 629 630 635
1134 8 627 629 630 636
1135 3 141 146 144 143
1136 3 141 146 144 145
1137 8 144 146 141 147
1138 8 144 146 141 148
1139 3 152 153 154 155
1140 3 152 153 154 156
1141 8 154 153 152 159
1142 8 154 153 152 160
1143 1 102 101 106 104
1144 2 102 101 106 104
1145 6 106 101 102 109
1146 7 106 101 102 109
1147 6 106 101 102 110
1148 7 106 101 102 110
1149 9 107 101 102 109
1150 9 107 101 102 110
1151 9 108 101 102 109
1152 9 108 101 102 110
1153 10 553 554 555 556
1154 11 553 554 555 556
1155 12 553 554 555 557
1156 8 555 554 553 559
1157 8 555 554 553 560
1158 8 555 554 553 561
1159 1 101 102 103 104
1160 2 101 102 103 104
1161 4 103 102 101 106
1162 5 103 102 101 106
1163 6 103 102 101 107
1164 7 103 102 101 107
1165 6 103 102 101 108
1166 7 103 102 101 108
1167 10 817 818 819 820
1168 11 817 818 819 820
1169 12 817 818 819 821
1170 8 819 818 817 823
1171 8 819 818 817 824
1172 8 819 818 817 825
1173 10 877 878 879 880
1174 11 877 878 879 880
1175 12 877 878 879 881
1176 8 879 878 877 883
1177 8 879 878 877 884
1178 8 879 878 877 885
1179 10 925 926 927 928
1180 11 925 926 927 928
1181 12 925 926 927 929
1182 8 927 926 925 931
1183 8 927 926 925 932
1184 8 927 926 925 933
1185 3 61 66 64 63
1186 3 61 66 64 65
1187 8 64 66 61 67
1188 8 64 66 61 68
1189 10 721 722 723 724
1190 11 721 722 723 724
1191 12 721 722 723 725
1192 8 723 722 721 727
1193 8 723 722 721 728
1194 8 723 722 721 729
1195 3 191 196 194 193
1196 3 191 196 194 195
1197 8 194 196 191 197
1198 8 194 196 191 198
1199 3 232 233 234 235
1200 3 232 233 234 236
1201 8 234 233 232 239
1202 8 234 233 232 240
1203 12 518 519 521 522
1204 10 520 519 521 522
1205 11 520 519 521 522
1206 3 231 236 234 233
1207 3 231 236 234 235
1208 8 234 236 231 237
1209 8 234 236 231 238
1210 1 1 2 3 4
1211 2 1 2 3 4
1212 4 3 2 1 6
1213 5 3 2 1 6
1214 6 3 2 1 7
1215 7 3 2 1 7
1216 6 3 2 1 8
1217 7 3 2 1 8
1218 3 172 173 174 175
1219 3 172 173 174 176
1220 8 174 173 172 179
1221 8 174 173 172 180
1222 3 1 6 4 3
1223 3 1 6 4 5
1224 8 4 6 1 7
1225 8 4 6 1 8
1226 1 2 1 6 4
1227 2 2 1 6 4
1228 6 6 1 2 9
1229 7 6 1 2 9
1230 6 6 1 2 10
1231 7 6 1 2 10
1232 9 7 1 2 9
1233 9 7 1 2 10
1234 9 8 1 2 9
1235 9 8 1 2 10
1236 10 949 950 951 952
1237 11 949 950 951 952
1238 12 949 950 951 953
1239 8 951 950 949 955
1240 8 951 950 949 956
1241 8 951 950 949 957
1242 12 950 951 953 954
1243 10 952 951 953 954
1244 11 952 951 953 954
1245 8 951 953 954 958
1246 8 951 953 954 959
1247 8 951 953 954 960
1248 3 171 176 174 173
1249 3 171 176 174 175
1250 8 174 176 171 177
1251 8 174 176 171 178
1252 1 172 171 176 174
1253 2 172 171 176 174
1254 6 176 171 172 179
1255 7 176 171 172 179
1256 6 176 171 172 180
1257 7 176 171 172 180
1258 9 177 171 172 179
1259 9 177 171 172 180
1260 9 178 171 172 179
1261 9 178 171 172 180
1262 1 171 172 173 174
1263 2 171 172 173 174
1264 4 173 172 171 176
1265 5 173 172 171 176
1266 6 173 172 171 177
1267 7 173 172 171 177
1268 6 173 172 171 178
1269 7 173 172 171 178
1270 1 232 231 236 234
1271 2 232 231 236 234
1272 6 236 231 232 239
1273 7 236 231 232 239
1274 6 236 231 232 240
1275 7 236 231 232 240
1276 9 237 231 232 239
1277 9 237 231 232 240
1278 9 238 231 232 239
1279 9 238 231 232 240
1280 12 530 531 533 534
1281 10 532 531 533 534
1282 11 532 531 533 534
1283 10 517 518 519 520
1284 11 517 518 519 520
1285 12 517 518 519 521
1286 8 519 518 517 523
1287 8 519 518 517 524
1288 8 519 518 517 525
1289 1 231 232 233 234
1290 2 231 232 233 234
1291 4 233 232 231 236
1292 5 233 232 231 236
1293 6 233 232 231 237
1294 7 233 232 231 237
1295 6 233 232 231 238
1296 7 233 232 231 238
1297 8 843 845 846 850
1298 8 843 845 846 851
1299 8 843 845 846 852
1300 1 272 271 276 274
1301 2 272 271 276 274
1302 6 276 271 272 279
1303 7 276 271 272 279
1304 6 276 271 272 280
1305 7 276 271 272 280
1306 9 277 271 272 279
1307 9 277 271 272 280
1308 9 278 271 272 279
1309 9 278 271 272 280
1310 3 272 273 274 275
1311 3 272 273 274 276
1312 8 274 273 272 279
1313 8 274 273 272 280
1314 10 397 398 399 400
1315 11 397 398 399 400
1316 12 397 398 399 401
1317 8 399 398 397 403
1318 8 399 398 397 404
1319 8 399 398 397 405
1320 3 2 3 4 5
1321 3 2 3 4 6
1322 8 4 3 2 9
1323 8 4 3 2 10
1324 8 531 533 534 538
1325 8 531 533 534 539
1326 8 531 533 534 540
1327 1 62 61 66 64
1328 2 62 61 66 64
1329 6 66 61 62 69
1330 7 66 61 62 69
1331 6 66 61 62 70
1332 7 66 61 62 70
1333 9 67 61 62 69
1334 9 67 61 62 70
1335 9 68 61 62 69
1336 9 68 61 62 70
1337 10 769 770 771 772
1338 11 769 770 771 772
1339 12 769 770 771 773
1340 8 771 770 769 775
1341 8 771 770 769 776
1342 8 771 770 769 777
1343 3 151 156 154 153
1344 3 151 156 154 155
1345 8 154 156 151 157
1346 8 154 156 151 158
1347 1 142 141 146 144
1348 2 142 141 146 144
1349 6 146 141 142 149
1350 7 146 141 142 149
1351 6 146 141 142 150
1352 7 146 141 142 150
1353 9 147 141 142 149
1354 9 147 141 142 150
1355 9 148 141 142 149
1356 9 148 141 142 150
1357 12 770 771 773 774
1358 10 772 771 773 774
1359 11 772 771 773 774
1360 12 470 471 473 474
1361 10 472 471 473 474
1362 11 472 471 473 474
1363 10 529 530 531 532
1364 11 529 530 531 532
1365 12 529 530 531 533
1366 8 531 530 529 535
1367 8 531 530 529 536
1368 8 531 530 529 537
1369 3 142 143 144 145
1370 3 142 143 144 146
1371 8 144 143 142 149
1372 8 144 143 142 150
1373 12 494 495 497 498
1374 10 496 495 497 498
1375 11 496 495 497 498
1376 8 471 473 474 478
1377 8 471 473 474 479
1378 8 471 473 474 480
1379 10 493 494 495 496
1380 11 493 494 495 496
1381 12 493 494 495 497
1382 8 495 494 493 499
1383 8 495 494 493 500
1384 8 495 494 493 501
1385 10 469 470 471 472
1386 11 469 470 471 472
1387 12 469 470 471 473
1388 8 471 470 469 475
1389 8 471 470 469 476
1390 8 471 470 469 477
1391 10 841 842 843 844
1392 11 841 842 843 844
1393 12 841 842 843 845
1394 8 843 842 841 847
1395 8 843 842 841 848
1396 8 843 842 841 849
1397 8 495 497 498 502
1398 8 495 497 498 503
1399 8 495 497 498 504
1400 3 91 96 94 93
1401 3 91 96 94 95
1402 8 94 96 91 97
1403 8 94 96 91 98
1404 1 92 91 96 94
1405 2 92 91 96 94
1406 6 96 91 92 99
1407 7 96 91 92 99
1408 6 96 91 92 100
1409 7 96 91 92 100
1410 9 97 91 92 99
1411 9 97 91 92 100
1412 9 98 91 92 99
1413 9 98 91 92 100
1414 1 141 142 143 144
1415 2 141 142 143 144
1416 4 143 142 141 146
1417 5 143 142 141 146
1418 6 143 142 141 147
1419 7 143 142 141 147
1420 6 143 142 141 148
1421 7 143 142 141 148
1422 3 92 93 94 95
1423 3 92 93 94 96
1424 8 94 93 92 99
1425 8 94 93 92 100
1426 12 842 843 845 846
1427 10 844 843 845 846
1428 11 844 843 845 846
1429 8 555 557 558 562
1430 8 555 557 558 563
1431 8 555 557 558 564
1432 1 91 92 93 94
1433 2 91 92 93 94
1434 4 93 92 91 96
1435 5 93 92 91 96
1436 6 93 92 91 97
1437 7 93 92 91 97
1438 6 93 92 91 98
1439 7 93 92 91 98
1440 12 554 555 557 558
1441 10 556 555 557 558
1442 11 556 555 557 558
1443 1 192 191 196 194
1444 2 192 191 196 194
1445 6 196 191 192 199
1446 7 196 191 192 199
1447 6 196 191 192 200
1448 7 196 191 192 200
1449 9 197 191 192 199
1450 9 197 191 192 200
1451 9 198 191 192 199
1452 9 198 191 192 200

Impropers

1 1 711 712 713 710
2 1 831 832 833 830
3 1 831 830 832 833
4 1 74 73 75 76
5 1 687 686 688 689
6 1 74 76 73 75
7 1 711 713 710 712
8 1 711 710 712 713
9 1 387 389 386 388
10 1 204 205 206 203
11 1 831 833 830 832
12 1 963 962 964 965
13 1 74 75 76 73
14 1 204 206 203 205
15 1 687 688 689 686
16 1 963 964 965 962
17 1 579 581 578 580
18 1 124 125 126 123
19 1 687 689 686 688
20 1 64 65 66 63
21 1 747 748 749 746
22 1 855 857 854 856
23 1 747 749 746 748
24 1 927 929 926 928
25 1 284 286 283 285
26 1 284 285 286 283
27 1 387 386 388 389
28 1 164 165 166 163
29 1 447 449 446 448
30 1 807 808 809 806
31 1 807 809 806 808
32 1 387 388 389 386
33 1 855 856 857 854
34 1 855 854 856 857
35 1 351 350 352 353
36 1 34 36 33 35
37 1 747 746 748 749
38 1 34 33 35 36
39 1 663 662 664 665
40 1 34 35 36 33
41 1 663 665 662 664
42 1 723 724 725 722
43 1 807 806 808 809
44 1 204 203 205 206
45 1 254 256 253 255
46 1 254 253 255 256
47 1 447 446 448 449
48 1 663 664 665 662
49 1 84 83 85 86
50 1 867 866 868 869
51 1 224 225 226 223
52 1 84 85 86 83
53 1 699 700 701 698
54 1 224 223 225 226
55 1 224 226 223 225
56 1 351 352 353 350
57 1 963 965 962 964
58 1 44 43 45 46
59 1 44 46 43 45
60 1 867 868 869 866
61 1 315 316 317 314
62 1 363 362 364 365
63 1 44 45 46 43
64 1 867 869 866 868
65 1 14 15 16 13
66 1 84 86 83 85
67 1 363 364 365 362
68 1 615 614 616 617
69 1 795 797 794 796
70 1 795 796 797 794
71 1 603 604 605 602
72 1 603 605 602 604
73 1 603 602 604 605
74 1 144 145 146 143
75 1 399 401 398 400
76 1 327 328 329 326
77 1 327 329 326 328
78 1 214 216 213 215
79 1 819 820 821 818
80 1 915 917 914 916
81 1 915 916 917 914
82 1 327 326 328 329
83 1 447 448 449 446
84 1 567 569 566 568
85 1 483 485 482 484
86 1 54 53 55 56
87 1 795 794 796 797
88 1 567 568 569 566
89 1 819 821 818 820
90 1 303 302 304 305
91 1 579 580 581 578
92 1 164 163 165 166
93 1 244 245 246 243
94 1 244 246 243 245
95 1 164 166 163 165
96 1 54 56 53 55
97 1 54 55 56 53
98 1 214 213 215 216
99 1 543 542 544 545
100 1 543 545 542 544
101 1 543 544 545 542
102 1 435 436 437 434
103 1 114 113 115 116
104 1 435 434 436 437
105 1 244 243 245 246
106 1 435 437 434 436
107 1 114 116 113 115
108 1 134 133 135 136
109 1 134 136 133 135
110 1 114 115 116 113
111 1 519 521 518 520
112 1 254 255 256 253
113 1 134 135 136 133
114 1 284 283 285 286
115 1 399 400 401 398
116 1 294 295 296 293
117 1 375 376 377 374
118 1 423 422 424 425
119 1 423 424 425 422
120 1 579 578 580 581
121 1 294 296 293 295
122 1 294 293 295 296
123 1 771 773 770 772
124 1 483 482 484 485
125 1 675 676 677 674
126 1 375 374 376 377
127 1 483 484 485 482
128 1 915 914 916 917
129 1 675 674 676 677
130 1 567 566 568 569
131 1 675 677 674 676
132 1 615 617 614 616
133 1 375 377 374 376
134 1 423 425 422 424
135 1 315 314 316 317
136 1 214 215 216 213
137 1 264 266 263 265
138 1 339 340 341 338
139 1 24 23 25 26
140 1 339 338 340 341
141 1 339 341 338 340
142 1 24 25 26 23
143 1 24 26 23 25
144 1 939 940 941 938
145 1 891 893 890 892
146 1 615 616 617 614
147 1 651 653 650 652
148 1 651 650 652 653
149 1 879 881 878 880
150 1 507 506 508 509
151 1 184 183 185 186
152 1 939 938 940 941
153 1 879 880 881 878
154 1 723 725 722 724
155 1 303 304 305 302
156 1 699 698 700 701
157 1 264 263 265 266
158 1 927 928 929 926
159 1 194 193 195 196
160 1 411 413 410 412
161 1 411 412 413 410
162 1 411 410 412 413
163 1 184 186 183 185
164 1 507 509 506 508
165 1 184 185 186 183
166 1 507 508 509 506
167 1 124 126 123 125
168 1 64 63 65 66
169 1 891 890 892 893
170 1 194 195 196 193
171 1 351 353 350 352
172 1 124 123 125 126
173 1 14 16 13 15
174 1 759 761 758 760
175 1 735 734 736 737
176 1 759 760 761 758
177 1 591 592 593 590
178 1 459 460 461 458
179 1 363 365 362 364
180 1 14 13 15 16
181 1 783 784 785 782
182 1 591 593 590 592
183 1 651 652 653 650
184 1 939 941 938 940
185 1 459 458 460 461
186 1 783 785 782 784
187 1 783 782 784 785
188 1 315 317 314 316
189 1 735 737 734 736
190 1 459 461 458 460
191 1 699 701 698 700
192 1 735 736 737 734
193 1 591 590 592 593
194 1 759 758 760 761
195 1 639 638 640 641
196 1 639 640 641 638
197 1 639 641 638 640
198 1 104 105 106 103
199 1 104 106 103 105
200 1 627 626 628 629
201 1 903 902 904 905
202 1 104 103 105 106
203 1 274 275 276 273
204 1 903 905 902 904
205 1 303 305 302 304
206 1 274 276 273 275
207 1 627 628 629 626
208 1 627 629 626 628
209 1 144 146 143 145
210 1 903 904 905 902
211 1 154 153 155 156
212 1 471 472 473 470
213 1 555 554 556 557
214 1 264 265 266 263
215 1 819 818 820 821
216 1 879 878 880 881
217 1 927 926 928 929
218 1 64 66 63 65
219 1 723 722 724 725
220 1 194 196 193 195
221 1 234 233 235 236
222 1 234 236 233 235
223 1 174 173 175 176
224 1 4 6 3 5
225 1 234 235 236 233
226 1 174 175 176 173
227 1 951 950 952 953
228 1 951 952 953 950
229 1 951 953 950 952
230 1 174 176 173 175
231 1 531 532 533 530
232 1 519 518 520 521
233 1 843 845 842 844
234 1 274 273 275 276
235 1 399 398 400 401
236 1 519 520 521 518
237 1 4 3 5 6
238 1 531 533 530 532
239 1 771 770 772 773
240 1 154 156 153 155
241 1 4 5 6 3
242 1 531 530 532 533
243 1 144 143 145 146
244 1 471 473 470 472
245 1 495 494 496 497
246 1 471 470 472 473
247 1 771 772 773 770
248 1 843 842 844 845
249 1 495 496 497 494
250 1 495 497 494 496
251 1 94 96 93 95
252 1 94 95 96 93
253 1 843 844 845 842
254 1 154 155 156 153
255 1 94 93 95 96
256 1 555 556 557 554
257 1 555 557 554 556
258 1 891 892 893 890
