LAMMPS data file via write_data, version 22 Jul 2025, timestep = 25431, units = real

1014 atoms
8 atom types
944 bonds
6 bond types
1504 angles
7 angle types
1452 dihedrals
12 dihedral types
258 impropers
1 improper types

-0.2400632628335142 22.76615494983335 xlo xhi
-0.20906325988444863 22.7971549598843 ylo yhi
-0.22906326287369794 22.777154949833076 zlo zhi

Masses

1 12.01078
2 15.99943
3 12.01078
4 15.99943
5 1.007947
6 6.9412
7 15.99943
8 35.4532

Pair Coeffs # lj/cut/coul/long

1 0.108841 3.37953
2 0.168465 3.02511
3 0.0868793 3.48065
4 0.210206 3.03981
5 0.0164092 2.58323
6 0.0279896 1.82634
7 0.15 3.18051
8 0.272 4.18188

Bond Coeffs # harmonic

1 215.301 1.53363
2 227.037 1.43632
3 357.819 1.09421
4 291.342 1.35606
5 762.039 1.225
6 300 1.483

Angle Coeffs # harmonic

1 91.5186 108.173
2 66.7563 109.938
3 63.31 123.606
4 36.7766 108.354
5 119.896 112.874
6 84.5477 120.105
7 52.5 109.4

Dihedral Coeffs # opls

1 1 0.111303 3 0
2 1 0.438911 1 180
3 1 1.76361 2 180
4 1 -0.0153377 3 0
5 1 0.41915 2 0
6 1 0.131135 3 0
7 1 0.436547 1 0
8 1 0.263111 3 0
9 1 0.227995 3 0
10 1 0.302195 2 180
11 1 1.35005 1 180
12 1 3.48187 2 180

Improper Coeffs # cvff

1 4.30523 -1 2

Atoms # full

376 37 4 -0.5800835 3.430627138910034 2.856382277103418 4.501981617341585 0 0 0
714 65 1 0.1266165 3.488249830408648 5.988103908031784 2.9519818622260665 0 0 0
718 65 5 0.0582835 2.933925464564411 5.674755954036317 3.813552405049685 0 0 0
720 65 5 0.0582835 4.597672788117217 5.778592443675633 3.015371504849409 0 0 0
719 65 5 0.0582835 3.1613429462359526 5.474669242011572 2.0214517902254947 0 0 0
375 37 3 0.7551165 4.26361268509872 2.963179487215098 5.4366363090070715 0 0 0
374 37 2 -0.3889835 5.5302883764862525 2.472323655329287 5.204655719649241 0 0 0
379 37 5 0.0582835 5.5222743896987145 2.65514008583024 3.1261562062465225 0 0 0
373 37 1 0.1266165 5.782865485619901 1.8868008625414716 3.89862724431672 0 0 0
381 37 5 0.0582835 5.111890349037762 1.0196820795991106 3.691878286590943 0 0 0
969 86 5 0.0582835 6.360769379516914 5.256742288305398 4.625747497039834 0 0 0
384 37 5 0.0582835 2.437964538090269 4.631197607776691 5.8770012380079875 0 0 0
515 48 5 0.0582835 6.645983347166379 4.803408757616057 0.8701467737446551 0 0 0
874 78 5 0.0582835 3.1687074147956986 2.3356576193448206 1.3328728144744248 0 1 0
875 78 5 0.0582835 4.87321554931333 2.666837696633824 1.0279397768107819 0 1 0
870 78 1 0.1266165 3.944567414972483 2.1838760966000916 0.6413250140450703 0 1 0
510 48 1 0.1266165 6.678451677402213 5.9185277602041095 0.7447868231531487 0 0 0
86 9 2 -0.4048 0.8544673381760395 3.5653951621867335 2.031848971489166 0 0 0
516 48 5 0.0582835 5.628344458711296 6.27151289276809 0.5986969596550359 0 0 0
961 86 1 0.1266165 7.377324922128378 5.575243709427076 5.0811659594110745 0 0 0
98 10 5 0.0798 1.7904187763174648 0.31454857431930305 4.857229458804486 0 1 0
964 86 4 -0.5800835 5.705226673614404 5.977355403104423 7.180421284086922 0 0 0
963 86 3 0.7551165 6.623621416204316 5.150075880074015 7.330215478471767 0 0 0
967 86 5 0.0582835 7.342647673365155 6.641392866771302 5.219976004940838 0 0 0
869 78 2 -0.3889835 4.173645674892342 0.7187276142304033 0.5920178745689126 0 1 0
509 48 2 -0.3889835 7.102031849949172 6.594146187539668 1.9532188982282546 0 0 0
377 37 2 -0.3889835 3.9390193725510283 3.5271870392024165 6.629391407043423 0 0 0
85 9 4 -0.5484 0.017627758925547465 2.5690096019781317 0.1126468203026853 0 0 0
867 78 3 0.7551165 3.1509238885994875 -0.09742204770671847 0.20389463910367062 0 1 0
378 37 1 0.1266165 2.5523616203390787 3.987883851306113 6.713202142973145 0 0 0
382 37 5 0.0582835 1.8213390535249951 3.184796315270013 6.641241267585452 0 0 0
514 48 5 0.0582835 7.30931231570737 6.143176878468159 -0.0518298052986228 0 0 0
380 37 5 0.0582835 6.836568895474377 1.5002414830836623 3.7411404316036188 0 0 0
962 86 2 -0.3889835 7.543329500193399 4.8571393474626525 6.338149912484157 0 0 0
911 81 5 0.0582835 22.56306135095509 4.887620570159164 7.381496902302587 0 0 0
1009 99 7 -0.58 1.108939993088053 6.707679676511152 5.155325386297714 0 0 0
868 78 4 -0.5800835 2.013369163798738 0.22930665528873428 -0.12607325378779094 0 1 0
245 25 4 -0.5484 7.488462624032378 2.460385679145015 0.7720072300630281 0 0 0
968 86 5 0.0582835 8.182465776047056 5.294936173867804 4.41778184696756 0 0 0
244 25 3 0.8478 8.652002786959967 2.6399821495181373 1.0901823833351552 0 0 0
241 25 1 0.0955 10.920661608035944 2.3656871452940202 1.264505737048389 0 0 0
242 25 1 0.0955 10.593369912472067 3.592197821338845 1.99822491129783 0 0 0
243 25 2 -0.4048 9.181075027110465 3.7381006533651333 1.8649462693386814 0 0 0
246 25 2 -0.4048 9.741480070910413 1.7962118431594183 0.7136271698233503 0 0 0
247 25 5 0.0798 11.680531081950265 1.7643789570936521 1.7656830728265254 0 0 0
248 25 5 0.0798 11.397678847528828 2.7043359269215124 0.35347969120515355 0 0 0
249 25 5 0.0798 10.717778347100127 3.2645692477776302 3.0346273111672866 0 0 0
250 25 5 0.0798 11.338254641449108 4.387203173735276 1.8483500441019447 0 0 0
1001 98 8 1.32 14.879712843309472 2.4025342875283417 2.481390064103901 0 0 0
692 63 5 0.0582835 11.038813987199779 5.794966244756625 6.1826773211621004 0 0 0
686 63 2 -0.3889835 10.468928548702491 3.8201187315930465 5.554049694878446 0 0 0
1003 98 7 -0.58 13.736422583117154 2.9639714963712467 3.307963720495334 0 0 0
1000 98 7 -0.58 14.382974043254524 2.539654371593917 1.148872938169796 0 0 0
689 63 2 -0.3889835 10.035156592103284 1.6542055509550837 5.013570569551672 0 0 0
687 63 3 0.7551165 10.284926248514676 2.54803635114845 5.988203603057037 0 0 0
690 63 1 0.1266165 9.801235908891794 0.2692125689616375 5.3670213001599905 0 0 0
694 63 5 0.0582835 8.909422029552234 0.12048650218867385 6.031421248611798 0 0 0
863 77 5 0.0582835 10.77310530657048 6.447001750757949 3.9293235110360536 0 0 0
368 36 5 0.0582835 15.229951877522566 5.81557168479016 3.9319737803252908 0 0 0
696 63 5 0.0582835 10.687331687150296 -0.13815453368773017 5.856781229089753 0 0 0
119 12 5 0.0798 13.533476621848353 8.112815619193393 6.742774379110444 0 0 0
120 12 5 0.0798 14.973736658352744 7.198396406994772 6.732281460698496 0 0 0
858 77 1 0.1266165 10.63559235142959 7.4960517784118865 3.8213733507913155 0 0 0
357 35 5 0.0582835 13.191027721301037 2.1667888041685655 6.6239465178922075 0 1 0
361 36 1 0.1266165 15.18211508337544 6.742523909810078 3.477615516428873 0 0 0
864 77 5 0.0582835 9.685302796163665 7.73985023466334 4.220174528405391 0 0 0
369 36 5 0.0582835 14.160149233109811 6.962555130117345 3.1280260359090604 0 0 0
695 63 5 0.0582835 9.544909443418796 -0.2034303836582474 4.418054089348561 0 0 0
685 63 1 0.1266165 10.739739456491803 4.8569363008647475 6.613000031852524 0 0 0
356 35 5 0.0582835 14.625721370015984 3.2016648411596313 6.550564664806993 0 1 0
67 7 5 0.0798 13.176040084605818 6.058288175510886 0.004043476087965403 0 0 0
84 9 3 0.8478 -0.14523579271280468 3.1632963451612044 1.15904658555316 0 0 0
1004 98 7 -0.58 16.05970918096385 3.2220605458314404 2.5245577521571207 0 0 0
137 14 5 0.0798 15.401421801656515 4.905923594860602 0.1914123426797229 0 0 1
88 9 5 0.0798 0.5676736064991799 5.312163096527657 2.894127765296818 0 0 0
81 9 1 0.0955 0.3072993658095453 4.270551043833727 3.1246646389124706 0 0 0
1002 98 7 -0.58 15.084613379732815 0.9270785541612239 2.6491552687132542 0 0 0
428 41 5 0.0582835 17.79683509840769 3.3674450280568604 5.056317169958747 -1 0 0
89 9 5 0.0798 21.251054259969486 3.755226799529864 3.668028319931722 -1 0 0
82 9 1 0.0955 21.774431889352734 4.246412253794229 2.8710920200066545 -1 0 0
87 9 5 0.0798 0.7009858000971351 4.134009810802075 4.152465018395826 0 0 0
83 9 2 -0.4048 21.654656668889515 3.544072834011778 1.597523749577009 -1 0 0
90 9 5 0.0798 21.289185986262822 5.205100979614851 3.0739854902834636 -1 0 0
902 81 2 -0.3889835 21.490066016591626 0.676569505394138 6.178785793259418 0 0 0
903 81 3 0.7551165 21.119559631781456 1.9003596681906982 6.705676051761987 0 0 0
905 81 2 -0.3889835 22.1140073080091 2.8852067264669587 6.78877081835494 0 0 0
904 81 4 -0.5800835 19.975012292080322 2.0436935505572036 7.075575429957276 0 0 0
907 81 5 0.0582835 19.501806069747268 0.00013875225344914255 5.583150571182636 0 0 0
422 41 2 -0.3889835 18.90534599609134 5.148449664774164 4.760020962251694 -1 0 0
421 41 1 0.1266165 17.920579042800597 4.373758409804123 5.449940674583124 -1 0 0
423 41 3 0.7551165 19.085174268341092 6.42977761728393 5.191525892295379 -1 0 0
139 14 5 0.0798 17.746588577615213 5.075130982681515 0.8485844577865047 0 0 1
429 41 5 0.0582835 18.133029227736166 4.242441866871232 6.597228122159457 -1 0 0
906 81 1 0.1266165 21.73798409650275 4.202390663820548 7.401644075646917 0 0 0
424 41 4 -0.5800835 18.432867005353053 6.896565933050063 6.153893347010386 -1 0 0
427 41 5 0.0582835 16.932412827245486 4.981895224022369 5.461557035314797 -1 0 0
912 81 5 0.0582835 20.901771339103 4.6612030213827556 6.869016272688422 0 0 0
462 44 1 0.1266165 16.70840790323632 0.5932127052175935 6.009889449217377 -1 0 0
466 44 5 0.0582835 17.579101131919487 0.7982697221101036 5.400531194789675 -1 0 0
467 44 5 0.0582835 16.073667213275556 1.3959367154342486 5.986999897956648 -1 0 0
468 44 5 0.0582835 17.068182706302125 0.41709855231621074 7.076937844375976 -1 0 0
44 5 3 0.8478 20.112500338359183 0.12041842695689314 0.21642260959180354 0 0 0
49 5 5 0.0798 17.966769870267562 1.6730613929134819 1.3619607075960631 0 0 0
42 5 1 0.0955 18.498707155210404 0.7466256416859823 1.6510546141379694 0 0 0
43 5 2 -0.4048 19.791368595813047 1.0066830090763106 1.256720962010565 0 0 0
367 36 5 0.0582835 15.761895374896211 6.67683770874676 2.545294185640705 0 0 0
425 41 2 -0.3889835 20.024434231000107 7.20127802253513 4.529894616091667 -1 0 0
362 36 2 -0.3889835 15.647969261789305 7.758972340435711 4.361637758425264 0 0 0
47 5 5 0.0798 16.95171007332643 -0.14347725849967446 0.2721705487189686 0 0 0
713 65 2 -0.3889835 3.2855678376851447 7.415511949552671 2.768411873632073 0 0 0
1005 99 7 -0.58 2.439624409087891 7.649172661550793 6.8917417047263925 0 0 0
712 65 4 -0.5800835 4.373973105562801 7.74436829867124 4.7761332328484665 0 0 0
711 65 3 0.7551165 3.767960109228187 8.18007600638964 3.77010446546981 0 0 0
1006 99 8 1.32 0.9928307679530584 7.602957764213776 6.3739917565480155 0 0 0
834 75 1 0.1266165 0.5354707226418103 9.403060584272984 2.1725295173814687 1 0 0
839 75 5 0.0582835 1.0284908240345376 10.316661394856654 2.5914510833558126 1 0 0
840 75 5 0.0582835 0.6377662212035042 8.597587806477657 2.9033392113547736 1 0 0
973 87 6 1 4.488487659213885 7.502353518229124 6.812980883367815 0 0 0
838 75 5 0.0582835 0.9990978618525954 9.082823955786285 1.210633974257753 1 0 0
710 65 2 -0.3889835 3.5251876198933214 9.566873462908415 3.5792229124458834 0 0 0
709 65 1 0.1266165 4.057773344078129 10.407922829692586 4.678477816066778 0 0 0
717 65 5 0.0582835 3.501884680538627 10.29936162847169 5.634171893171155 0 0 0
715 65 5 0.0582835 5.114604020336822 10.214824641104924 4.699356168213659 0 0 0
393 38 5 0.0582835 4.63316029402576 9.640113252945111 1.0129395782543265 0 0 1
1007 99 7 -0.58 0.629982996549875 8.946592581690455 5.920375946716055 0 0 0
392 38 5 0.0582835 3.3572950388494003 10.724806466382551 1.0938126551011969 0 0 1
205 21 4 -0.5484 6.5066610726019 8.81267723463199 6.480988603856348 0 0 0
800 72 5 0.0582835 1.133101053454721 11.205222792537736 0.2518921521764534 1 0 1
507 48 3 0.7551165 7.4015049505619475 7.903561682803213 1.8569843054063235 0 0 0
833 75 2 -0.3889835 22.119070353138376 9.67279783187325 1.898398184430151 0 0 0
385 38 1 0.1266165 4.181812753693404 10.473776313830056 0.40509347936618956 0 0 1
862 77 5 0.0582835 10.480837335412758 7.828576259322146 2.7594204171277146 0 0 0
508 48 4 -0.5800835 7.2933602136566 8.460009385268496 0.7745266731855707 0 0 0
511 48 5 0.0582835 7.128616839199438 10.395552604351344 2.4708537277821057 0 0 0
857 77 2 -0.3889835 11.834095411801915 8.051389884534414 4.467590134590417 0 0 0
506 48 2 -0.3889835 7.799510798982855 8.517512926329758 2.9489015988967147 0 0 0
505 48 1 0.1266165 8.118231485142443 9.93533646250617 2.7952614273967087 0 0 0
855 77 3 0.7551165 11.951595244079359 9.361960289133936 4.4552429743753255 0 0 0
512 48 5 0.0582835 8.447802415832003 10.350785979369492 3.720257534475475 0 0 0
513 48 5 0.0582835 8.977138584550158 10.001132172215925 2.1053016341580255 0 0 0
856 77 4 -0.5800835 11.102311812329413 10.07687814945784 3.9399374381296965 0 0 0
215 22 4 -0.5484 12.72806947922767 8.31906046185578 1.2535402943141656 0 0 1
214 22 3 0.8478 13.697658558971538 8.94024948109259 0.7466133103386795 0 0 1
854 77 2 -0.3889835 13.11628437849249 9.870415262107997 5.039492329858719 0 0 0
213 22 2 -0.4048 13.87205442037131 10.335572831114604 0.8840726469820139 0 0 1
216 22 2 -0.4048 14.642706224507709 8.385056286047643 -0.017318757151303987 0 0 1
209 21 5 0.0798 10.559668832805045 8.333603982428613 6.953439053509479 0 0 0
212 22 1 0.0955 15.092900409479872 10.709586376274535 0.12876452329567067 0 0 1
430 41 5 0.0582835 20.588651791274337 8.53160775943305 6.044061082813962 -1 0 0
426 41 1 0.1266165 20.175123522269338 8.531987560148234 5.049808705050807 -1 0 0
431 41 5 0.0582835 20.812573773235982 9.068341382569916 4.371974882500035 -1 0 0
298 30 5 0.0798 21.56363727080626 11.234486340103771 4.120753562661254 0 0 0
830 75 2 -0.3889835 20.06530754420995 8.906147652780536 1.3278143187222844 0 0 0
432 41 5 0.0582835 19.260849097754978 9.085044327903349 5.05112420365566 -1 0 0
364 36 4 -0.5800835 16.219777708250298 8.992752164870842 2.5884284506734683 0 0 0
363 36 3 0.7551165 16.148196080208493 8.85063903630756 3.779232214100797 0 0 0
365 36 2 -0.3889835 16.582643311469077 9.804833336303657 4.643225110347108 0 0 0
366 36 1 0.1266165 17.146261601686476 11.025036878079066 4.010203443262966 0 0 0
831 75 3 0.7551165 21.337317542709727 8.563629481023236 1.5648005923729649 0 0 0
372 36 5 0.0582835 18.024993462318847 10.844127321851671 3.3441879052498384 0 0 0
219 22 5 0.0798 15.854128068229608 11.026507844899127 0.8704513651915364 0 0 1
832 75 4 -0.5800835 21.81714717677017 7.4695001821121085 1.5138822867386335 0 0 0
835 75 5 0.0582835 19.255840959365273 6.994234845525306 1.8099957862946146 0 0 0
829 75 1 0.1266165 19.213035240435417 7.768640882590236 0.9584442959923485 0 0 0
836 75 5 0.0582835 18.15327730545065 8.172527113573008 0.738858536870373 0 0 0
837 75 5 0.0582835 19.619264707410267 7.32880020834647 0.05630520317741472 0 0 0
217 22 5 0.0798 16.607426502931347 9.227637739195966 -0.18465230380129682 0 0 1
816 73 5 0.0582835 12.43952287039354 -0.19784752093744506 3.479866121051268 0 0 0
50 5 5 0.0798 18.325677466004997 0.5995041500684891 2.6655896303008353 0 0 0
1008 99 7 -0.58 0.037276400488346795 7.388831936191024 7.494363344946922 0 0 0
383 37 5 0.0582835 2.455567886299405 4.645858943437298 7.573412673709276 0 0 0
972 86 5 0.0582835 4.892331772353962 4.5291781317192585 9.301775442924804 0 0 0
971 86 5 0.0582835 5.889892110134549 5.829201916371444 9.759941209633812 0 0 0
966 86 1 0.1266165 5.870971888203971 4.790128621536237 9.59684136587063 0 0 0
283 29 2 -0.4048 0.825396893804484 5.440443512251237 10.55078254018223 0 0 0
612 56 5 0.0582835 2.419245768121217 3.3424861715025775 10.579100587663863 0 0 0
606 56 1 0.1266165 2.49641834555298 2.595976141715443 9.80816151635857 0 0 0
604 56 4 -0.5800835 0.3892906800037237 1.6271921442753976 11.184921801781567 0 0 0
282 29 1 0.0955 1.8507207838042263 6.4350981394850315 10.530503760130177 0 0 0
611 56 5 0.0582835 3.155156119143237 3.1727735856323513 9.103982750731815 0 0 0
605 56 2 -0.3889835 1.247850844403431 2.2489036896629093 9.160744324094782 0 0 0
603 56 3 0.7551165 0.2796769277066712 1.7741293059784304 9.98684472728966 0 0 0
620 57 5 0.0582835 6.41506863013748 1.684821939836508 9.290106877776093 0 1 0
610 56 5 0.0582835 3.036017467953166 1.7274921878062501 10.132549967774146 0 0 0
970 86 5 0.0582835 6.142240240503382 4.209748852763897 10.432635077387427 0 0 0
290 29 5 0.0798 2.685588936275221 6.131982632846934 11.17027419547827 0 0 0
289 29 5 0.0798 2.3789945470987854 6.420139998081501 9.56456366823474 0 0 0
613 57 1 0.1266165 7.502910884069905 1.2910798330095534 9.14512751218847 0 1 0
619 57 5 0.0582835 7.91043351549742 1.7802923141678475 8.205185673483284 0 1 0
621 57 5 0.0582835 8.077170409872135 1.6186600226830052 9.991948407446499 0 1 0
965 86 2 -0.3889835 6.823100066266895 4.483047702374429 8.4779665602237 0 0 0
691 63 5 0.0582835 11.512460397078431 4.5688726781072315 7.268992921483759 0 0 0
693 63 5 0.0582835 9.81651160788259 5.087597311027563 7.133276473489674 0 0 0
349 35 1 0.1266165 13.906314812293758 2.7182976541596817 7.245471210450064 0 1 0
688 63 4 -0.5800835 10.325858684546745 2.209498021053044 7.164657871156647 0 0 0
355 35 5 0.0582835 13.36471966349801 3.443288604788922 7.859948061340896 0 1 0
350 35 2 -0.3889835 14.62051044696204 1.6985361193333708 8.113122468134216 0 1 0
165 17 4 -0.5484 9.687197381555125 3.621182068697389 9.522958350311187 0 0 0
163 17 2 -0.4048 9.586070244416872 5.841841030801898 9.641072318383129 0 0 0
164 17 3 0.8478 9.453078429936452 4.622736325309124 10.181828107346266 0 0 0
928 83 4 -0.5800835 10.339439621605637 1.3272524690161085 11.210036388519436 0 1 0
978 92 6 1 10.612508118685723 1.7071129559523137 8.990585219647967 0 1 0
352 35 4 -0.5800835 12.498100144594178 1.133213646013958 8.86644702381637 0 1 0
162 17 1 0.0955 9.293441872891384 6.8468225642260805 10.662434908126237 0 0 0
115 12 4 -0.5484 13.301827997512273 5.041667379843468 9.630957960916364 0 0 0
114 12 3 0.8478 13.685150035167354 6.029958520931683 9.083198275394581 0 0 0
351 35 3 0.7551165 13.722338738536987 0.9561675720092031 8.89042518929382 0 1 0
113 12 2 -0.4048 13.571370811390274 6.191403707727644 7.8109372072990535 0 0 0
112 12 1 0.0955 14.113715632882093 7.498415810100155 7.3497046992832935 0 0 0
169 17 5 0.0798 8.278197591577984 7.280050557432488 10.313354340506027 0 0 0
170 17 5 0.0798 9.722133909478131 7.81548401800957 10.679593611766606 0 0 0
616 57 4 -0.5800835 9.75074438221779 -0.07931232129325438 8.737608409164128 0 1 0
353 35 2 -0.3889835 14.311075104551625 0.02746635963618263 9.696979073164245 0 1 0
910 81 5 0.0582835 21.378864085013483 4.071282236109491 8.45227306109604 0 0 0
284 29 3 0.8478 22.63869534891893 6.125145622376839 10.691894896052228 -1 0 0
285 29 4 -0.5484 21.543099189354635 5.582294296149033 10.730006591653341 -1 0 0
560 52 5 0.0582835 18.43442117186499 5.103227863516172 9.671353188927359 0 0 0
602 56 2 -0.3889835 22.084249850539088 1.4623636343973136 9.37886388621312 -1 0 0
286 29 2 -0.4048 -0.15573419673022265 7.479162538128047 10.77897270381096 0 0 0
553 52 1 0.1266165 18.539276899037745 4.039814558534697 9.993710959231494 0 0 0
554 52 2 -0.3889835 17.36782531490504 3.7187155464511714 10.690837790200389 0 0 0
559 52 5 0.0582835 18.652789645697275 3.4369669418011157 9.065182096258654 0 0 0
561 52 5 0.0582835 19.445289295818903 3.9294677026417837 10.590524652368009 0 0 0
607 56 5 0.0582835 20.709023115132247 1.815094373231772 10.800479561716665 -1 0 0
320 32 5 0.0582835 17.988756049455468 7.305002569941592 8.54096365587293 0 0 0
601 56 1 0.1266165 20.99156912612814 0.9601229185413351 10.254990615512327 -1 0 0
608 56 5 0.0582835 20.221617452964992 0.5792347831531959 9.657061420344442 -1 0 0
319 32 5 0.0582835 19.652339889161304 7.3977699183899945 9.273187058229933 0 0 0
281 29 1 0.0955 1.180141063653789 7.76793727173697 10.683252347697657 0 0 0
985 95 7 -0.58 6.461827679551571 8.883089142676967 10.361333892619893 0 0 0
989 95 7 -0.58 4.427992231066884 9.894245408852369 10.817865850568568 0 0 0
988 95 7 -0.58 4.726615586878584 8.225380371334179 8.903488521130686 0 0 0
986 95 8 1.32 5.033928071898896 8.661760266877932 10.308045125103108 0 0 0
736 67 4 -0.5800835 0.7564864120056121 10.975017661557176 9.944449605562975 1 0 0
735 67 3 0.7551165 0.6855278937157613 11.200673996004689 8.747548806205074 1 0 0
287 29 5 0.0798 1.4552995281635923 8.466789331254748 9.912179090443422 0 0 0
204 21 3 0.8478 7.648365695467982 9.105139229919239 6.818153977187397 0 0 0
203 21 2 -0.4048 8.5740783881968 8.245751639541245 7.241278423987511 0 0 0
206 21 2 -0.4048 8.179584809825798 10.373992925010748 6.752539045244461 0 0 0
207 21 5 0.0798 10.290884280211468 10.642602070062573 6.355211597552169 0 0 0
201 21 1 0.0955 9.586511837157651 10.357020751965107 7.198012381173903 0 0 0
208 21 5 0.0798 9.6317140021702 10.97615597547859 8.018747106954365 0 0 0
202 21 1 0.0955 9.805091952178486 8.881730397882606 7.493897928112245 0 0 0
210 21 5 0.0798 10.198940968868904 8.75004383119964 8.468637781792436 0 0 0
999 97 7 -0.58 11.942986014877835 10.977842108056926 8.88780303255667 0 0 0
997 97 7 -0.58 11.051696802510955 11.203671232585942 11.17892481934157 0 0 0
116 12 2 -0.4048 14.280053288624888 7.077533467323198 9.722161962495887 0 0 0
314 32 2 -0.3889835 17.97232114187768 8.164201873643018 10.539292464824186 0 0 0
117 12 5 0.0798 14.020849415239358 8.866798005931289 8.984731981319987 0 0 0
740 67 5 0.0582835 20.740953690504647 9.912464716251627 8.217250550213393 0 0 0
111 12 1 0.0955 14.578715153823516 8.036048918037707 8.720107638416023 0 0 0
118 12 5 0.0798 15.637309942891957 8.256072860578794 8.722278587651108 0 0 0
734 67 2 -0.3889835 22.548156420436236 10.835768910672854 7.973862943741077 0 0 0
733 67 1 0.1266165 21.57464947776994 10.19355202363252 8.874331064168265 0 0 0
741 67 5 0.0582835 22.09930402243112 9.34433814195073 9.357609781737828 0 0 0
313 32 1 0.1266165 18.646115406340854 7.885468873348195 9.240819193906525 0 0 0
321 32 5 0.0582835 18.80106291177823 8.836308661167765 8.688194062875676 0 0 0
739 67 5 0.0582835 21.22122050702341 10.992867153457226 9.590221701540289 0 0 0
316 32 4 -0.5800835 19.91588395358506 9.206124267915147 11.250494286286237 0 0 0
360 35 5 0.0582835 12.850994935963659 -0.2039976286643852 11.195213152458482 0 1 0
609 56 5 0.0582835 21.288455822029874 0.09784485997400894 10.88162800706885 -1 0 0
140 14 5 0.0798 18.140824187659156 4.021759280896307 22.560899128589732 0 0 0
132 14 1 0.0955 17.505951557639676 4.870290574816737 22.765841077273464 0 0 0
45 5 4 -0.5484 21.197224029636587 0.09186014217922434 22.656042314812815 0 0 -1
442 42 5 0.0582835 5.730198820940817 4.958104002906282 13.58334435604127 0 0 0
438 42 1 0.1266165 5.229903314827445 3.995282566287778 13.531819366805438 0 0 0
444 42 5 0.0582835 4.606870762194857 4.045119729650108 14.482012796402193 0 0 0
443 42 5 0.0582835 4.661449046746557 3.9366071281218558 12.668521336079953 0 0 0
436 42 4 -0.5800835 7.329346201340987 4.005975737045183 15.128914343627887 0 0 0
437 42 2 -0.3889835 6.286543369853124 2.9926465272363716 13.408497343955421 0 0 0
435 42 3 0.7551165 7.329991708828796 3.1239004401767847 14.296814728838307 0 0 0
227 23 5 0.0798 2.2308687807181364 1.3107495515200995 13.14142694582039 0 0 0
446 43 2 -0.3889835 2.1228993852932847 7.150121030019095 14.02458408225106 0 0 0
226 23 2 -0.4048 3.7371429194757297 0.942452933804389 14.291427763480733 0 0 0
447 43 3 0.7551165 1.6019731398527888 5.907912590960309 14.269705176829037 0 0 0
448 43 4 -0.5800835 2.2300401458950097 5.048481285756949 14.883616164640337 0 0 0
449 43 2 -0.3889835 0.37657211973213744 5.693516516446448 13.79002489205648 0 0 0
221 23 1 0.0955 2.4543413995826926 0.5636767508227021 13.876815007891107 0 0 0
451 43 5 0.0582835 4.127653433560364 6.481606646460211 14.230750712401642 0 0 0
445 43 1 0.1266165 3.4905320566317535 7.343621693286122 14.546349498661803 0 0 0
456 43 5 0.0582835 0.3052772540084787 3.513273525062013 13.59658558556631 0 0 0
434 42 2 -0.3889835 8.338628165521655 2.236994349622332 14.204714429305909 0 0 0
167 17 5 0.0798 8.040537362147901 6.373257553945041 12.338965656658818 0 0 0
161 17 1 0.0955 8.998508709786957 6.070336043498198 11.896485603309921 0 0 0
166 17 2 -0.4048 9.105323502224751 4.69863867511007 11.489564352217569 0 0 0
931 83 5 0.0582835 11.22461350116935 3.6176982822716255 12.215223761416192 0 1 0
927 83 3 0.7551165 10.769508868548193 0.9992350441317539 12.275459555383303 0 1 0
933 83 5 0.0582835 12.555949302767894 2.6322534289033985 11.293145585197596 0 1 0
925 83 1 0.1266165 12.095754673100256 2.869271731358147 12.284626915818153 0 1 0
926 83 2 -0.3889835 11.729300812194905 1.7058089942972428 12.985141516699471 0 1 0
932 83 5 0.0582835 12.873566777779594 3.411812478661279 12.833649426227126 0 1 0
441 42 5 0.0582835 10.191062251804778 3.1704304326777644 15.02793903428931 0 0 0
168 17 5 0.0798 9.830400690616816 6.254248121164202 12.591431384548288 0 0 0
563 52 5 0.0582835 14.678745562183513 1.2841216054258022 13.051746622647963 0 0 0
929 83 2 -0.3889835 10.387216450926347 -0.144737417288024 12.932264505641605 0 1 0
454 43 5 0.0582835 22.63283773005255 4.30090038564975 15.113699024250451 -1 0 0
489 46 5 0.0582835 14.343312581102303 5.31754665946101 12.536022863281756 0 0 0
450 43 1 0.1266165 22.74755847520518 4.368776126121311 13.981777420332437 -1 0 0
481 46 1 0.1266165 14.659822973842685 6.2500820957313445 12.934437657719835 0 0 0
488 46 5 0.0582835 14.941028850799958 6.88489096496747 12.031998925133056 0 0 0
487 46 5 0.0582835 13.692272064807788 6.636942443819325 13.242016798650996 0 0 0
455 43 5 0.0582835 21.804088954068526 4.313987567307515 13.463863037598419 -1 0 0
562 52 5 0.0582835 16.284275791017286 1.110445475962578 13.536789656353308 0 0 0
555 52 3 0.7551165 17.250774393421956 2.5714441609263945 11.356643231924494 0 0 0
557 52 2 -0.3889835 16.02564512452645 2.442332403607428 11.924395496813272 0 0 0
556 52 4 -0.5800835 18.082551695060623 1.701032191988268 11.476617211229957 0 0 0
558 52 1 0.1266165 15.679955861161938 1.2235114259306843 12.664485703934814 0 0 0
564 52 5 0.0582835 15.766387627940075 0.28060316433916466 12.08500634229263 0 0 0
572 53 5 0.0582835 19.201291012260697 5.299852674644756 12.568704889392714 0 0 0
573 53 5 0.0582835 18.226141927051046 6.322552669230471 13.57615273817248 0 0 0
571 53 5 0.0582835 20.07371735391773 6.5890640904317825 13.221435267688593 0 0 0
565 53 1 0.1266165 19.23730153442979 5.9186852827418654 13.50136101215081 0 0 0
566 53 2 -0.3889835 19.59361571034598 5.224593570736554 14.66874919754487 0 0 0
484 46 4 -0.5800835 14.314390828288657 4.841642491031381 15.172146689681426 0 0 0
237 24 5 0.0798 18.429438275788442 2.9556461812575296 14.644502991441804 0 0 -1
238 24 5 0.0798 18.63325649364051 1.3828674909264271 13.791150505294082 0 0 -1
231 24 1 0.0955 18.795546412954252 1.9314495350337957 14.70804427706668 0 0 -1
482 46 2 -0.3889835 15.61244073849325 6.265931808185384 14.040442393439093 0 0 0
483 46 3 0.7551165 15.300636844921748 5.476671126801718 15.137414498120116 0 0 0
987 95 7 -0.58 4.785819890620975 7.593419955763621 11.376659980714743 0 0 0
331 33 5 0.0582835 2.6906270460953143 9.931204167994906 13.619283496146728 0 0 0
333 33 5 0.0582835 3.7142340401081846 11.27480655564116 13.064176719126104 0 0 0
325 33 1 0.1266165 2.7137864476222386 11.05512481183915 13.475020656088708 0 0 0
259 26 5 0.0798 6.109304669479436 8.345496622063973 15.10627705116228 0 0 0
252 26 1 0.0955 6.735515403763229 8.675771480886182 14.31893013691846 0 0 0
251 26 1 0.0955 7.350263925125767 10.048333580979891 14.487187352325865 0 0 0
258 26 5 0.0798 7.146360891890618 10.68140081359536 13.661956873179392 0 0 0
260 26 5 0.0798 6.2176101897859795 8.55125028905732 13.270567762084113 0 0 0
288 29 5 0.0798 1.4633463054545228 8.300384007133028 11.524312157708849 0 0 0
452 43 5 0.0582835 3.8783885728438143 8.227248614610048 14.098824125375996 0 0 0
253 26 2 -0.4048 7.833831805888828 7.738124505918623 14.39956363746233 0 0 0
254 26 3 0.8478 8.960027620627901 8.515075360524516 14.597370821572623 0 0 0
157 16 5 0.0798 13.504938318178052 9.579453890928752 11.845895023151787 0 0 0
256 26 2 -0.4048 8.734691934045895 9.848636186853042 14.664716469554886 0 0 0
159 16 5 0.0798 12.267523727904003 11.103742974106853 13.647746258126666 0 0 0
151 16 1 0.0955 13.897192612190594 9.876786285759662 12.858173019631394 0 0 0
158 16 5 0.0798 14.127153900688217 8.887430009319637 13.343919278232573 0 0 0
152 16 1 0.0955 13.03718629635986 10.49001853832775 14.002805369072842 0 0 0
255 26 4 -0.5484 10.140340136678754 8.125971335559464 14.743374627870443 0 0 0
160 16 5 0.0798 12.56421613271659 9.772804233774353 14.703073626207809 0 0 0
150 15 5 0.0798 22.391598040590523 10.782137673912008 12.361321405824045 -1 0 0
317 32 2 -0.3889835 18.07721095098899 9.039079652080538 12.636531002000986 0 0 0
156 16 2 -0.4048 15.157841332424079 10.581075348737386 12.954198446954022 0 0 0
315 32 3 0.7551165 18.750401795135915 8.842933632719099 11.472310078703417 0 0 0
322 32 5 0.0582835 18.958571248017385 10.67493108584043 13.408013869644254 0 0 0
318 32 1 0.1266165 18.700883842741987 9.688578654202779 13.67901461829104 0 0 0
324 32 5 0.0582835 19.614668273755413 9.170626484265018 13.963030568749314 0 0 0
323 32 5 0.0582835 17.977901806002507 9.738502743428096 14.50435938534927 0 0 0
876 78 5 0.0582835 3.612084965990418 2.5000955640491385 22.666783136846597 0 1 -1
224 23 3 0.8478 3.645410037005978 1.3209344736073378 15.596274554091897 0 0 0
453 43 5 0.0582835 3.542100891249835 7.361175186226519 15.590323650130387 0 0 0
225 23 4 -0.5484 4.637041935447376 1.682391222339687 16.20530505803545 0 0 0
229 23 5 0.0798 0.6451219002992726 1.3698703773592797 14.842023779962652 0 0 0
223 23 2 -0.4048 2.373214932839192 1.2543455355272097 16.16883259187019 0 0 0
51 6 1 0.0955 6.117120292345978 3.8546407772809834 18.271958690184814 0 0 0
52 6 1 0.0955 5.983566398401444 2.5928386732625897 19.051172015569172 0 0 0
53 6 2 -0.4048 5.518677632072381 2.8687745848337327 20.32140957620317 0 0 0
54 6 3 0.8478 5.311919409919092 4.165979175569608 20.40518249890801 0 0 0
55 6 4 -0.5484 4.895681479924026 4.708717722165769 21.44777609986931 0 0 0
56 6 2 -0.4048 5.654918422653244 4.83688699425781 19.22988430170757 0 0 0
57 6 5 0.0798 5.649724484860721 3.853956392482753 17.285584856416772 0 0 0
58 6 5 0.0798 7.207195801726129 4.077113135266655 18.179097051310247 0 0 0
59 6 5 0.0798 5.122301379147587 1.9750438185477504 18.637877461966767 0 0 0
777 70 5 0.0582835 1.7553072393713152 0.34527172103371084 18.84596794131709 1 1 -1
39 4 5 0.0798 3.2203827878894753 3.9407550207994193 17.395707258517096 0 0 -1
40 4 5 0.0798 2.6742620207204078 5.2538477410125095 18.348375694502824 0 0 -1
32 4 1 0.0955 2.488295136181102 4.238394344341293 18.1167184946992 0 0 -1
33 4 2 -0.4048 2.493439020201345 3.4027357990685587 19.281360114561334 0 0 -1
394 38 5 0.0582835 5.926661992872461 7.697663738782332 19.62716665636506 0 0 0
60 6 5 0.0798 6.760050230225604 1.7995639072647154 18.937763273422995 0 0 0
311 31 5 0.0582835 7.232962074014775 0.5208231680542905 21.947765886977475 0 1 0
34 4 3 0.8478 1.2720890791177712 2.9485143255078663 19.6354079169159 0 0 -1
974 88 6 1 0.22518060047870153 0.728074547157823 22.104131680809918 1 0 -1
222 23 1 0.0955 1.563161144082528 0.7515368563539363 15.062128230498878 0 0 0
825 74 5 0.0582835 1.9018053286753762 6.298521354921489 19.98402778481921 0 0 0
35 4 4 -0.5484 1.0418288263915563 2.233159558352537 20.574239439220634 0 0 -1
433 42 1 0.1266165 9.508107753112023 2.336027307634581 15.20968007995586 0 0 0
440 42 5 0.0582835 10.057002289773493 1.3978610903073698 15.169730757022878 0 0 0
439 42 5 0.0582835 9.015796076869071 2.3601656354426552 16.21750696248331 0 0 0
550 51 5 0.0582835 7.869436122417341 7.019562944551199 19.21528555634213 0 0 0
524 49 5 0.0582835 8.141237292637229 3.266295163432802 21.190519453776812 0 0 0
68 7 5 0.0798 12.459080509521016 4.509690904003352 22.332869059094193 0 0 -1
61 7 1 0.0955 12.409610020047426 5.624558274957061 22.374467203728223 0 0 -1
525 49 5 0.0582835 9.532547983630218 2.1756205618002618 20.8349864118787 0 0 0
523 49 5 0.0582835 9.85430818913265 3.6731420467802494 21.54453850545215 0 0 0
517 49 1 0.1266165 9.167904674767799 3.206525524540077 20.846657988144823 0 0 0
70 7 5 0.0798 12.680720029279602 5.514639819334255 20.324171935988225 0 0 -1
920 82 5 0.0582835 14.938047149660346 1.7850968933895492 20.809841578749044 0 0 -1
913 82 1 0.1266165 15.703531165152054 2.1672479285887953 20.1099975973888 0 0 -1
518 49 2 -0.3889835 9.189326760929386 3.7738577843222365 19.550788202660684 0 0 0
519 49 3 0.7551165 10.43763700840227 3.79900894007113 18.92333205111582 0 0 0
520 49 4 -0.5800835 11.484201491859562 3.375590918192335 19.434204792764408 0 0 0
521 49 2 -0.3889835 10.466823904342947 4.342732417845599 17.68682992358307 0 0 0
522 49 1 0.1266165 11.730719520396443 4.411557557361127 16.988497302444145 0 0 0
526 49 5 0.0582835 12.280765932776854 3.4750182016855624 16.968678487232808 0 0 0
527 49 5 0.0582835 11.481169790551514 4.7287132853370295 15.916202883889419 0 0 0
528 49 5 0.0582835 12.369128569755224 5.136078638792157 17.547892714510816 0 0 0
8 1 5 0.0798 11.346568139947268 0.7123203102418793 17.61822538673553 0 0 0
1 1 1 0.0955 12.370685932845008 0.46751319444939665 17.770108280713032 0 0 0
7 1 5 0.0798 12.581869412217433 0.31286632256919367 18.82133399558059 0 0 0
62 7 1 0.0955 12.628895824741926 6.2907421401794785 21.01833274075381 0 0 -1
6 1 2 -0.4048 13.355216664034955 1.4598434103685047 17.325428691702186 0 0 0
66 7 2 -0.4048 11.087616143771072 6.0534146821676735 22.727177775621687 0 0 -1
105 11 4 -0.5484 8.564726489340527 0.3766069268979124 18.191248532537625 0 0 0
69 7 5 0.0798 13.577489854022692 6.857060969674568 20.887609467637223 0 0 -1
63 7 2 -0.4048 11.451439031250185 6.981441039236775 20.76455956693473 0 0 -1
4 1 3 0.8478 14.190411031089209 0.8237663297512847 16.508304636083782 0 0 0
64 7 3 0.8478 10.568134341579928 6.860771015066296 21.76141353520933 0 0 -1
551 51 5 0.0582835 8.593844950341682 6.278839998642375 17.68476724620145 0 0 0
5 1 4 -0.5484 15.170745074482584 1.2971779486734125 15.93730089304401 0 0 0
552 51 5 0.0582835 9.508738956920338 7.326044530086733 18.775991915162177 0 0 0
546 51 1 0.1266165 8.532374168249525 7.150786970562461 18.43895222886324 0 0 0
65 7 4 -0.5484 9.463440356008444 7.357863351235474 21.772039821662243 0 0 -1
887 79 5 0.0582835 13.076767733157439 7.938009038808108 18.119335055672863 0 0 0
138 14 5 0.0798 15.927722134800996 3.4790607430945415 22.43110956826601 0 0 0
131 14 1 0.0955 16.085928279862607 4.528122881325108 22.469865455850343 0 0 0
490 46 5 0.0582835 15.91168509448221 3.6571160838189742 17.034088332804604 0 0 0
921 82 5 0.0582835 15.500433306187539 3.1930829730349983 19.977024703668057 0 0 -1
919 82 5 0.0582835 15.563204751589618 1.6075918994725635 19.192119780456082 0 0 -1
486 46 1 0.1266165 15.869588652750986 4.661802877748845 17.340603108575888 0 0 0
492 46 5 0.0582835 14.869670833690607 4.885758259768177 17.683424808472807 0 0 0
491 46 5 0.0582835 16.64909026274995 4.774316983384289 18.168289886086594 0 0 0
236 24 2 -0.4048 20.182511778703784 2.0587536967328903 14.837332744364742 0 0 -1
38 4 5 0.0798 0.4521636658014192 5.06753139788495 17.206351841806395 0 0 -1
31 4 1 0.0955 1.0173614223927083 4.234107920117106 17.749940119623798 0 0 -1
133 14 2 -0.4048 17.88695127093446 5.878362601650171 21.786192881082965 0 0 0
914 82 2 -0.3889835 16.984181050578243 1.9103599782961282 20.783158905838544 0 0 -1
485 46 2 -0.3889835 16.23465494276615 5.48987646452841 16.202585021348224 0 0 0
235 24 4 -0.5484 21.702762398031133 1.4738133887451244 16.469858550224593 0 0 -1
36 4 2 -0.4048 0.29888927414698463 3.4239342563284665 18.71520136895054 0 0 -1
37 4 5 0.0798 1.0847952167519381 3.631588308894508 16.834755557735313 0 0 -1
136 14 2 -0.4048 15.728665403057525 5.328078214983293 21.355382969880296 0 0 0
916 82 4 -0.5800835 18.080234918680347 3.0591962623746625 19.09722799159572 0 0 -1
917 82 2 -0.3889835 19.368414237806448 2.164560169922522 20.85813807970629 0 0 -1
915 82 3 0.7551165 18.143869791083475 2.429026113286382 20.166921036941787 0 0 -1
134 14 3 0.8478 16.825797737949266 6.078727583198159 20.996968556375407 0 0 0
918 82 1 0.1266165 20.477507657382148 2.7191617342683445 20.167034041291373 0 0 -1
922 82 5 0.0582835 21.423134848560473 2.6460195140162557 20.73944847399977 0 0 -1
924 82 5 0.0582835 20.263600355733516 3.744448511663042 20.021319788298214 0 0 -1
923 82 5 0.0582835 20.621752653962723 2.2234836182802504 19.194847014684502 0 0 -1
567 53 3 0.7551165 19.47459150173477 5.987846809321398 15.8014730069354 0 0 0
569 53 2 -0.3889835 19.80009184613339 5.4119954421228 16.983430980059058 0 0 0
576 53 5 0.0582835 20.3775238896592 7.094772924170376 18.279387985922362 0 0 0
570 53 1 0.1266165 19.673359619210373 6.262781791100166 18.224183590219695 0 0 0
234 24 3 0.8478 20.52425405515315 1.5199259059137704 16.073133118062835 0 0 -1
574 53 5 0.0582835 18.72868980276983 6.7481570912766635 18.33619907528563 0 0 0
239 24 5 0.0798 17.645223511616784 1.973561285806019 16.457841101206657 0 0 -1
232 24 1 0.0955 18.264776818424316 1.2868892261928992 15.9181811467427 0 0 -1
575 53 5 0.0582835 19.851909723196727 5.714177811261928 19.1885786923005 0 0 0
568 53 4 -0.5800835 19.08402057049974 7.15189326883162 15.827946089087398 0 0 0
135 14 4 -0.5484 17.000580886756914 6.89480968233039 20.119252397991286 0 0 0
233 24 2 -0.4048 19.387469552020953 1.0550607455666805 16.727607700540585 0 0 -1
240 24 5 0.0798 17.676033132811597 0.4445342496333111 15.646246970325398 0 0 -1
257 26 5 0.0798 6.742605140718153 10.56872692853649 15.276229178746433 0 0 0
395 38 5 0.0582835 4.803223408962624 7.812651831003354 18.279946266242252 0 0 0
390 38 1 0.1266165 5.208644950290843 8.361295264763369 19.147377809918364 0 0 0
817 74 1 0.1266165 1.2152483548689 6.964857334072733 20.493455587269953 0 0 0
824 74 5 0.0582835 0.6670402120838836 6.418446320330988 21.266285155435554 0 0 0
818 74 2 -0.3889835 0.18293846169397987 7.386870195144612 19.58269922425296 0 0 0
820 74 4 -0.5800835 1.7855023597557542 7.984034036691563 18.011767360817903 0 0 0
823 74 5 0.0582835 1.7010368076252111 7.889499169288868 20.838146890164452 0 0 0
386 38 2 -0.3889835 3.729714871257203 9.852403472840434 22.162087835743367 0 0 0
396 38 5 0.0582835 5.802896128642795 9.215929515271492 18.740995124435475 0 0 0
327 33 3 0.7551165 3.254693132405178 11.193620927244694 15.844640323136023 0 0 0
328 33 4 -0.5800835 4.040373130627943 10.26367964476883 15.732321184218497 0 0 0
389 38 2 -0.3889835 4.203459286860729 8.815004709319407 20.104743166533833 0 0 0
336 33 5 0.0582835 3.3962469982323813 10.408287798032482 18.52366689977319 0 0 0
388 38 4 -0.5800835 5.91617634398963 9.4960840908517 21.477576286512253 0 0 0
387 38 3 0.7551165 4.692579230972737 9.39295846698928 21.27355235155866 0 0 0
828 74 5 0.0582835 0.4938792437773547 9.814384752582491 16.28086404893498 0 0 0
819 74 3 0.7551165 0.6043917690900861 7.886997440458089 18.36504014224566 0 0 0
822 74 1 0.1266165 -0.08684074870808728 8.79502265454569 16.21539309565653 0 0 0
542 51 2 -0.3889835 7.839029840648408 10.616029323608407 17.89009166048144 0 0 0
977 91 6 1 7.761549306298571 9.222179569087723 21.76571813888442 0 0 0
543 51 3 0.7551165 8.131218303360106 9.426716817727785 18.518913159439748 0 0 0
545 51 2 -0.3889835 8.219892308868411 8.34980015050115 17.696088973020547 0 0 0
544 51 4 -0.5800835 8.281021660161352 9.403125221225562 19.767411212230776 0 0 0
732 66 5 0.0582835 11.126958016637904 10.169804710976951 22.56735526902901 0 0 -1
731 66 5 0.0582835 12.0224083056704 10.797906221454022 21.10658066957323 0 0 -1
726 66 1 0.1266165 11.013548747176143 10.664553801785265 21.554079598774564 0 0 -1
888 79 5 0.0582835 12.299118294437665 8.995993783192835 17.00089762941733 0 0 0
881 79 2 -0.3889835 14.273711638453944 8.517580678521517 16.446040376208302 0 0 0
882 79 1 0.1266165 13.003862976367301 8.162850397303563 17.020642506144195 0 0 0
886 79 5 0.0582835 12.472733640595605 7.338253232867714 16.601505956974254 0 0 0
724 66 4 -0.5800835 8.583754939926655 10.780251175064409 22.58048691179871 0 0 -1
730 66 5 0.0582835 10.606991859593988 9.9789824976561 20.781205244328987 0 0 -1
880 79 4 -0.5800835 14.473600317417054 10.139699329738926 17.9647578105486 0 0 0
879 79 3 0.7551165 14.937119981903109 9.539964930390722 17.003524262545092 0 0 0
211 22 1 0.0955 15.561435149922207 9.389024725277089 22.537978229842512 0 0 0
878 79 2 -0.3889835 16.081364840316596 9.818587167134604 16.443513020827073 0 0 0
883 79 5 0.0582835 17.082694131653042 10.761995706357194 18.078927522340123 0 0 0
877 79 1 0.1266165 16.837217940048035 10.975608380269003 17.04669011550022 0 0 0
827 74 5 0.0582835 21.977417921618425 8.949102081246215 15.618752863440411 -1 0 0
826 74 5 0.0582835 0.6267758543433773 8.147172132904336 15.621266872109937 0 0 0
884 79 5 0.0582835 17.799474864475698 11.04253827530167 16.557447855425732 0 0 0
218 22 5 0.0798 15.487225171387614 9.353771739469527 21.46573451362593 0 0 0
821 74 2 -0.3889835 22.57187317451688 8.275003339375335 17.536480925310315 -1 0 0
706 64 5 0.0582835 19.209272038724258 9.057742194357417 20.91074816738902 0 0 0
708 64 5 0.0582835 20.051182139422025 10.341515518424213 21.556895067400948 0 0 0
701 64 2 -0.3889835 18.041024243715263 10.820470803919473 21.130290331409757 0 0 0
702 64 1 0.1266165 19.321884688730393 10.117636077981869 20.809269529694294 0 0 0
707 64 5 0.0582835 19.74075602297669 10.213707892721414 19.81771885318773 0 0 0
91 10 1 0.0955 2.0193384262141576 22.324538009218088 4.535412427291249 0 0 0
97 10 5 0.0798 3.057972264743662 22.208735184280698 4.538283753554865 0 0 0
100 10 5 0.0798 0.902863972800404 21.77025677882385 6.424893798960776 0 0 0
901 81 1 0.1266165 20.43538197275288 22.671292690647483 6.11884690793623 0 -1 0
716 65 5 0.0582835 3.8628926007657958 11.495351472936413 4.406318122552899 0 0 0
299 30 5 0.0798 22.224362300880927 13.459268949062668 5.828123098755767 0 0 0
420 40 5 0.0582835 3.141066465366413 15.498853741158047 1.7104069544386897 0 0 0
412 40 4 -0.5800835 4.491052184358844 13.727958862787158 3.493686160778252 0 0 0
417 40 5 0.0582835 4.374801558755018 13.333118526035769 6.155727196676581 0 0 0
293 30 2 -0.4048 0.7610208476997766 13.224279902309435 4.558560241077726 1 0 0
292 30 1 0.0955 22.661887443055853 12.685301444576897 5.230460269072658 0 0 0
294 30 3 0.8478 0.5358370653366575 13.224900118994977 3.2013114332760226 1 0 0
295 30 4 -0.5484 1.3764295825282011 13.651007665542416 2.4038129377214474 1 0 0
727 66 5 0.0582835 7.165780151745592 12.539708790997402 0.960773392171022 0 0 0
403 39 5 0.0582835 11.04890274858655 12.842036888934945 1.0432095879811183 0 0 0
397 39 1 0.1266165 11.604653730715514 13.55760903088408 1.6537440685807907 0 0 0
400 39 4 -0.5800835 9.065198564512194 14.320536731784951 2.1899435705154233 0 0 0
583 54 5 0.0582835 9.079551559196307 13.277084741132619 5.807857103088865 0 0 0
405 39 5 0.0582835 11.383295330648085 13.261571126842153 2.654043548691715 0 0 0
577 54 1 0.1266165 10.019213614717646 13.788703276856856 6.143833035882161 0 0 0
584 54 5 0.0582835 10.783573660233934 13.522188039111372 5.4173584076888694 0 0 0
748 68 4 -0.5800835 13.63482677201215 14.819174313738726 5.322297161165846 0 0 0
853 77 1 0.1266165 13.230585843979215 11.324465732147774 4.991668252719684 0 0 0
861 77 5 0.0582835 13.021478989085484 11.713219453746358 3.991804532825391 0 0 0
404 39 5 0.0582835 12.68897047460082 13.439789647326073 1.499006940170195 0 0 0
398 39 2 -0.3889835 11.139507770425576 14.965434847492737 1.424168120065456 0 0 0
399 39 3 0.7551165 9.827035208650965 15.19192860631978 1.7287469568684295 0 0 0
859 77 5 0.0582835 12.562678560059366 11.745882430336252 5.736029829927939 0 0 0
860 77 5 0.0582835 14.21401035707167 11.652493023549566 5.272276212348578 0 0 0
585 54 5 0.0582835 10.349693707554767 13.509978249538056 7.162360858429321 0 0 0
751 68 5 0.0582835 14.536249469728082 13.960643639792025 7.736940083294724 0 0 0
747 68 3 0.7551165 13.303663146890278 15.758330865383941 6.074291971957857 0 0 0
746 68 2 -0.3889835 13.215253698982135 15.596783029598946 7.4103600017109725 0 0 0
728 66 5 0.0582835 6.677150577667688 13.901394993392794 -0.12642059061623978 0 0 0
721 66 1 0.1266165 7.063147416181071 12.8695799006599 -0.12467905379494996 0 0 0
300 30 5 0.0798 -0.10960553097425066 11.910936537633173 5.915690558177883 1 0 0
291 30 1 0.0955 21.679284618653625 12.294570865542958 4.2070904046612 0 0 0
296 30 2 -0.4048 22.278046066792115 12.673901080070914 2.905563246861728 0 0 0
297 30 5 0.0798 20.67301645136431 12.80575492567081 4.344069479995223 0 0 0
370 36 5 0.0582835 16.258964654746777 11.5080213262175 3.4430679685764227 0 0 0
371 36 5 0.0582835 17.306567186113995 11.719599806492425 4.818288234917359 0 0 0
677 62 2 -0.3889835 17.136090318331007 13.516415833196854 1.8697445503232966 0 0 0
675 62 3 0.7551165 18.236983651086433 13.673378261707917 1.1206184403462012 0 0 0
683 62 5 0.0582835 15.275923168772465 14.33571041143542 2.3790284810723694 0 0 0
674 62 2 -0.3889835 19.012392207557546 12.554213605406096 1.2231145674022446 0 0 0
595 55 5 0.0582835 19.013714613964083 14.650527732730561 5.9333318661334555 -1 0 0
679 62 5 0.0582835 20.919562924092716 13.294347222362521 0.8068205620300373 0 0 0
684 62 5 0.0582835 16.61795332006742 15.403309117855434 2.5370991654982786 0 0 0
678 62 1 0.1266165 16.224674956678754 14.619598380429935 1.8923928043342815 0 0 0
682 62 5 0.0582835 15.975456884777634 15.006787046046105 0.919989092255475 0 0 0
676 62 4 -0.5800835 18.53283066907487 14.67531336356371 0.44199262947851203 0 0 0
673 62 1 0.1266165 20.27051307298312 12.54246150270914 0.5050914885014182 0 0 0
680 62 5 0.0582835 20.860689104717196 11.634627054706097 0.7632688730837743 0 0 0
410 40 2 -0.3889835 5.1801374786959276 15.029387824511513 5.198376568793655 0 0 0
411 40 3 0.7551165 4.7643751067556845 14.853543008560505 3.9169714087591334 0 0 0
409 40 1 0.1266165 5.311554313558036 13.877561577715763 6.074962732340586 0 0 0
415 40 5 0.0582835 6.140100882993155 13.198024752378846 5.713412947740389 0 0 0
416 40 5 0.0582835 5.497557692801799 14.168118284890646 7.1279293303115825 0 0 0
419 40 5 0.0582835 4.822326141786372 15.129601305360428 1.21942665133176 0 0 0
92 10 1 0.0955 1.2394349061065142 21.369520091118275 5.469825924407123 0 0 0
99 10 5 0.0798 1.9892584284987618 20.61559996436174 5.739785406587878 0 0 0
413 40 2 -0.3889835 4.660354139051781 15.965310622471353 3.1103626801253323 0 0 0
414 40 1 0.1266165 4.237931633592164 15.821640267966629 1.7378823483284023 0 0 0
96 10 2 -0.4048 1.4655087631159487 22.222247035964585 3.2086275402560527 0 0 0
418 40 5 0.0582835 4.331773993883262 16.744188840402444 1.232370528823811 0 0 0
93 10 2 -0.4048 0.26101788503379153 20.780331008075965 4.584985972009923 0 0 0
866 78 2 -0.3889835 3.5714955346381196 21.529017292166255 0.20559724463087753 0 0 0
12 2 1 0.0955 1.4031922868152182 16.346544119147207 4.643563117169705 0 0 0
11 2 1 0.0955 2.231603600947654 17.49453639999551 5.226425500658228 0 0 0
16 2 2 -0.4048 2.5416796261115073 18.325716591136878 4.130987083763781 0 0 0
13 2 2 -0.4048 1.2888637870919262 16.56560405144335 3.213846613584031 0 0 0
14 2 3 0.8478 2.016886534530077 17.7785300390584 3.012461593129267 0 0 0
15 2 4 -0.5484 2.1552935720151623 18.289688036468775 1.875026653971552 0 0 0
28 3 5 0.0798 4.077444871313218 20.32917644008634 2.5892644829085723 0 0 1
30 3 5 0.0798 5.751763551915068 19.006162259807056 2.115100402414061 0 0 1
873 78 5 0.0582835 1.6693559784318508 20.525759623104683 0.451515892852386 0 0 0
265 27 4 -0.5484 4.377467063338937 19.434780032071075 6.503590360335448 0 0 0
18 2 5 0.0798 1.5379563040840232 18.060611169309677 5.805651890439869 0 0 0
21 3 1 0.0955 5.023292172016397 20.625465952543117 3.1145203321520762 0 0 1
27 3 5 0.0798 4.686647393373596 20.813993571700195 4.1529981282660104 0 0 1
22 3 1 0.0955 5.844849502237056 19.409121274257775 3.1929687993566933 0 0 1
29 3 5 0.0798 5.491242524028868 18.490837242580664 3.657943695098914 0 0 1
17 2 5 0.0798 3.0004571386909 17.055210198803945 5.840276008710508 0 0 0
19 2 5 0.0798 1.9369897739251165 15.375455432489039 4.85328458422675 0 0 0
26 3 2 -0.4048 5.892748593592181 21.69655677504258 2.812599389351068 0 0 1
767 69 5 0.0582835 0.9067635234278586 16.205955111438307 0.434257811111738 0 0 0
94 10 3 0.8478 0.4199763427063966 21.307021456524645 3.2912271324797353 0 0 0
24 3 3 0.8478 7.237021621482922 21.171602018737065 2.745790874618451 0 0 1
23 3 2 -0.4048 7.249601672361015 19.81326327307602 2.9700339870657975 0 0 1
766 69 5 0.0582835 22.262205347990196 16.360677820856097 0.31112943966918494 -1 0 0
762 69 1 0.1266165 0.1898838354817236 16.709439952839922 -0.18381657252468342 0 0 0
768 69 5 0.0582835 0.2736659147444005 17.80626139630913 0.021979216219890685 0 0 0
407 39 5 0.0582835 7.297662984943903 15.941491714821272 1.443010333658485 0 0 0
408 39 5 0.0582835 7.887494947720409 16.496987037028127 2.912478004563393 0 0 0
402 39 1 0.1266165 7.995893118358673 16.670460875727724 1.8504910912076 0 0 0
578 54 2 -0.3889835 9.881823627279294 15.2831871582193 6.174838364099785 0 0 0
579 54 3 0.7551165 8.839581112235965 15.677101715942865 7.0269336975925345 0 0 0
406 39 5 0.0582835 7.7766710946102435 17.680830403436218 1.6030663407033978 0 0 0
815 73 5 0.0582835 13.118005008136567 22.421806855104045 1.9907492931027537 0 -1 0
810 73 1 0.1266165 12.812677813590478 21.948959568448856 2.8980498975040523 0 -1 0
814 73 5 0.0582835 13.777398455964452 21.73867225479812 3.3474414668752823 0 -1 0
25 3 4 -0.5484 8.227823684489309 21.857381549919413 2.469329205455087 0 0 1
401 39 2 -0.3889835 9.412746853467992 16.433492961229625 1.5003300013243739 0 0 0
807 73 3 0.7551165 11.266483960728474 20.262395484537784 3.7172683451514947 0 -1 0
808 73 4 -0.5800835 11.497856830626436 20.64943059202746 4.8472151778270876 0 -1 0
809 73 2 -0.3889835 11.88378474047096 20.84623285805511 2.6126221667906284 0 -1 0
806 73 2 -0.3889835 10.394660347150886 19.186733435324573 3.454380799193204 0 -1 0
811 73 5 0.0582835 9.295347266858442 19.319934750981098 5.13725258933246 0 -1 0
805 73 1 0.1266165 9.752776016718125 18.572966149236716 4.574871363995369 0 -1 0
813 73 5 0.0582835 10.4709012955488 18.12421497325184 5.227493922149726 0 -1 0
812 73 5 0.0582835 9.145681894914649 17.70935432509429 4.303995723215544 0 -1 0
581 54 2 -0.3889835 8.653346311705876 17.05386536157357 7.108621813254668 0 0 0
756 68 5 0.0582835 12.586530196742808 16.63017150544127 3.5096218662432093 0 0 0
791 71 5 0.0582835 12.502955933069769 17.63653379222546 0.9287224396008347 0 0 1
786 71 1 0.1266165 12.53058341011577 17.295319225174996 -0.09230710066759756 0 0 1
754 68 5 0.0582835 13.050845376027919 18.272310131148213 3.8731478375117403 0 0 0
750 68 1 0.1266165 13.150498935023256 17.21346600758492 4.145299261076108 0 0 0
749 68 2 -0.3889835 13.036277653326547 17.054833636713283 5.603770535988039 0 0 0
790 71 5 0.0582835 12.874179197839695 16.22762345152017 -0.11556316006379384 0 0 1
755 68 5 0.0582835 14.12527052280186 17.038457895408683 3.8106903403668833 0 0 0
656 60 5 0.0582835 13.014592476630112 18.257569915379413 8.377045715661852 0 0 0
197 20 5 0.0798 10.620034714814798 22.104495723973137 0.5744764361649983 0 0 1
199 20 5 0.0798 10.857917407798228 19.757693258683947 0.3613612090642274 0 0 1
200 20 5 0.0798 9.138396227290425 19.894658076001985 -0.037201322924083596 0 0 1
476 45 5 0.0582835 14.309402995817038 21.070523822662366 0.17482439872411498 0 0 1
908 81 5 0.0582835 20.889648208065196 21.756772942595507 5.6147084000538126 0 -1 0
909 81 5 0.0582835 20.14818181649835 22.476329842086145 7.13773412347718 0 -1 0
461 44 2 -0.3889835 16.021258443766293 22.42106581370777 5.588127234417297 -1 -1 0
20 2 5 0.0798 0.4534803265728078 16.126210513181583 5.1582846603931864 0 0 0
95 10 4 -0.5484 22.720122804279605 20.95395428223695 2.3572821367773003 -1 0 0
597 55 5 0.0582835 17.450745580748155 14.930509939992195 5.248054256543983 -1 0 0
600 55 5 0.0582835 21.193669706160833 18.215833406962922 3.607994105393637 -1 0 0
464 44 5 0.0582835 15.757635842872611 18.260613972090304 4.766376704355959 -1 -1 0
41 5 1 0.0955 17.93771061401194 22.618228200602307 0.7868969252528375 0 -1 0
463 44 5 0.0582835 17.054233991633865 18.736748193685322 5.891790286188582 -1 -1 0
175 18 4 -0.5484 15.740075775083973 17.698648923405905 1.7230752425499325 0 0 1
457 44 1 0.1266165 16.552509330279086 18.976031703451618 4.904925767865614 -1 -1 0
589 55 1 0.1266165 18.10972604842594 15.229577958786155 6.067944725113748 -1 0 0
592 55 4 -0.5800835 19.494457173856254 16.26507728653522 4.03344891310471 -1 0 0
459 44 3 0.7551165 16.665524300025524 21.252937569766498 5.455154550698313 -1 -1 0
458 44 2 -0.3889835 15.891038426966558 20.202473170773416 5.048339819128178 -1 -1 0
460 44 4 -0.5800835 17.83783653669149 21.133182782335872 5.675377427979345 -1 -1 0
590 55 2 -0.3889835 18.541251041960294 16.612177761388224 6.077108164968269 -1 0 0
598 55 5 0.0582835 19.651697998897205 18.865807184345652 3.0808122988942443 -1 0 0
591 55 3 0.7551165 19.23999266459991 17.001272712275057 4.972535082710349 -1 0 0
593 55 2 -0.3889835 19.599396974189894 18.308169772797193 5.032663399218023 -1 0 0
594 55 1 0.1266165 20.33874181984838 18.855484566098955 3.8960242849690596 -1 0 0
599 55 5 0.0582835 20.60457269184596 19.84717938519673 4.131491355910753 -1 0 0
465 44 5 0.0582835 17.3074964036687 19.058760333646052 4.089159697640552 -1 -1 0
174 18 3 0.8478 16.458613867531945 17.953895005234717 0.7546503871683173 0 0 1
176 18 2 -0.4048 17.41975157739791 18.953297802742092 0.8739745615535879 0 0 1
672 61 5 0.0582835 20.969433262356418 19.908792611514578 6.974345429991085 -1 -1 0
670 61 5 0.0582835 20.7426141514406 18.288502762006768 7.844660961856016 -1 -1 0
671 61 5 0.0582835 19.502925307020078 19.4421820218069 7.585680808443371 -1 -1 0
666 61 1 0.1266165 20.509530784625547 19.39328511103259 7.817027278964726 -1 -1 0
48 5 5 0.0798 17.93617121235318 21.761651580589785 1.4114920458991218 0 -1 0
614 57 2 -0.3889835 7.50454614955118 22.7937000028323 8.988615209796977 0 0 0
742 67 5 0.0582835 3.5704068830319007 12.786887521016787 8.284724078331555 1 0 0
737 67 2 -0.3889835 1.7199615918751456 11.81415800231762 8.062564572551082 1 0 0
744 67 5 0.0582835 3.3597364669670142 11.324891584583257 9.28583436470594 1 0 0
738 67 1 0.1266165 2.8580283003004654 12.173117498064924 8.876885240983126 1 0 0
743 67 5 0.0582835 2.5603914411785214 12.788928064738961 9.781218632529862 1 0 0
186 19 2 -0.4048 5.749797206621858 13.536653392065809 9.924724001246933 0 0 0
188 19 5 0.0798 6.804156447507995 11.878849042178324 9.298192310273445 0 0 0
187 19 5 0.0798 5.819182793994544 11.709792640869729 10.81670546922521 0 0 0
181 19 1 0.0955 6.4430212754892855 12.331214913595382 10.188382708836405 0 0 0
182 19 1 0.0955 7.600017406241887 12.69147546070972 11.090052100866831 0 0 0
184 19 3 0.8478 6.356503165539055 14.540353731894252 10.587971099852323 0 0 0
183 19 2 -0.4048 7.422836053688944 14.097798658173112 11.247340418736828 0 0 0
190 19 5 0.0798 8.470001646029782 12.708536734626842 10.572320521496435 0 0 0
995 97 7 -0.58 11.173620177660721 12.985631708413598 9.959452388703065 0 0 0
998 97 7 -0.58 13.333424116298184 12.02402247127104 10.576441039428353 0 0 0
996 97 8 1.32 11.944330308567089 11.73900982968976 10.155312253922567 0 0 0
753 68 5 0.0582835 12.741131128486979 13.560175598401145 7.614447428011556 0 0 0
745 68 1 0.1266165 13.515382400739318 14.270714718258601 7.971482429162283 0 0 0
752 68 5 0.0582835 13.434949004806342 14.308063106161269 9.032072613574272 0 0 0
129 13 5 0.0798 11.553633244768703 15.532960468708337 9.686763676564555 0 0 0
75 8 4 -0.5484 18.59126597411324 12.585709074513778 7.772683156337548 0 0 0
147 15 5 0.0798 21.753743009275674 13.287729278835545 11.048271743218205 -1 0 0
74 8 3 0.8478 17.89016273548779 12.647843604071463 8.778517702303905 0 0 0
948 84 5 0.0582835 22.51051670313162 13.77087335839185 8.182398298138397 -1 0 0
78 8 5 0.0798 15.714445982718484 13.793756720912803 10.658006902615352 0 0 0
80 8 5 0.0798 15.68718323602432 11.593902795209754 10.451069816025175 0 0 0
71 8 1 0.0955 16.67704185461892 13.411104057531864 10.548146586363803 0 0 0
72 8 1 0.0955 16.686331716772116 11.90900918318547 10.533299148567512 0 0 0
76 8 2 -0.4048 17.439783802837546 13.794666278144446 9.412970427845345 0 0 0
73 8 2 -0.4048 17.46245828934613 11.5630111694616 9.416621835750636 0 0 0
946 84 5 0.0582835 20.87972869756309 14.486853975407113 8.693784389818951 -1 0 0
588 54 5 0.0582835 6.68743320056924 16.990657901236634 7.621765151414426 0 0 0
938 84 2 -0.3889835 1.5470954407123414 16.743851323925092 10.042829998120043 0 0 0
939 84 3 0.7551165 0.924088517439478 15.946256832033832 9.129313773335577 0 0 0
945 84 5 0.0582835 3.5648177385099102 16.261791762850276 9.963349041149987 0 0 0
264 27 3 0.8478 4.536937922766196 19.959289567630666 7.627712901110621 0 0 0
944 84 5 0.0582835 3.165095535836327 17.804144548058943 10.60154910128571 0 0 0
937 84 1 0.1266165 2.90168940637479 17.116713459760142 9.818141870123146 0 0 0
266 27 2 -0.4048 3.9124579495551624 21.184198278960775 7.911990213744286 0 0 0
269 27 5 0.0798 5.9772434879060885 20.957865773860608 10.25707733973221 0 0 0
263 27 2 -0.4048 5.246996018941696 19.572493893936624 8.716695286127994 0 0 0
943 84 5 0.0582835 3.129911663644009 17.542292473297813 8.793861756572046 0 0 0
262 27 1 0.0955 5.094654368277245 20.54443896466395 9.792286307190555 0 0 0
669 61 5 0.0582835 1.2672409477264324 19.626548261675083 10.898641970740385 0 -1 0
667 61 5 0.0582835 1.2338992995214144 21.36983393004855 10.826439483452576 0 -1 0
270 27 5 0.0798 4.518073028842654 19.979462295148558 10.601211575681349 0 0 0
261 27 1 0.0955 4.204221889133807 21.653033201048952 9.244663588704006 0 0 0
267 27 5 0.0798 4.726138382491916 22.62352785606806 9.004462799618466 0 0 0
185 19 4 -0.5484 6.006392120813476 15.688798281474401 10.557448349138337 0 0 0
268 27 5 0.0798 3.3138191539323514 21.89319097368387 9.901446533100287 0 0 0
940 84 4 -0.5800835 1.5034063822059198 15.52812918155797 8.112775204020544 0 0 0
649 60 1 0.1266165 14.015201807384821 18.559345427151204 8.104793047535022 0 0 0
657 60 5 0.0582835 14.055205172806284 18.93860795017549 7.049174706906045 0 0 0
587 54 5 0.0582835 7.5242823962106815 18.53253411440176 7.965355576963685 0 0 0
582 54 1 0.1266165 7.621418255590203 17.440679752384607 7.994808347803485 0 0 0
580 54 4 -0.5800835 8.146438145774574 14.899225416349518 7.654997826968541 0 0 0
615 57 3 0.7551165 8.714614707708929 22.236549441416077 8.785612646203823 0 0 0
936 83 5 0.0582835 9.784682001741912 21.74920116609106 11.268044571558201 0 0 0
130 13 5 0.0798 9.928411858093733 15.416129740424719 10.320198951926292 0 0 0
586 54 5 0.0582835 7.843562413752105 17.17173364055505 9.029074989694168 0 0 0
359 35 5 0.0582835 14.20770625058683 21.569246693241983 11.139606770567028 0 0 0
358 35 5 0.0582835 12.818795792986583 21.670219659098926 9.899322981180037 0 0 0
354 35 1 0.1266165 13.503328780627337 22.20132527412696 10.569117949673833 0 0 0
122 13 1 0.0955 10.908900722026202 15.908762355464138 10.429691468050226 0 0 0
623 57 5 0.0582835 9.867867240047525 19.238485264764474 8.414454771106078 0 0 0
123 13 2 -0.4048 10.997945419308817 17.329435012336 10.099055458299105 0 0 0
617 57 2 -0.3889835 8.751954761953417 20.857327071993044 8.675512586816918 0 0 0
618 57 1 0.1266165 10.065232167636822 20.272940430150243 8.504850104533332 0 0 0
622 57 5 0.0582835 10.632649674903535 20.406455263200492 9.402166114793726 0 0 0
624 57 5 0.0582835 10.647934138196785 20.79277506162799 7.607944979195768 0 0 0
124 13 3 0.8478 11.63477367217948 17.901577895298338 11.18941618280619 0 0 0
125 13 4 -0.5484 11.861317482510325 19.098741778875073 11.215944711063843 0 0 0
655 60 5 0.0582835 14.549310980405393 17.686070760587256 8.234519469065917 0 0 0
957 85 5 0.0582835 15.216546760879876 17.590654094142323 11.177561678818844 0 0 0
956 85 5 0.0582835 14.834121303789766 16.497208559775835 9.86367433544298 0 0 0
650 60 2 -0.3889835 14.516349767499879 19.51519629152851 9.093117882182307 0 0 0
941 84 2 -0.3889835 22.615669991361287 15.593070586091285 9.382886051489052 -1 0 0
942 84 1 0.1266165 21.91710408391632 14.700515578797622 8.451965051885379 -1 0 0
661 61 1 0.1266165 0.7118962759101712 20.486444909129823 11.25447432143166 0 -1 0
664 61 4 -0.5800835 -0.023834913319318113 19.609479850212722 8.694050410838145 0 -1 0
596 55 5 0.0582835 17.690449815471958 15.011052541511686 7.054186066535027 -1 0 0
947 84 5 0.0582835 21.832768139074005 15.281837988857108 7.478341964523713 -1 0 0
662 61 2 -0.3889835 22.299895215548197 20.41134429968094 10.751792641687254 -1 -1 0
663 61 3 0.7551165 22.108313581632835 19.958411195339917 9.48841726206618 -1 -1 0
949 85 1 0.1266165 15.271347299006353 16.567629438034214 10.877490003342091 0 0 0
659 60 5 0.0582835 18.138123474476558 21.564242811565094 10.745711069659045 0 0 0
653 60 2 -0.3889835 16.388698796754042 20.632118426478552 10.020675993686625 0 0 0
955 85 5 0.0582835 16.320126502434718 16.268286145456752 10.832056270110042 0 0 0
497 47 2 -0.3889835 19.893312414485173 15.78695320478515 11.226230178152077 0 0 0
660 60 5 0.0582835 18.37374760095394 19.820459607171554 10.089047301352167 0 0 0
665 61 2 -0.3889835 20.793942555123593 19.89614302431309 9.13995490799309 -1 -1 0
651 60 3 0.7551165 15.896697541593925 19.729453771456015 9.08321411125701 0 0 0
658 60 5 0.0582835 18.037839264948033 21.274211272080564 9.048844674492434 0 0 0
498 47 1 0.1266165 19.720311699860012 17.004430196422845 10.394591917884517 0 0 0
503 47 5 0.0582835 20.305109843945168 16.891639220578348 9.484433899620647 0 0 0
504 47 5 0.0582835 18.67054122760141 16.952778085634613 10.183811742008004 0 0 0
652 60 4 -0.5800835 16.62458797941587 19.17127486924915 8.312813002958226 0 0 0
654 60 1 0.1266165 17.79664143736754 20.822647777916526 9.968227821794484 0 0 0
502 47 5 0.0582835 19.972759892690974 17.934730150544812 10.936427601755188 0 0 0
799 72 5 0.0582835 0.48584457953340743 12.814247899606391 0.07551995305068882 1 0 1
391 38 5 0.0582835 4.907293791565715 11.312977388979695 0.3320042934520633 0 0 1
865 78 1 0.1266165 2.5557410636607334 20.495168891578544 -0.19074191963990902 0 0 0
872 78 5 0.0582835 3.023729205745714 19.52185504333866 -0.15093516390519773 0 0 0
46 5 2 -0.4048 19.064041461739627 22.308860142709044 -0.06910602886014411 0 -1 0
178 18 5 0.0798 19.149911041276134 18.68940110913084 -0.07772293786576806 0 0 1
198 20 5 0.0798 9.395003600827367 22.008615300732423 22.589047944223115 0 0 0
192 20 1 0.0955 10.198871407126175 20.178684648164264 22.665225457014838 0 0 0
191 20 1 0.0955 10.460177372377423 21.62132639708309 22.628375743573603 0 0 0
228 23 5 0.0798 2.401994621950762 22.545869693594895 13.486716866209946 0 -1 0
935 83 5 0.0582835 8.517573455712338 22.592628670128494 12.203210943728928 0 0 0
332 33 5 0.0582835 1.9019843793280748 11.413025528549843 12.773758753533034 0 0 0
338 34 2 -0.3889835 4.038423247169259 13.881618579898168 12.949879816117583 0 0 0
339 34 3 0.7551165 4.942939575605384 14.24161313267936 13.887654097585424 0 0 0
341 34 2 -0.3889835 5.971217392727716 13.315006658544593 14.071315891839843 0 0 0
148 15 5 0.0798 0.32653151895650945 12.644272933276286 11.712325139203303 0 0 0
189 19 5 0.0798 7.615914353366724 12.12286516859558 12.087682809157284 0 0 0
326 33 2 -0.3889835 2.5535048722232307 11.654633365204297 14.80834025658335 0 0 0
127 13 5 0.0798 12.162965941590766 14.843712890435262 11.864464957125929 0 0 0
953 85 2 -0.3889835 14.135628736831329 14.921367627869165 13.965970260841177 0 0 0
153 16 2 -0.4048 13.885908703875824 11.40746362538785 14.616038091325287 0 0 0
128 13 5 0.0798 10.630745310962148 15.657042260108119 12.476075027669182 0 0 0
950 85 2 -0.3889835 14.546500085309809 15.702567771047383 11.80639683888912 0 0 0
539 50 5 0.0582835 10.063424581915344 13.196169812240083 15.114077127604952 0 0 0
144 15 3 0.8478 21.930521642308456 13.174418526496549 14.176259359029375 -1 0 0
142 15 1 0.0955 21.65939142250668 11.596870478020097 12.467863322641438 -1 0 0
141 15 1 0.0955 22.286510876106533 12.833217392929143 11.947494891089425 -1 0 0
149 15 5 0.0798 20.779801621338436 11.419435883070342 11.842393539265156 -1 0 0
143 15 2 -0.4048 21.465408049380727 11.85356951137421 13.894772156300354 -1 0 0
79 8 5 0.0798 17.03157544355833 11.413240416341196 11.420501611417333 0 0 0
146 15 2 -0.4048 22.428018415383256 13.777393920458776 13.101225875450185 -1 0 0
77 8 5 0.0798 17.19993933185541 13.763364751773238 11.407202374567582 0 0 0
154 16 3 0.8478 15.088784302175766 11.428034079462574 13.975373843683705 0 0 0
155 16 4 -0.5484 16.017858103537428 12.133039110425859 14.274902352766864 0 0 0
499 47 5 0.0582835 17.730519785981343 14.600618087623618 14.314932010465895 0 0 0
494 47 2 -0.3889835 19.47595187441795 14.501115761133306 13.179578996517062 0 0 0
493 47 1 0.1266165 18.80841474137219 14.397242067422559 14.417166428944183 0 0 0
500 47 5 0.0582835 19.058369632807725 13.393036448254373 14.821784785631111 0 0 0
501 47 5 0.0582835 19.165882670917476 15.23761850502361 15.027397127253092 0 0 0
337 34 1 0.1266165 2.995139254560307 14.777706936732894 12.67251653289099 0 0 0
344 34 5 0.0582835 2.2659848630866906 14.493998159617473 11.98526387556507 0 0 0
343 34 5 0.0582835 3.387617448088099 15.684477031647708 12.331182426664647 0 0 0
345 34 5 0.0582835 2.391895283763448 14.823276073872963 13.6101944226514 0 0 0
340 34 4 -0.5800835 4.911288924949348 15.316858592106984 14.50953262542356 0 0 0
633 58 5 0.0582835 0.7832142286692525 16.779327812960172 12.654744183088821 0 -1 0
990 96 7 -0.58 4.803211823846455 20.708213051933342 13.413501708450283 0 0 0
991 96 8 1.32 3.903472092775858 19.81852313336175 14.14429912922122 0 0 0
994 96 7 -0.58 2.7970928693870905 19.476590824894274 13.330312154803059 0 0 0
898 80 5 0.0582835 6.608548716339914 17.537521212579296 12.694986585545314 0 0 0
899 80 5 0.0582835 6.834204298986046 19.05479435327555 11.797553150377782 0 0 0
993 96 7 -0.58 4.721078987174373 18.526895057055246 14.369798169594198 0 0 0
930 83 1 0.1266165 9.410687269209914 22.01146056837294 12.230400702465456 0 0 0
934 83 5 0.0582835 9.217790476537767 21.09152444640695 12.760882501669977 0 0 0
121 13 1 0.0955 11.541004385028572 15.745835528137679 11.809705924688078 0 0 0
900 80 5 0.0582835 7.88534138288321 17.732989451950473 11.314040649287149 0 0 0
894 80 1 0.1266165 7.386933809223608 18.173070986739297 12.249262615890352 0 0 0
893 80 2 -0.3889835 8.256482630954114 18.589253354728196 13.303569193093042 0 0 0
891 80 3 0.7551165 8.854059796386473 17.579553658834428 13.977489318986184 0 0 0
126 13 2 -0.4048 11.961443131702293 17.017012960845584 12.201395486763444 0 0 0
848 76 5 0.0582835 13.656732836906995 20.625153007441494 13.71602187295032 0 -1 0
890 80 2 -0.3889835 9.67086182922544 17.962972966201633 15.012391862521346 0 0 0
892 80 4 -0.5800835 8.65923635232568 16.365641794476492 13.66052628952061 0 0 0
847 76 5 0.0582835 14.74215044251965 19.519755992144876 14.54179474398809 0 -1 0
841 76 1 0.1266165 14.639838424240901 20.16888428831464 13.617195020553522 0 -1 0
951 85 3 0.7551165 14.831402448035305 15.778494318457733 13.13224406258321 0 0 0
895 80 5 0.0582835 11.065436740127911 16.244094427714888 15.13395932644324 0 0 0
889 80 1 0.1266165 10.286894525833132 16.82118119942336 15.708712975932507 0 0 0
849 76 5 0.0582835 14.795001144580736 19.496870498127706 12.754044628096521 0 -1 0
668 61 5 0.0582835 0.7851002594759848 20.56877177785018 12.353420728605398 0 -1 0
631 58 5 0.0582835 22.15105259898676 16.29681648761625 13.103053320039045 -1 -1 0
632 58 5 0.0582835 22.466029585741943 17.153607515390906 11.480893977715267 -1 -1 0
625 58 1 0.1266165 -0.23121001871421498 17.11440805101491 12.531359294906505 0 -1 0
626 58 2 -0.3889835 22.523739984239526 18.358127619881085 13.192955447919088 -1 -1 0
495 47 3 0.7551165 19.231811269877497 15.699939306415919 12.450958229985044 0 0 0
952 85 4 -0.5800835 15.687555309043793 16.59052536255906 13.53427208310046 0 0 0
844 76 4 -0.5800835 17.139441451350457 19.49695178412231 13.662660078030957 0 -1 0
975 89 6 1 17.352447194562842 17.66766747802564 14.19375168040857 0 0 0
496 47 4 -0.5800835 18.524037908849223 16.63156977297549 12.77882986835202 0 0 0
850 76 5 0.0582835 19.42362803341566 20.268732592949227 12.750779430396069 0 -1 0
842 76 2 -0.3889835 15.64537296510309 21.215464451390144 13.570254214441604 0 -1 0
843 76 3 0.7551165 16.9284601809793 20.728775912940712 13.599231149970182 0 -1 0
845 76 2 -0.3889835 17.93051640196255 21.641903238609892 13.54259548269725 0 -1 0
846 76 1 0.1266165 19.271662911822368 20.99239283452912 13.570523042112761 0 -1 0
310 31 5 0.0582835 5.578855774228783 22.760996618884946 21.604927758069813 0 0 0
306 31 1 0.1266165 6.67310939463964 22.655295903203275 21.52521067185883 0 0 0
312 31 5 0.0582835 6.975248578599962 22.62934325273693 20.440678776701297 0 0 0
769 70 1 0.1266165 2.2130849495771265 22.470877791245123 19.272387891059406 1 0 -1
775 70 5 0.0582835 2.528661992963012 22.632486678700726 20.33876073454773 1 0 -1
477 45 5 0.0582835 13.905015044901209 22.39013954500593 22.05453388931632 0 0 0
801 72 5 0.0582835 2.0162092515550927 12.525813321097662 22.129677452523698 1 0 0
793 72 1 0.1266165 1.000128313391266 12.040269603792312 22.481293552619114 1 0 0
342 34 1 0.1266165 6.9931792099603785 13.602512356708422 15.01280421155336 0 0 0
348 34 5 0.0582835 7.441305239440219 14.576880021439182 14.935871747819457 0 0 0
347 34 5 0.0582835 7.8277653006497605 12.88634004574414 14.947196606274495 0 0 0
346 34 5 0.0582835 6.466037678738565 13.554991054070927 15.997256932363566 0 0 0
1012 100 7 -0.58 4.575742339509656 15.196486518519405 21.70625932742937 1 0 0
329 33 2 -0.3889835 2.9283899998970977 11.882294567175487 16.980996343040587 0 0 0
335 33 5 0.0582835 3.1552973823296555 12.155187841818531 18.99466367283326 0 0 0
334 33 5 0.0582835 4.643255113805424 11.739077883304619 18.120587536219404 0 0 0
330 33 1 0.1266165 3.58293390800662 11.486274775895897 18.20056406115203 0 0 0
549 51 5 0.0582835 6.860837370910567 11.65837380534822 19.381435472823547 0 0 0
642 59 1 0.1266165 1.7423931720875148 15.020369571255452 16.69740832811728 0 0 0
646 59 5 0.0582835 2.770118171126485 14.52595381231992 16.598245826401048 0 0 0
647 59 5 0.0582835 1.0283750820139241 14.207682413483813 16.677523864366762 0 0 0
1011 100 8 1.32 4.333527196716818 14.543184067425843 20.47227561361977 1 0 0
796 72 4 -0.5800835 0.03491884597749806 13.509214574841677 20.35969311803123 1 0 0
1014 100 7 -0.58 4.789708101277298 13.202259111232785 20.472519824304793 1 0 0
794 72 2 -0.3889835 0.2112009705435537 11.481545598285361 21.430886849373312 1 0 0
795 72 3 0.7551165 -0.23120335020491362 12.336800539810389 20.405513381360574 1 0 0
729 66 5 0.0582835 6.528822019220643 12.262218471206884 22.170684437221446 0 0 -1
1010 100 7 -0.58 2.889394564409808 14.501365363439065 20.31712840501052 1 0 0
976 90 6 1 1.0415773782906477 15.071659039184386 19.925302893088734 0 0 0
954 85 1 0.1266165 14.433219146235087 15.002959195462857 15.420316483531133 0 0 0
959 85 5 0.0582835 13.886044276631706 14.273349793063247 16.019578327719564 0 0 0
541 51 1 0.1266165 7.71218093455882 11.779961281217245 18.73908670094553 0 0 0
548 51 5 0.0582835 7.763398454931135 12.777256649530136 18.269608257400954 0 0 0
547 51 5 0.0582835 8.522682275397328 11.815198878157236 19.451863350537124 0 0 0
722 66 2 -0.3889835 8.425824047140214 13.020731174697838 22.287654927491605 0 0 -1
540 50 5 0.0582835 10.746925943163552 11.740234107457962 16.044746005555925 0 0 0
725 66 2 -0.3889835 10.312551877422445 11.893560109107954 21.650913561470748 0 0 -1
723 66 3 0.7551165 9.068491382184911 11.843325532297897 22.202934065135988 0 0 -1
532 50 4 -0.5800835 10.970398440386273 12.536826645565194 18.738702743194626 0 0 0
531 50 3 0.7551165 11.590313559407374 13.363396995689797 18.087070653675106 0 0 0
535 50 5 0.0582835 13.139064269391511 12.788040945395556 20.265378261004766 0 0 0
529 50 1 0.1266165 12.824006334847796 13.887456881009317 20.169653372807847 0 0 0
537 50 5 0.0582835 11.907494827057963 14.166316743972194 20.735604901559512 0 0 0
536 50 5 0.0582835 13.644525101272713 14.498924866430581 20.698429397595458 0 0 0
530 50 2 -0.3889835 12.584774592775542 14.12552306427559 18.762832620559095 0 0 0
538 50 5 0.0582835 9.513677081160923 12.713250716490966 16.685169457655515 0 0 0
534 50 1 0.1266165 10.368751231724895 12.74095017758662 16.119687111287412 0 0 0
533 50 2 -0.3889835 11.38960094070905 13.56978877952171 16.742926276835938 0 0 0
280 28 5 0.0798 8.527673572591768 16.496124501626742 20.368856161014197 0 0 0
220 22 5 0.0798 14.902561064464503 11.523185753921087 22.36592325094133 0 0 0
960 85 5 0.0582835 15.506101108613835 14.770300832399025 15.647258882541074 0 0 0
145 15 4 -0.5484 21.888819340235628 13.672054318697413 15.31264501649744 -1 0 0
797 72 2 -0.3889835 21.995316685704132 11.715711238486294 19.45505839256055 0 0 0
802 72 5 0.0582835 22.27252359739279 12.911379722674498 17.71818407296667 0 0 0
885 79 5 0.0582835 16.152286260618475 11.849737424292172 17.024013157204926 0 0 0
704 64 5 0.0582835 15.953749796025813 14.775614492866326 20.352052011410326 0 0 0
703 64 5 0.0582835 17.090883584506926 14.184585750764263 19.251176285268468 0 0 0
681 62 5 0.0582835 20.19048928611302 12.75389884691336 22.44993562018173 0 0 -1
697 64 1 0.1266165 16.835155650809824 14.137342966410998 20.28058087311916 0 0 0
705 64 5 0.0582835 17.67173390463708 14.687915510502119 20.72986067445612 0 0 0
698 64 2 -0.3889835 16.805038585104967 12.811711164414483 20.838781145380665 0 0 0
699 64 3 0.7551165 17.980143868562422 12.106327769393747 20.616249944515673 0 0 0
700 64 4 -0.5800835 18.991026919482856 12.515536659234296 20.01231761835642 0 0 0
803 72 5 0.0582835 20.838046642004876 11.988129512612561 17.60042117947861 0 0 0
798 72 1 0.1266165 21.455628431147225 12.5762263447158 18.354086866124568 0 0 0
804 72 5 0.0582835 20.888147658285448 13.491059561136785 18.673887878440873 0 0 0
992 96 7 -0.58 3.4386764824730394 20.49394891942509 15.399507795893701 0 0 0
776 70 5 0.0582835 3.0786430572435886 22.300105152696666 18.67080157084443 1 0 -1
772 70 4 -0.5800835 0.01515499473857107 22.59267512367363 20.52686322225985 1 0 -1
648 59 5 0.0582835 1.764469517110851 15.591559791889503 15.792052331966126 0 0 0
308 31 5 0.0582835 6.096840888898107 16.994849310934985 22.383059362863204 0 0 0
309 31 5 0.0582835 4.722538867304065 18.00721417262714 21.943885472065286 0 0 0
1013 100 7 -0.58 4.872658520550399 15.351606313551104 19.36980266902469 1 0 0
641 59 2 -0.3889835 1.7047540390859894 15.913029865862924 17.88590118651668 0 0 0
301 31 1 0.1266165 5.80714043962748 17.930856802852283 21.850179775718754 0 0 0
230 23 5 0.0798 1.2690865605944683 22.698058775394593 15.338076412802572 0 -1 0
305 31 2 -0.3889835 7.120689380299646 21.354573063109406 22.17526720045978 0 0 0
871 78 5 0.0582835 2.2477285013686386 20.665751269584504 21.767132896125876 0 0 -1
302 31 2 -0.3889835 6.600388521975173 19.09735143368897 22.233371938143733 0 0 0
979 93 6 1 4.951567920147495 16.999085925941156 15.452227255040237 0 0 0
643 59 5 0.0582835 3.3125149078145637 19.501286092938805 18.4038932190376 0 0 0
275 28 4 -0.5484 6.59537565906107 17.230856388039037 16.7367164025695 0 0 0
307 31 5 0.0582835 5.945192642818022 17.654295186359438 20.773343869842346 0 0 0
637 59 1 0.1266165 3.63779240917361 18.722575618152483 19.081216863964546 0 0 0
644 59 5 0.0582835 3.51293441914548 19.200671118708765 20.057714358310868 0 0 0
303 31 3 0.7551165 6.290815240919903 20.315846220423143 21.70429280987436 0 0 0
304 31 4 -0.5800835 5.368964637179066 20.493886351588195 20.914449459608402 0 0 0
640 59 4 -0.5800835 3.527490265889597 17.03748312020997 17.078938531396762 0 0 0
645 59 5 0.0582835 4.661468186661367 18.287178060518542 18.951619182575417 0 0 0
638 59 2 -0.3889835 2.5930211132142 17.692332582954588 19.07603389019473 0 0 0
639 59 3 0.7551165 2.6798246931125025 16.889286099072553 17.930827947512352 0 0 0
634 58 5 0.0582835 0.7401514271083607 19.6267627908023 16.67510353048575 0 -1 0
770 70 2 -0.3889835 1.267510072365377 21.301492645659685 19.174910873304793 1 0 -1
101 11 1 0.0955 6.025988685919252 21.53968475203738 16.81271604986112 0 -1 0
108 11 5 0.0798 4.998384530924549 21.945320593655527 16.692768861656795 0 -1 0
771 70 3 0.7551165 0.14694853239950934 21.49899751256111 19.919820189252246 1 0 -1
761 69 2 -0.3889835 0.23746604969143326 16.424913746711233 21.384699300157884 0 0 -1
106 11 2 -0.4048 6.6407678884511885 22.259348672166986 17.886691192240143 0 -1 0
107 11 5 0.0798 5.833437441179381 20.44235321024967 16.978584071666805 0 -1 0
110 11 5 0.0798 6.524666089815403 22.10913195844714 14.763784304682074 0 -1 0
109 11 5 0.0798 7.47249325868594 20.693423909749253 15.363132317198621 0 -1 0
102 11 1 0.0955 7.014844695010292 21.682904632475893 15.632877055867967 0 -1 0
475 45 5 0.0582835 13.555574066706065 20.6806555688657 21.46162966735366 0 0 0
792 71 5 0.0582835 11.485027588573196 17.40718776908287 22.485534117891138 0 0 0
469 45 1 0.1266165 14.258851463830057 21.346676573648995 22.07883091615733 0 0 0
104 11 3 0.8478 7.812681048124677 22.758562575030837 17.481319705821928 0 -1 0
274 28 3 0.8478 7.3860740931218425 17.333392195321405 17.65984574509411 0 0 0
276 28 2 -0.4048 7.709781077514316 18.58036154589438 18.16547219926211 0 0 0
278 28 5 0.0798 8.28446689120867 18.86540074479731 20.103472807676958 0 0 0
2 1 1 0.0955 12.749935160653495 22.156141837753708 17.063522224249034 0 -1 0
273 28 2 -0.4048 8.012426808021246 16.294210552116724 18.316503692077518 0 0 0
785 71 2 -0.3889835 13.36803975126711 18.21034960201614 22.16570299299829 0 0 0
103 11 2 -0.4048 8.127052538591565 22.471748608791625 16.15781293780671 0 -1 0
196 20 2 -0.4048 10.954477598488419 21.995452212016268 21.368942807388912 0 0 0
958 85 5 0.0582835 14.157491023349804 15.963345990680175 15.845165291832206 0 0 0
10 1 5 0.0798 11.934500342186908 22.069587323135732 16.345753003563168 0 -1 0
3 1 2 -0.4048 13.89147380578653 22.479393275199136 16.30555582271954 0 -1 0
195 20 4 -0.5484 11.323354517178492 20.756068724037817 19.451127952731174 0 0 0
194 20 3 0.8478 10.975258468632951 20.835892333449294 20.61403390206989 0 0 0
193 20 2 -0.4048 10.536215347472222 19.760091445634806 21.347681679171487 0 0 0
279 28 5 0.0798 9.916786295626595 16.583003897421733 19.188967569202795 0 0 0
272 28 1 0.0955 8.868935949790478 16.895194139638203 19.374454863769117 0 0 0
897 80 5 0.0582835 9.433228523644505 16.07383916789517 15.93957870936 0 0 0
896 80 5 0.0582835 10.684518525110246 17.06682895697063 16.68465182987261 0 0 0
782 71 2 -0.3889835 14.274576800747148 18.661944304026022 20.083092494099684 0 0 0
783 71 3 0.7551165 13.514208175132005 17.88375914694878 20.829837597187627 0 0 0
788 71 5 0.0582835 15.008583915960967 18.995660233783457 18.10919500432026 0 0 0
781 71 1 0.1266165 14.400680678830803 18.263159409720664 18.65666330180544 0 0 0
787 71 5 0.0582835 13.402006053081093 18.36426505500754 18.165908956426485 0 0 0
789 71 5 0.0582835 14.982336248483023 17.305639268210644 18.63403533853108 0 0 0
9 1 5 0.0798 12.823767168183213 21.301792157182923 17.748543888392888 0 -1 0
784 71 4 -0.5800835 12.955520831340088 16.879914608983476 20.335436026643187 0 0 0
271 28 1 0.0955 8.616949765835654 18.341441811820197 19.211197902927864 0 0 0
277 28 5 0.0798 9.53344787947004 18.86233807054966 18.88914938702577 0 0 0
627 58 3 0.7551165 22.746389110115537 18.461643044605708 14.525821152639233 -1 -1 0
629 58 2 -0.3889835 22.471390589353824 19.709926751122264 15.024027533086505 -1 -1 0
852 76 5 0.0582835 19.394375355175065 20.295005476406 14.43246944878181 0 -1 0
851 76 5 0.0582835 20.02858569457819 21.813666111118287 13.562955670875985 0 -1 0
778 70 5 0.0582835 20.545517461581454 21.570956218151398 20.36369279765825 0 0 -1
472 45 4 -0.5800835 14.987043599577508 21.992292130222644 19.562633362808082 0 0 0
480 45 5 0.0582835 16.94899843371568 21.129675789976762 17.806011589858308 0 0 0
470 45 2 -0.3889835 15.514021135164503 21.216725022645626 21.53979494097813 0 0 0
628 58 4 -0.5800835 0.16918436885710159 17.49305923910916 15.163209077333484 0 -1 0
478 45 5 0.0582835 17.342977214866785 22.788265105960086 18.37267381894971 0 0 0
471 45 3 0.7551165 15.85757761996093 21.539861498195254 20.26204977632579 0 0 0
630 58 1 0.1266165 22.751099949760032 19.880537418255248 16.460589926854254 -1 -1 0
635 58 5 0.0582835 22.496446996941536 20.829370701482556 16.840140300505688 -1 -1 0
763 69 5 0.0582835 20.91452397051868 17.801444697912984 18.359353634568908 -1 0 -1
758 69 2 -0.3889835 22.350012911357105 16.476339076796826 19.24835956259249 -1 0 -1
764 69 5 0.0582835 21.51171901697755 16.579203046876454 17.273122197076763 -1 0 -1
757 69 1 0.1266165 21.300486565071616 16.79725129333757 18.324553614249734 -1 0 -1
173 18 2 -0.4048 16.425075889092653 17.392820977737173 22.529772947336117 0 0 0
180 18 5 0.0798 17.969482233372965 17.39966254229347 21.08141925516624 0 0 0
179 18 5 0.0798 16.78608435695451 18.522893141491938 21.01209108495681 0 0 0
172 18 1 0.0955 17.407064477854732 17.999537194560812 21.740854498434558 0 0 0
759 69 3 0.7551165 22.21912171333809 16.798530618385325 20.590177513720022 -1 0 -1
474 45 1 0.1266165 17.47245369778956 21.70212014340919 18.539861442854317 0 0 0
479 45 5 0.0582835 18.540566125101925 21.592205546677263 18.34912899867842 0 0 0
984 94 7 -0.58 16.57536934262027 17.829519989072246 16.256363153622235 0 0 0
473 45 2 -0.3889835 17.132803836478047 21.35113688166966 19.866434361124885 0 0 0
760 69 4 -0.5800835 21.218910704911643 17.369889107905248 21.029865533401125 -1 0 -1
765 69 5 0.0582835 20.40479140479082 16.21608296495578 18.524268535589336 -1 0 -1
171 18 1 0.0955 18.12090481791391 19.023824764801397 22.591718289113505 0 0 0
177 18 5 0.0798 18.387851483832627 19.965830531980327 22.130913435302038 0 0 0
780 70 5 0.0582835 21.279651263424384 20.71717446140981 21.74029862535858 0 0 -1
983 94 7 -0.58 18.66493596562526 17.50128754621742 15.774166101019507 0 0 0
779 70 5 0.0582835 20.30704904562659 19.932977062015308 20.406088315536014 0 0 -1
774 70 1 0.1266165 21.090928435856725 20.674573623869186 20.644059349261287 0 0 -1
980 94 7 -0.58 18.14197735002876 18.218575653602606 18.09699227841144 0 0 0
636 58 5 0.0582835 22.12743804291606 19.233403612726427 17.098263856595903 -1 -1 0
981 94 8 1.32 17.766666247751374 17.405252123653746 16.90723902585327 0 0 0
982 94 7 -0.58 17.489689084472552 15.983457428442204 17.269484147882658 0 0 0
773 70 2 -0.3889835 22.299063972975226 20.4628592878846 19.872258413090663 0 0 -1

Velocities

376 -0.0029781929203962394 0.0028970559407471247 0.002656331865072962
714 -0.006746761431867956 -0.002280943906873164 -0.014201976763896852
718 0.018060092006836965 -0.027073655388919794 -0.013563930656687378
720 0.01716265398206835 -0.0033297876457172616 -0.0008763989533216789
719 0.020524450883554375 -0.01278147312608146 -0.014732937866584184
375 0.005981929796235083 -0.00019202974745543265 -0.0018531379876712913
374 0.0048941522348589965 -0.0048123141376828936 -0.00224302497785753
379 -0.026307806273238955 0.04264226718792791 0.012115733300197815
373 0.0015242548188442405 0.00781796633697172 -0.0011036472476753485
381 -0.01869781283861312 0.0036497740303964217 -0.03315974344679608
969 -0.011574451713452965 0.01762963622215123 -0.005575964760927267
384 -0.013072758402545775 -0.04230765351934201 -0.028178493931988104
515 -0.006400059643047153 0.001064712520882081 -0.005013670459413823
874 -0.01685965458152592 -0.003409216353712827 -0.021324326325828192
875 -0.012518290222399376 0.021811767846781894 0.010678094651060725
870 -0.006677352149265115 -0.005768564244462258 0.0024161990100016206
510 -0.002130475495666504 0.008839540004560234 0.001539661204860142
86 -0.0028621608926518863 -0.005512846771860958 0.002622031983478092
516 0.020019691546613167 -0.00795851448034259 -0.0138168700583002
961 -0.0009204580824109298 5.2484145289680195e-06 0.006409091893280637
98 0.004819508606505121 -0.006863082700109589 0.005136743914340907
964 0.0008917190079093972 -0.00394220727243335 -0.001967544925910245
963 -0.0027351254920708963 -0.006293503951629519 0.0010024041636104545
967 -0.0003837245707363664 -0.02548451745423741 -0.03144675764017499
869 0.0017193228673641615 0.00669607479541139 0.0014944613816217551
509 -0.0016851398360488423 -0.0028744302332841453 0.002933523989250386
377 -0.0044270830670646326 -1.6169814337132825e-05 0.004855242442013591
85 -0.006973464052835531 -0.0011081684809829333 -0.008429489784661494
867 0.0029139868363129632 -0.003587618936539839 -0.0015971309267801684
378 0.004787567501940611 0.00013286951601142766 0.003089235701199822
382 -0.010896524706244328 0.005423715906475011 -0.004369600539735393
514 0.014768956320497035 0.004443470268104547 -0.010367727977663098
380 0.023020249320757885 0.017421972236791254 0.003970806481716172
962 -0.0005638097418616584 0.002132526031691976 -0.0010979345160065945
911 0.017964594123641396 0.00661116855702458 -0.01058936124116024
1009 -0.006563121685858036 -0.0028639343195028095 0.008471034162329508
868 0.0019202513917496832 -0.004140833069008945 0.004832514708198796
245 0.001361207925893813 -0.0030030515525264314 0.0018292592896599973
968 0.007649904522313165 -0.025275474298276125 -0.005421905628608853
244 -0.00046146770586778227 -0.005713830913255732 0.00040302805433963776
241 -0.0027809474378818737 -0.00026516032683259074 -0.0007741012831588845
242 -0.0030081270279249087 -0.0008646735474157365 -0.0023787165181947236
243 -0.005754701411344073 0.004122051379770458 -0.003952798769355658
246 -0.002686889191293366 0.0029037331337200775 0.0002914070412071569
247 0.012788143436125266 0.008295723330117855 -0.008781059116260677
248 -0.013735876430186643 0.055060682859583765 0.0016306551744315813
249 -0.012254287567691561 0.007076265537892839 0.003391502904319491
250 0.012076043410458598 0.005825936631432489 -0.0006350295525936311
1001 0.0003882434453407551 -0.001345652977237243 0.003761663091552712
692 0.00134005496839921 -0.01611592974753306 0.0023646276555309882
686 -0.003395795320912761 0.0097496691820003 -0.0009084993228013578
1003 0.002407900117591428 -0.0054442092916944735 -0.0022001616194180815
1000 -0.002258326425725731 0.009652168424265693 -0.005418168174992787
689 0.001055484759687833 -0.0006731156437879987 0.006017672689959076
687 -0.0009788633383814498 0.0013336147056969537 -0.0026530220922427908
690 -0.0009777806709346712 0.0004455188496334724 -0.003109203415093936
694 0.0046367562323974916 -0.0058416280804199795 0.008513281634925205
863 0.01059557347591992 -0.004071828691508165 -0.01137837250568078
368 -0.0024987147661640263 -0.007115052046737578 -0.005835390092488079
696 -0.009393751997984302 -0.008223893240073351 0.0039447039880563944
119 0.0034369679512183953 -0.0008628862604225209 0.002373347244280459
120 -0.010402153983130323 0.008844866841463331 -0.006619271940904953
858 -0.003313662894669438 0.0015306591719169002 0.0015736884919614958
357 0.00996762178143161 -0.0033808554010684648 -0.009580466917161606
361 -0.006913462479867535 -0.0005212282201631398 0.001318169966489943
864 -0.0019838091076514863 -0.02626055869912503 -0.01037328711638265
369 0.010405836547307203 -0.0008198949122421624 -0.013481215143850315
695 -0.007924932507822242 0.0037309437754700983 0.011413690047091848
685 -0.007931960478436828 0.003928610321489829 -0.0011826509036591175
356 0.016233173986298432 -0.030896786727842396 -0.008250661336007036
67 -0.03039252899530184 -0.0023173820830147077 0.0054196890079540195
84 -0.00032337050559718057 -0.0017688209649946893 -0.00029114458724416255
1004 -0.0032154728206093995 0.0014372703437675203 0.002258403840480028
137 -0.0015255824786673418 -0.0056229852380599715 0.005843324402904444
88 -0.03189860241855094 -0.00017320033163246973 -0.004541126442475051
81 -0.0061756922450600426 0.0019430851903081076 -0.0030051680717271692
1002 -0.003222311372489666 -0.004088343208360183 -0.0017173608429275839
428 -0.026525083903613418 -0.0019058086513525753 -0.002533569446054661
89 0.01759646176185588 -0.0201049484479232 -0.0038179048745982163
82 -0.0015407176768520816 -0.007601640499764873 0.005378445815879379
87 -0.01661596067389221 -0.013142950515367579 -0.00873146299814579
83 -0.009125044055840026 0.002249251284676931 -0.0035394148379233746
90 0.002743859817908058 -0.004470234809641325 0.010198336257172385
902 0.0015424454663635798 -0.003906453677370655 -0.0026542179816634068
903 -0.003904453091544573 -0.0014221401958492417 0.0007361123494726471
905 -0.0010279574078442637 0.0023552318191978313 0.0016128217922138461
904 -0.0002925513933269793 0.0016532931577483338 -0.000517090998279988
907 -0.021357031031782308 0.02772899648376063 0.009136012619900264
422 -0.001558704232789991 -0.004385118225249627 -0.0034168938842852603
421 0.002867522498048353 -0.0014287056307823029 -0.00380272338138369
423 0.0011626847204625548 0.0056915112363411565 0.0035655609388282592
139 0.005639739842379643 0.014950305673651913 0.001678727037023402
429 0.010066962214087134 -0.03327672266241034 -0.0047292852748683474
906 0.00039277205105927627 0.008176150529640453 0.001308106382995918
424 -0.0001283443587820737 -0.004363450746750042 0.002796515739255352
427 0.01861064440509699 0.005983017436537066 -0.0015930992241300526
912 -0.007860961991477112 -0.008245450322632023 0.003987559272792269
462 -0.00585151680971175 -0.004098363693506449 -0.003080363915560694
466 0.009565028144552434 -0.020385816939463387 0.00044161999633373484
467 0.021588624728167433 -0.024519076236346412 -0.024269089987010675
468 0.0031592800440777865 0.02115081118902527 0.02870964275116057
44 -0.003780617994933329 -0.003822476840582704 -0.003509054739950708
49 0.01268546193500159 0.008206509257823005 0.03560379861052959
42 0.0020048713473797466 0.004982920051906809 -0.006161265960496769
43 0.004503669462790959 0.008660218927040057 0.0005485808268829713
367 -0.004959423526779461 1.4777061772838634e-05 0.034907077919198046
425 0.002046035570857383 0.00376046833985994 -0.005698518910920062
362 -5.4038552418596425e-06 0.00454418190472096 -0.006708118194346595
47 -0.002600589225765065 -0.01220042205471075 0.011708823027809904
713 0.0020578163299895774 -0.0029154380843061903 -0.004419853044820504
1005 0.0021559044122293255 0.004274035978206705 -0.008115681616783828
712 0.0028801082476793355 -0.0008497687662286822 0.003986176270103036
711 -0.005909395057328402 -0.005058725130971416 -0.004522430391992242
1006 -0.0018650968222880722 -0.004710955966370377 -0.00034142457194754705
834 -0.0006948430459475168 -0.0034064212542117027 -0.002706233554943944
839 0.015658768518318083 0.012841019024833217 -0.0021426428797347743
840 0.02634376332044927 -0.0069436092409302765 -0.0033942598354477875
973 -0.0010714421286931652 0.011894846204296339 -0.004763409107790527
838 0.0010610840983962943 -0.011983872211936555 0.02134549684233517
710 -0.0005194461472562266 0.003993388513696672 -0.002921642037105681
709 -0.0019191100438947653 -0.001608785513073883 -0.0006200067909940041
717 0.02085077715923844 0.007393617317106761 -0.0015896235220036405
715 0.009453733270275665 0.012869283509736136 -0.020008220944804145
393 -0.009529357829320444 -0.0020001171955305328 0.014644452908982034
1007 -0.004540089043870165 -0.005121510066573991 -0.001557606302574
392 0.00561590716131163 0.009177537370189743 0.014138627554520552
205 0.0007130814902673265 -0.009142959304924514 0.009514373308811983
800 -0.01751239365436803 -0.013349045109003052 0.010977256973560138
507 -0.002883943683882449 -0.008856640838613452 0.0006854481703393612
833 -0.0027605196783160803 -0.00044646434356321844 0.0004616007673477295
385 -0.006575639422853002 0.0031920733098747744 -0.0014418921256838524
862 0.014057298141241448 0.011673056561560936 -0.006011456479125324
508 0.0022396142821096434 0.005981237420634785 -0.004041841621452712
511 0.002859080040319621 0.005935134853088491 0.012024140074476948
857 -0.0036588514455175246 0.0026626555520177365 0.002645019276909577
506 0.006439607229055647 -0.0026297828335545143 -0.0023736482936106153
505 -0.0024276008006550507 -0.00353934720831386 -0.00014463525996448193
855 -0.004484744037944792 -0.001483290584716817 0.00227588555612296
512 -0.005460185193013741 -0.013159922584471705 -0.003015623743101715
513 0.008118564813643902 0.01600009791237941 0.00010367619035078192
856 -0.003773562370177917 0.003279204455324309 0.006219745797098099
215 -0.0022938501726851813 -0.00631448755301847 0.0005017085826601289
214 -0.0018041653972607145 -0.007184600209898564 0.003060680392362711
854 0.0008214380428333262 -0.003975103134932279 -0.001297441667086249
213 -0.005964318728969958 0.0002160908082561859 0.0010212142475263793
216 0.0007879768475285474 0.002734438244204423 -0.0018891419362531661
209 0.02188669377754572 -0.00524845986880086 -0.024381664966089657
212 0.001507955491977049 -0.004787744623044204 -0.003281357342642768
430 -0.0033233326616777877 -0.014059171091829243 -0.021421382131414944
426 -0.008155967625375508 0.007242829103335837 -0.0056418309930332715
431 -0.0011134135980657624 -0.004939968506900492 0.00758945394509047
298 -0.028364067237949927 -0.014302750306869503 0.0013636229536669441
830 -0.003079297708143238 -0.005320004750068677 -0.0038448997296158392
432 -0.0018726663463965898 0.025566853661773043 0.023577585825207654
364 0.00670635517132297 0.0038084179175364493 -0.0005570388893018258
363 0.0010066091687611757 0.001424644338696754 0.004038783186328676
365 0.001061099386053418 0.003153251496079317 -0.007884928597587867
366 -0.0011668364565991878 0.003401077934505912 0.005541830505701673
831 0.00877024616417753 -5.667683410629015e-06 0.00038665932780308456
372 -0.02198036311537528 -0.0006656889638058605 0.010116689441277223
219 0.03405951463479439 0.03825930478486656 -0.0037690972419273084
832 -0.008336446959600903 0.006268256875377114 -0.004867502734271005
835 -0.01705286481532375 -0.008813290675768271 0.001755478189572034
829 -0.005542967903590803 -0.0009504092300631247 -0.0010093842861597594
836 0.0005882448298282405 -0.009222378291648051 0.009696099256006216
837 0.012701343494176471 -0.02430699946906825 -0.000533922551134166
217 -0.0032101569429428814 0.019462919328037412 0.012862411901922098
816 -0.002172190326316017 -0.00582079130363569 0.00027869255895038487
50 -0.00954090002483165 -0.0012345390967907109 -0.0165016997211341
1008 0.0103168196440478 0.004756901203152178 0.005191353584982626
383 0.013697880976637057 -0.018583143447668878 0.011782811215855685
972 0.0017791514812554008 0.004541713281394445 -0.004567145296580644
971 -0.00849282299072984 0.011558382921876333 -0.015627358701107794
966 -0.001991333313680924 -0.0072895380734070755 -0.009535985698536335
283 0.002363979908987424 -0.00583562955675226 0.000207941531856143
612 0.015433689045046278 -0.024485755851863224 -0.026107149916111627
606 -0.004473443781297661 0.00511087980214025 -0.0070164543309582895
604 -0.0019386560743103708 -0.0041622840747566675 -0.002354616628491915
282 -0.0017205077973652969 -0.005757114133503566 0.003031774831758505
611 0.015099862206336776 -0.034735248187085926 -0.005966712108479767
605 0.0003676169271215748 -0.0064485253041364245 -0.0011583436109378854
603 -0.0010826089305795749 0.010094758967177654 0.008620218090340852
620 -0.009653241867729477 0.0065506406589324355 -0.0035649721816370856
610 0.016732243778460186 0.006694735047894445 0.0060617204414175905
970 0.003915598083376428 0.01575809602303926 0.027558995348542812
290 0.0027889935570937765 0.002598588279601937 -0.003690131871068042
289 0.0046121345963647375 -0.005669727125941476 -0.005728876499470482
613 -0.0073887944121136815 0.005137007379907385 -0.0018931245147330287
619 -0.01684929981691518 0.01878666443732011 0.007567708349977582
621 0.013967200787609357 0.00048655170039724367 0.01138986670649031
965 -0.005474487415625728 -0.0003514961755625221 -0.008636154613872644
691 -0.019336125830108845 -0.022504507189538125 -0.03092122727696164
693 -0.023148936863533743 0.011647673468608823 -0.027239109460612577
349 0.0027331959415876714 0.00319574128829008 -0.0064863242080923445
688 0.00012406856759254105 0.0007540971265992443 0.0019248788732445508
355 0.0013118392178282636 0.002861725044693734 0.01622493766044433
350 0.003877204468256415 -0.006864066381379179 0.007331290589128723
165 0.002317065265775582 -0.005037613258281504 0.004547548101108533
163 -0.007919940025276385 -0.001789549906689128 -0.008278794314750303
164 0.005543333546299591 0.00144123988690586 -0.0006399671314294897
928 -0.0005110810017986533 -0.003316602134202493 0.002000439068956628
978 0.0008098003330359873 -0.008791080483296855 0.00012345967754705505
352 0.00011493589846391887 0.005071240389896139 -0.0019693383798236115
162 0.0050437401873770415 0.009544806123201483 -0.005563220567833869
115 0.010159156106906193 -0.00033437262493175255 -0.0057742117410756605
114 -0.001983522562920922 0.0027755754316420946 -0.00440262139789846
351 0.0017380313938108157 0.0012243843919926601 -0.001419496434368511
113 0.0035732855516349077 0.0017368827967551518 3.742288936657199e-05
112 -0.00029413233143625134 0.0026584978493688466 0.002435673075737975
169 0.019241727649024154 0.005168341322367062 0.008685753469215352
170 0.006493942524436561 0.0012444760642605851 -0.021809610382702155
616 -0.004668620803069274 0.00023302786722237398 0.008265649562006015
353 0.004808242183268342 -0.001302492216231186 -0.0006944905720686318
910 -0.008669521749459936 0.011185556929009388 0.0134961385762696
284 -0.00947967981806855 0.004201893170573436 0.0031971711988573823
285 -0.0008687394117688235 0.00446770023245124 0.00157257246049722
560 -0.016242175910684446 0.012152741296720285 -0.020607701072740427
602 0.00982356637842799 -0.0025837814809991214 0.006191126950150917
286 0.0005986557947949743 0.0013523235400496368 0.00016566899905474242
553 0.0017135555614374819 -0.003668012038221882 -0.0008369655128216639
554 -0.0014126732822957978 0.00529606621279454 -6.930616017336295e-05
559 -0.0016999000179443453 -0.018513031975010148 0.013517516353380936
561 0.020949465487848807 -0.0051734610022567745 -0.0030866386159756703
607 -0.002512091263035708 0.008718409993060495 -0.0216478482219267
320 -0.005171148103900407 -0.03453761535613517 -0.005010609624455623
601 -0.0004975686076111649 -0.0025467178876710382 0.0029400204667723783
608 -0.015553925607512434 0.0073927059459492645 -0.008167615351018431
319 -0.018703352292691287 0.010861866509136514 -0.007463095264713364
281 6.309520243953359e-05 -0.0018152920522930287 0.0017135356143727326
985 -0.0026176635562126303 0.003988069144133667 0.0009126765606004345
989 0.0016376890451799317 -0.003671413700733537 0.0030710551826925126
988 0.0012801778675292329 -0.0001787408928907767 0.00011153979024789145
986 -0.0027363309430471286 -0.0005980137006830318 -0.0001355594369627405
736 0.008469683407290108 -0.0039243626699304 0.005780321315519003
735 0.0034516547360038657 0.0013892568614826692 0.00937656447655695
287 -0.011941728558833247 0.04660576071142036 -0.014886805681425898
204 -0.002496928929278989 0.004116108813858829 7.055222103433435e-05
203 0.004423967403330529 -0.0058320523256420315 -0.004831495097654254
206 -0.005631038930766398 0.004598590298825838 0.00014496518487011316
207 0.0073121989227795765 -0.009308315113890098 0.0019433335355650866
201 0.0026053003170623014 0.002822872418805712 -0.0029540608356379396
208 -0.0012741206311327842 -0.01571170811279779 -0.0008142646925561753
202 -0.007225228957912795 0.008343990468592034 -0.008451351641514952
210 -0.015159753012331433 0.0007313016692910828 0.011880375023462517
999 0.0040052774719931345 -0.0015202597276282922 0.002672466088941036
997 0.003023010412724409 0.010979168752137692 0.003807624012897104
116 -0.0018337613345919307 0.0024871934618580227 0.0017849384070217445
314 -0.00361084892957858 0.0018344406512965472 -0.004163542319943188
117 -0.04279605094691101 -0.01033468903878619 0.024871992321240547
740 -0.017333202288146266 0.03631104004971939 -0.0006390346586107433
111 -0.003405556470082151 -0.0023669397477282163 0.005627042814675502
118 -0.015143418766695286 0.013937156921137662 0.011058828814633444
734 -0.004042622841877108 0.0016005137381190555 -0.0010570869402247184
733 0.004953099828035132 -0.0020934119849854026 -0.004536006095276575
741 0.005537760928041905 -0.015008129081522709 0.004525491250231132
313 0.0016430264686488232 0.0068880298307125816 0.00625163116831159
321 0.00020313340368742863 -0.02364439460285553 0.026964307726989597
739 -0.023577193285310338 0.001164897706276528 -0.029031778259010356
316 0.0016444284336776162 -0.008156704457507397 -0.0023445359610708687
360 0.0038767101559166704 -0.012926908483385183 -0.0054681575152517176
609 0.005073154523644905 0.01638954581979443 -0.0016367210953292558
140 -0.02558802020449502 0.002628149773781115 -0.025404584516962262
132 -0.0024780249644573457 0.002084347710570813 0.0024031965316403977
45 -0.002728927520768008 0.004625786146878916 -0.0024909991977116143
442 -0.029268263042365995 -0.015073319839518507 -0.012100061259037424
438 -0.002200094601397605 -0.003254631569399643 -0.004901405996174705
444 0.014046291066553356 0.023812916847878285 0.018505902400742784
443 0.002373101261141366 0.02549866093687352 0.01956719965664131
436 -0.009382114402700273 -0.001469218210345606 -0.0007939095566496417
437 0.000849728711231872 -0.000626169304013589 -0.0033866723641669616
435 0.004426736546126443 -0.003525165849526179 -0.0018758395824626697
227 -0.010564356266402699 0.01085417297856929 -0.0022869540287658446
446 -0.0009972932903454348 -0.004330803650216891 -0.0015506176515710536
226 0.00011955929334174027 -0.0020845127898912732 0.0035422261835874095
447 0.001531618306415233 0.0006039625255954586 -0.0026079189394920027
448 0.004879221861286867 -0.002785412643582885 0.0024008712853733605
449 0.0028992898741936795 -0.00967639745829854 0.002220282608730261
221 0.00367787457211362 -0.004623850487095613 0.0046114342279164056
451 -0.0016361053941956179 0.028604534709618913 0.01761894384679158
445 -0.0008179603006184192 -3.990361078549995e-05 0.0032300572074121067
456 -0.018121339086165793 -0.015477106615874625 0.012212610634127303
434 9.638876384891105e-06 -0.0062461609673044255 -0.0014496012859082986
167 -0.007578781397106399 -0.009430092846427263 0.01924566714795545
161 0.0013695450337067223 0.0020220621802470268 -0.004506065679287558
166 0.00260762034986068 0.0029021747576550984 -0.000870136450062162
931 -0.013881743088908657 -0.012737936171890686 0.022641639117567298
927 -0.004532050655921529 0.002403640807007201 -0.0004937161616417618
933 0.025562186869924116 0.004060101347440756 -0.028160637846088084
925 -0.00690965732688313 -0.0019836030553192466 -0.0002140469056484327
926 -0.003055834637020932 0.0008837535200291726 -0.0019988709460260425
932 -0.01795900049831066 -0.019615125704804136 -0.01602182863048892
441 0.01665741426581681 -0.014644994373148782 0.012849029845396154
168 0.021855323901995176 0.012391596020114772 -0.001548964447460036
563 -0.02378967131320435 0.026662083372655555 -0.008362963069347664
929 -0.001276438190841456 0.003235896499756805 -0.008625209095116451
454 0.01522009623112848 -0.006533111308875198 -0.02392431225622609
489 0.008362520195399355 0.027670252049688475 -0.0271993639375132
450 -0.000572823602965319 0.003704570144134417 -0.00022214864137881817
481 0.0035623057143123415 0.0017613862889285866 -0.004708538469931375
488 0.013256796086079908 0.006956357544516189 -0.014753682766225198
487 0.002868839521574968 -0.00679174537782747 0.004510161151547582
455 0.017824806686942713 -0.017830982045255545 0.001130953536737171
562 -0.01844826210240725 0.0147753468723441 0.014071533204349139
555 -0.0013235008736954216 0.0037643480543132356 -0.0005390884987577812
557 0.004050383120601886 0.003997979312130585 0.010229880527327774
556 -0.0007620943631766142 -0.0006305101954344045 0.010641883031736393
558 -0.0007952161313291638 0.001703876150682698 0.002425414901797593
564 0.0170856580307963 -0.0016980860391317628 -0.009617255245217947
572 -0.0435808115582614 -0.013575823170435961 0.009452838986644639
573 -0.005352145925428605 -0.04020270657514826 -0.017668745995353702
571 -0.01260869530688353 -0.016663999609599328 0.03280219320563984
565 0.005943445986294551 0.010444704710804461 -0.0016708398413014256
566 -0.0005361991264481319 -0.0034753283662731583 0.005747219919774467
484 0.008266023439633763 0.004437854464173953 0.0041782090083883104
237 -0.013732024093652127 -0.004521184591649942 0.010044744709447325
238 -0.006254698571223467 0.01615214146481555 -0.014922698854325282
231 -0.0032684689845975004 -0.007701471180404159 0.005357248206649416
482 -0.0104800556182108 0.002046412946230354 0.0037338425651998837
483 -0.005010657941704051 0.004109378029573239 0.007190578070661445
987 0.0044193907460080804 -0.0009240535385504409 -0.0052474661192894855
331 0.0017184278272744837 -0.0122370243254434 -0.0011143798835873677
333 0.0007676988732054166 -0.004191212286012259 0.019402758646123265
325 0.0031641089826046046 0.00457675472746242 0.006347159714494526
259 0.005822617590788852 0.02334776887509304 -0.018208261754583076
252 -0.0033699236188017238 0.002077432176032969 0.00027130273998277374
251 -0.0007059990840401396 0.002809209885193143 0.005049322969416755
258 -0.005196780351345425 -0.016651861896193797 0.00029495882151208823
260 0.0096203809618998 -0.0003896423582709695 -0.013310179474370357
288 -0.008659176260051967 -0.008418853732673426 0.0032356673374984457
452 -0.010199496392654963 0.0158155594881839 0.0022730659057324048
253 0.008063565507376023 0.006440892800947582 0.0032495496216263754
254 0.0034739028014326196 -0.010101779900230574 0.0028307065472979293
157 0.002600352181976364 -0.0007809696105532527 -0.012478794212673979
256 -0.00329209389537555 0.0020663137480154883 -0.00020792864838299252
159 -0.005808948924011386 -0.01311166579925246 0.010164108773400762
151 0.005188751390085897 0.0009782153601790632 -0.003387844635180644
158 -0.015944786223365533 0.0007563061398903645 -0.012821455113219967
152 0.006847318617983446 0.001768236846695331 -0.0035293255958534567
255 -0.00107356411903538 -0.003149831874903864 0.00021678541428328565
160 -0.05362073386416153 -0.02255082743626638 0.010577833035789273
150 -0.01364172283351341 -0.01812088430291316 -0.006022020134875411
317 -0.0033174437556074696 0.0007083649377119037 0.0036433549449083483
156 -0.004796758427857489 0.00027858896779440454 0.005785536707866721
315 -0.0018790923752739304 -0.004916239879147717 -0.004842667340234256
322 0.031209779614304198 -0.020100086820883486 -0.0008140661970335795
318 -0.0006149881838240037 -0.004404049400274239 -0.001539779860762874
324 -0.005686354344952178 -0.005434469567586904 -0.01587379015695402
323 -0.0015772166493552664 0.0034773948363163833 0.005882162482882937
876 0.0006807793591613189 0.005855403110930508 0.0024459188417289553
224 0.0005492253649665013 -0.005858483465886697 -0.0009741886544198579
453 0.01608457018198397 -0.015518412746111973 -0.008991452520948389
225 0.0034270227353897717 0.002618437656861224 -0.00510052656297387
229 0.014898512003845552 -0.005454804452137684 0.015455274593932459
223 -0.005173324899669699 0.004378767345424767 0.004261474966340151
51 0.009321119460799774 0.006657226246713734 0.005522190702271904
52 0.0031905792963963977 -0.0021185424974267675 0.009287897167679214
53 0.003662576687913079 0.00333714572758166 -0.0024068491573388815
54 -0.004248230343523988 0.0060495091057060175 0.006945484151030323
55 0.000555173318728426 -0.0004001594678762174 0.0017792295482047299
56 -0.002925765313063797 -0.001421476359838408 -0.00040114001342034147
57 0.014842887673711662 -0.019571221808614054 0.011343943549005066
58 -0.002316572110345962 0.014142397827389266 -0.008242450171219365
59 0.015595204805347294 0.002651743702295257 -0.008332875474319231
777 0.021404183239968077 0.007749008457941185 -0.005678424446255563
39 0.00015820191125484197 -0.009765387418831078 0.02216084143906513
40 0.010177793968741782 0.02602954179485194 -0.018274717960432594
32 0.0030746156454508175 0.00039056640564062554 0.010499024940323244
33 -0.004205225473675935 0.0045512365782517435 -0.005821500869605605
394 -0.01012862002803689 -0.00110742765678641 0.00947633785579706
60 -0.010991536792729373 -0.020012712103774154 0.012618638328656815
311 -0.014915454269464402 0.0054044001321601354 0.02182490333445821
34 0.0051964574767026485 0.006179503021759583 0.003530525893756754
974 0.011805448233307527 -0.002541848265881609 -0.006738098851980025
222 0.004938636244328456 -0.0009748450057397953 0.0009525735680963208
825 0.0011483676739502406 0.022148744305327175 -0.0076168804815921485
35 0.003968102232776273 -0.0024509373195266988 -0.0033061891736931802
433 -0.00390355945757678 0.008287102284981642 0.007678072029659809
440 0.0075868456652128935 0.037228746039956774 0.0020699696567506114
439 0.012133783807815083 0.005020346750844166 0.008028057445221691
550 -0.016244756779045088 0.01548730150415875 0.025174437747620376
524 0.012157685284820722 -0.015338364618621429 0.009437963353661382
68 -0.0035946362728842803 -0.008770611820732029 0.011323389537548231
61 0.00237545193488321 0.00586373612288855 -0.007575109008359426
525 -0.002837737950437959 -0.02459416459720483 -0.0337236895287387
523 0.0008173782558541314 0.015919354584783565 -0.008287760103042415
517 -0.002641235067822944 0.0009471788886683972 0.008437436550630829
70 -0.01978814209591786 0.015567876194901404 0.018992047329494607
920 0.002716280550738778 -0.010774989280948753 0.01447484368016813
913 0.0008189269721153785 -0.003838420252545286 7.277177832475878e-05
518 -0.006187831123323267 -0.006406277854733274 -0.010181069299915982
519 0.0010274070924388215 0.007118181335598797 0.002990848040588053
520 -0.0005735207274428218 0.002445675817792696 -0.0006208098863033463
521 -0.0039435602534933206 -0.00371756047410106 -0.0018356522587719695
522 -0.0004457203752519911 -0.0019216977196657523 0.002309326242355671
526 0.024407552604020097 0.011604956338962372 0.02253406006055816
527 0.02138054366329125 0.030609629990860757 0.003464305126232908
528 0.0014094884036675236 0.0018266781975546918 -0.012709645577696264
8 0.03325161174909808 0.0023483601492144497 -0.0052212910174327595
1 0.0030657994648159164 0.004976396968545034 0.008068651066551663
7 -0.020697462407975355 -0.01123334522979605 0.005894799743661103
62 -0.00414928813339576 -0.0022238695686561936 -0.008416808310558055
6 -0.0056870342036406465 -0.003016459561884845 -0.0002830964023500425
66 -0.0006820398208212684 -0.0015644282991339026 0.0032261111659044996
105 0.002527252391465272 0.004079998914440819 0.005914992799652582
69 -0.01777214540149735 -0.009435624026196588 0.01066713011419148
63 -0.0028478775336104253 0.0018144490707551774 -0.0031682564895199306
4 -0.0009611173552551596 0.006176904866294394 -0.0006062180311404234
64 0.0031836181929425006 0.009430639976639402 0.002281184057201031
551 0.006434281989059667 0.027012474656960564 -0.0024432880223086988
5 -0.0012751676791138782 -0.003511357597113157 0.0014788624503338434
552 -0.013543694386411507 -0.006663289392978427 -0.0013576621373888747
546 0.00841092472342504 0.0021717032488319933 0.0026308993938390355
65 -0.0010509151757750197 -0.0032580902771657885 -0.0028010775497023838
887 -0.010773635686010755 0.005635555543405883 0.02412149975323001
138 0.010013930646885981 -0.004876697211429333 0.01531385827949946
131 -0.00018526770937787654 -0.0012411080074809131 -0.004737740047720697
490 -0.020328139096430633 0.010169393801329068 0.013508960867356399
921 -0.017927669359016827 0.01209597066732489 -0.011751826233438855
919 -0.02515451067531382 0.008909565586623007 -0.020464031986579083
486 0.008309399539059972 0.00029813067781378163 0.006357110483704557
492 -0.01720769493122142 -0.009687008525612634 -0.016774873815575
491 -0.008764450046304896 0.01068114763545271 0.005376699726046112
236 0.0013220892275495352 0.0019292813562236755 -0.003257265012086124
38 0.013821743713482137 0.0011291508492765182 0.010789409493863754
31 -0.00610059174321329 -0.001305611743541005 0.00575872670370376
133 -0.003235094138211406 0.004151855473610132 0.005445490626024461
914 -7.205754693663558e-05 -0.001521207226472956 0.0027984817902937777
485 -0.00026539325308528645 -0.00039862086432582275 -0.0015984719649397038
235 0.00027413430932474576 -0.0013775682456313063 0.002918229645305434
36 -0.0032353304100703507 -0.004793738521858017 0.0047708853819827925
37 0.0063083351672814664 0.030220525193145505 0.0027518381654707126
136 0.0028644682847603193 -0.0021566916576195847 -0.004508635660981897
916 0.0009453410904523628 -0.005222124539960292 0.0036008968840392456
917 0.0021985985801994466 -0.000670620706420263 0.0016021247544148538
915 0.0003722832247412987 0.005886418713755958 0.0014353126225252184
134 -0.0006960381049269273 -0.000685844779657873 0.002263436955156304
918 0.00899177912424392 -0.008234762353185864 -0.0015255159430445694
922 -0.007660905998884516 0.005073386208468859 -0.010837480821827696
924 -0.0015225851673771914 -0.009529123224312284 -0.009293946123221977
923 0.008549860116412376 0.01653566670838371 0.020767345919981584
567 -0.0037499048793721516 0.0074163333406259205 -0.00020585959287321195
569 0.001422908871178319 -2.726990382474498e-05 -0.005063114485432261
576 -0.009440705740557812 0.0056609193058697735 0.011012375235851057
570 -0.002309087992952221 -0.00021134098560025597 -0.003403611234509678
234 -0.004397244106886946 0.004116812658322602 -0.005918173965148321
574 -0.005060308790956545 -0.009853882445393446 0.001346037485980108
239 -0.018179712968834146 -0.01263624242581471 0.004373072893228532
232 -0.0017240372506827878 -0.0020978565760878354 -0.003913568079800995
575 0.015958723477185698 -0.005631635617160101 0.004865990118873258
568 0.0003443395556945579 0.002175297173854804 0.003562085235048911
135 -0.004617804333061273 0.0011215906264916732 -0.003452210987080984
233 0.005288415778675253 0.0026780132162487575 -0.01263348041248148
240 -0.005139934715390443 0.011403157677942777 0.02565138990222619
257 0.03238070646698503 0.027403564804634805 -0.012083825174439544
395 0.001779685275637889 0.007463638238718842 0.02113609005670332
390 -0.002959254479754333 -0.002173288190613273 -0.003133827311108779
817 0.011729954440969616 -0.003074357444203591 -0.0049415529277014435
824 -0.0011437094503973378 -0.007995300008922734 0.030104679359457556
818 0.0014531521910265755 -0.0028420282450517093 0.004475246177349114
820 -0.0019227983876342048 0.003932604484724735 0.0011496212535971747
823 -0.009486146460179616 -0.0025266032804343906 0.001729793088440415
386 -0.0016118238457144254 0.0005787149741323695 0.002720679436911717
396 -0.0038504617202374984 0.012777700808742383 -0.017663940645231403
327 0.003096575279648615 0.002557267212180395 0.005295423698793317
328 -0.00027501231210555135 0.0022514790248016675 0.003446464322174907
389 0.0029572433183418147 0.0008140762825803482 0.00787896133257691
336 0.006487947224579701 0.023029203994659967 -0.011921671560294734
388 -0.0012725008636102402 0.00015331531965585325 -0.002754795703744529
387 0.001035489621835546 -5.0874621161509545e-05 -0.003791786788689092
828 0.006425037851070626 -0.015338003653517333 0.013597507689797821
819 -0.0032580679030041874 0.00047409569518642574 0.005730542706062911
822 -0.0057242991799607125 -0.00976521578453034 -0.00500435317020893
542 0.005087650756395821 0.001340237407567228 0.0005827498075472022
977 -0.004643401344472867 0.012764644237382107 0.0021077571300619864
543 0.0005285169659461236 0.006006825275144115 0.0003295689795567112
545 -0.002973741040419893 -0.0038155605999924186 -0.002394462544128678
544 0.0014207333171183817 0.007039863524903617 -0.008165938517349106
732 -0.015775101884856 0.006436806467659531 -0.011365480958236963
731 0.004197001300655119 0.016678869844857863 -0.009831886121399246
726 -0.004182790971867878 -0.00594208863734167 0.005282719424303744
888 -0.015848596071150717 0.0029493249468931673 -0.01171217284328555
881 -0.0006594980462529223 -0.002963246282806758 -0.0020512675821524984
882 -0.002527258481221331 -0.0005696429624122975 0.0011329345372231739
886 0.011991311110454336 -0.011387402665150294 -0.005388951968216544
724 -0.005154733272272069 0.0049133567822378585 -0.0018912534400413034
730 0.0016218881720277474 -0.02635345027897217 -0.023427030723131032
880 0.0026384852180323807 -0.0021080352705952 -0.0006339983048882537
879 -0.003809752182282599 0.00038263451129497833 -0.004300205241033689
211 -0.004798864435367553 0.0032691626145824153 0.0015483220361206937
878 -0.0006056232780756783 0.003096405282589707 0.001097788862777564
883 -0.01641285317166876 0.003122545159218237 0.008511070899666415
877 -0.007444651328034539 -0.0040185179968964865 -0.0008773635946447702
827 -0.015705979137349724 -0.007115407957928917 -0.014004374447814567
826 -0.009861729740867681 -0.024946695137100107 0.022293094313539725
884 -0.0039015998533864196 0.007175761236308033 -0.005920069445032935
218 0.007753994012899971 -0.010921299236822269 -0.01515479707449023
821 -0.004403045765582667 -0.004365862208398922 -0.003401553639696246
706 -0.0077771090640793876 -0.018978421587401473 0.015120599593562187
708 -0.022108728614558943 0.01566591565506582 -0.017392341983039177
701 0.009050646018386966 -0.0007577810759045292 -0.0019158444072446016
702 -0.0020845483699153317 0.0008377729476347764 0.0038226483229787623
707 0.012975162863187163 -0.006172535040504402 0.03408892282089254
91 -0.0009133571825257433 -0.0054054921204340824 -8.039762737815351e-05
97 0.011694151950958864 0.008495886463446477 -0.02155830113036603
100 0.006839883788263392 -0.010397871405776813 0.015642278428333038
901 0.00024178051205496064 -0.006552096795294622 0.0018604723272166218
716 0.00725125402233702 0.026137235627912366 -0.007087276126602179
299 0.025259258596507923 0.010227784123885954 -0.012537932167843243
420 0.004963141132918211 0.0014444316144922055 0.02629017648467783
412 -0.004632387493332274 -0.0026538237788672754 -0.005161952827320474
417 0.020569621425497554 -0.026018908310943247 0.006859913576477805
293 0.0013676538188824119 0.008221023907165203 -0.005866285663051838
292 -0.00048016341955201594 0.002327937293185285 0.006538537559486291
294 -0.0037445821756004654 -0.0004699900090033985 -0.0037497376157788254
295 0.0007825564906442403 -0.002176617702892583 -0.00889424932951661
727 0.0014458853436888864 0.04764448398826953 0.005596065840218872
403 0.011776006864218381 0.011652196782125758 -0.014372541369751506
397 -0.007078702314837579 -0.003826277618805546 0.002338071631697431
400 -0.00037045112181842177 0.0005949151126837536 -0.000740247069119764
583 0.011772404828696152 -0.017223806817497186 -0.003518068920489435
405 0.006315852331556141 -0.022610884565041876 -0.009643398197395483
577 -0.007856660252138239 -0.01473889855749064 0.0012399145612451868
584 -0.02396501949520264 -0.006936274704020295 0.0025513847933092363
748 -0.0018440689842797167 -0.0041157549299958235 -0.005596117873366055
853 0.0056558456185246955 0.006176066815741883 -0.004292425473021502
861 0.018850910838448788 -0.015794414283180437 0.006808464131849565
404 0.013865133322091047 -0.008845776351558891 0.017452109368012503
398 0.003503250946910383 -0.0074174811953465645 0.0011789757780767286
399 0.001292057842409208 0.0016955421387330216 -0.0004322823449690949
859 0.004392423991242887 0.00969072725209769 -0.011809370154467314
860 -0.004706513199893395 0.017970473159535615 -0.003800696893624283
585 -0.00976946422879077 -0.017816982221870722 -0.0070319139140864965
751 -0.002243625202216829 0.0190119344638048 -0.013438265025542656
747 0.004481099020577071 -0.00418352386337095 -0.0012895211057907287
746 -0.003884023116200825 0.002721557201491395 -0.003347001768550896
728 0.014271134093025805 -0.025859130427172 0.002697491549075601
721 -0.0058802663587470445 0.0018870914346946243 -0.0033588862774271365
300 -0.004131061979834996 0.004492875672280899 -0.026660935477053314
291 0.0005794437969451412 -0.007649108224313339 -0.0017503378138087242
296 -0.00038136888946430753 0.0019603523677891575 0.002202059044655142
297 -0.021394561687861618 -0.0030705349122987727 -0.01821367059509743
370 -0.0017817856120946485 -0.024456208687439803 -0.010663562940083313
371 0.012440913910507088 0.013281978218038077 0.00347327919454634
677 -0.005085168188509301 0.0008861399546425042 -0.0053969589472097875
675 0.0034872177333165285 -0.0010764796215397222 -0.0037506476862079036
683 0.03534292435684163 0.007760230219417836 -0.02224478221836072
674 -0.00011531680168155457 -0.0020478855493187924 4.5075274105414654e-05
595 0.02620909848186612 0.0055547927879159445 0.00389102045401608
679 -0.005380677002514257 0.007402792484203171 -0.021461962583156052
684 0.019571346376711315 0.019520619009641547 0.006954072176667488
678 0.00016401112094487397 0.005053110312236677 -0.003916338819865677
682 -0.031660552988968874 0.010017415658810418 -0.006524438736923708
676 0.0010588703866429364 -0.001506344052716957 0.002338374858459728
673 0.0004898031767700071 0.003038710042639927 -0.0050315570780170085
680 -0.0005757475628984502 0.004182484693715454 0.006985854613256086
410 0.0054536419283764005 -0.005414583680049062 -0.0006598250241177222
411 -0.004356513251812693 -0.0065280391480591485 0.006833695319511148
409 -0.006255834262408002 -0.008004384433651545 -0.003999374882710452
415 -0.009267120416340842 0.0009595079505107464 0.015940372967390752
416 -0.001451389039369794 -0.0033015362157175414 0.006754731318788849
419 0.011729558147160953 0.0022396032738039523 0.00063728632168326
92 0.009586895248077048 -0.006358278567422104 0.0020123975375779144
99 0.006959323152172409 -0.009252118260612407 -0.01843325233600325
413 -2.4389872950583808e-05 -0.004870095587852655 0.0009169509325659441
414 0.006224688457680634 0.000725893777342535 -0.0027909128472293956
96 0.006231518626746526 0.003584328615524132 0.0028025154906264177
418 -0.007571361516297148 0.00418922598095201 0.0052837659418685035
93 0.0061206172730905156 0.002276775546589951 -0.0027342387357555406
866 0.004298566801588817 -0.005623290885500245 0.0007132847071464235
12 0.004741082281976377 0.002739520375328054 -0.00039596029567871724
11 -0.002549105469210894 0.0020670420858083702 -0.0017935938879232306
16 0.0006913121266969174 -0.0032646085354841614 -0.0010095240425933697
13 -0.0011148718845313632 -0.0005027716054985317 0.0018245031739700548
14 0.011210580709323107 -0.005009622268823144 0.004127190570293087
15 -0.005910936170058147 0.0048482017295399865 0.004967993197663282
28 0.010645611239782502 -0.0004230105983606102 -0.03305142199748051
30 0.0006172756582598878 -0.0035730293318549993 0.008036459926110389
873 -0.031013894163652474 0.014068675971273923 -0.0010496357505018542
265 -0.0011578639505868838 0.007353681312567122 0.002311864077398116
18 0.010548929130163863 0.008585355180148652 -0.009680079004153512
21 -0.002116215667205561 0.007381451845861471 -0.006113229874002828
27 0.014335270308246254 -0.003624379660903833 -0.02587054520647762
22 -0.0056499018330102005 0.009448976986814316 -0.0008430983385587585
29 0.011063556852544565 -0.00641107686771213 0.01273731743750346
17 -0.009416065765682246 -0.006328897178919885 -0.015992181605406223
19 -0.010123203819515309 -0.005067275966335043 -0.03241566959751451
26 0.0038342486978056698 0.001013227321439298 0.007668143380265726
767 0.007904263459074964 0.019589963404783105 -0.009872191494454924
94 0.0005374310633456597 0.0009085755525203463 0.008921118203025404
24 0.0020038347170816735 -0.0004230899454253722 0.0020632304104944484
23 -0.0045029946117228865 0.002781919605387889 0.005534808682004007
766 0.012176011034231942 -0.011509275790153444 0.02676221526152855
762 -0.0006473988945975908 -0.005253546369133429 0.001293247260833556
768 -0.019149305868239916 0.009119309119984898 0.02147362665235623
407 0.007031013588502976 -0.019621219670351638 -0.015852161334613746
408 -0.006213725032841947 0.022386358012515664 0.001830497984620802
402 0.0010554643677854795 -0.001658386353573342 -0.0034944310734142704
578 -0.00398224067190041 -0.004730490377315896 0.0015249082757633414
579 -0.00020443711895514813 0.004694207713985572 0.0006787153687298719
406 0.003882180464774984 0.01572104153268495 0.013664668380495655
815 -0.02242448139778086 0.019343368237593465 -0.00894825162852183
810 0.005455117654129978 -0.01121060299031689 0.0009819131188973718
814 0.022632738598369763 0.019241278504686446 -0.018127246466915214
25 0.0009010061071078824 -0.0001942097063515732 0.0032898182131490712
401 -0.0016835843796461254 -0.0019054111479236222 -0.002031810766120962
807 0.00035206983736260785 -0.007901091048678723 -0.0007423811742416015
808 0.0011997481238933834 -0.00505890662979899 -0.0008799104804416144
809 0.0006078029796501532 -0.0027202865128356595 0.0022774745843392877
806 -0.001671718170760349 0.000888918881954623 -0.0008558798682102423
811 0.009786945217076277 0.007126574171170108 -0.030887583010288818
805 -0.0013680606514106265 -0.002725982271069334 -0.002971881040392404
813 -0.00911685747410363 -0.015398593563460655 0.005837773378052132
812 -0.00392447518002703 0.005739178874156636 0.013651750087317121
581 -0.002762915970574531 -0.0033301352622950417 -0.006502135811290506
756 -0.03773869642867691 0.017687623479225558 -0.03363289518383972
791 0.0021513149614800172 -0.02992242541414603 -0.008977110428487528
786 0.006461200471686632 -0.006660954562150735 -0.007237520957357505
754 0.026336633380726303 -0.03788217128769897 -0.00912511012913752
750 0.0026712907890058557 0.00028062549836596574 0.0020322446207121183
749 0.004634242552998853 0.004004199381412313 -0.004588282731684947
790 0.003382724241294148 -0.026494839814628558 0.0046065134817865295
755 0.00890672614177435 -0.0026299167139489277 -0.0002695108540936507
656 0.007245596872386834 -0.0024038954620006266 -0.0010815668009795131
197 0.02293432716917817 -0.012653133979935673 -0.016674994859431726
199 -0.01185211600312121 0.00766406637117819 0.0036426412680274378
200 0.029021487446015754 0.012567444275350519 -0.0024847277835812957
476 -0.016414887848169635 -0.02404990780735801 0.014964992624916263
908 0.011224305084749163 0.008701140737474912 0.012722532680186681
909 -0.0005201200515032956 0.005484576795704422 -0.004771815836555125
461 0.004018927060176544 -0.0031816594220592624 0.003374216864489935
20 0.010072027739070082 0.016184249371282818 -0.005350090283385283
95 0.009370026797487356 -0.001778733257684696 -0.003970661374689124
597 0.005857721148356308 0.02138466548776877 0.006202139988928555
600 0.014346081970807693 0.01797260210079204 0.008302009333591672
464 -0.00023772061435624076 -0.011821883767227405 -0.011886826417874039
41 0.0048917279234935015 0.002259372165872415 -0.0007935463373978165
463 0.010717890856217646 -0.007240498261900347 0.003427529963318817
175 0.005798131104274253 0.005927001538624712 -0.005155933860131982
457 0.0038984840841882434 0.0014338979342547692 0.0031664956926172293
589 -0.00025457888936063276 -0.0017891371623562963 0.002920372757096766
592 0.0014056614798325683 0.00824463712893662 -0.000544493345900233
459 0.0024428813687710355 0.007752038465055947 -0.00037958354470069857
458 -0.0022385454086117414 0.004857401482267866 0.0023238894255325966
460 0.002931566533884899 0.005773995178984575 -0.0021501198366564935
590 0.0020511008532813724 -0.004035383267640468 -0.006756683891265981
598 -0.0011368556274583314 -0.015033760202345826 0.022963196199505338
591 -0.0044106391867548824 -0.0007660682789707295 -0.0027814846153709533
593 0.000359163769629939 0.004526925840552373 -0.006258038431227238
594 0.003997336437313857 -0.00046651926545788 -0.0011802189797606327
599 -0.009116015866318578 0.009725892159855594 0.009363646135559919
465 -0.0050959845043056255 -0.0235210925159954 0.0303601231229692
174 0.0037803287579484725 0.008820973510267286 -0.0023195857662256913
176 0.009338967528608931 0.0019433257128513575 -0.0052936586357063276
672 -0.029415858766712377 -0.021824669381587013 -0.012703530677139068
670 0.01175097642335469 0.0013904714249341169 0.01510696531743535
671 -0.0031132527647377405 -0.0041468218255590016 0.010511034591723879
666 -0.006592582650810492 0.0014345688485679193 0.0002468988245682231
48 -0.01605944880653004 -0.010077575110152294 -0.013930095203255555
614 0.005932592536075406 0.0015340960030128664 0.006654230271201375
742 0.0043235843579202335 -0.020850145424119587 -0.0023827451668642402
737 0.008069421707157643 -0.007586372355035298 -0.00655257846978324
744 0.002421630035284653 -0.004022878901901848 -0.023866945485219924
738 -0.0026334109359422253 -0.0009383894204754271 -0.0028622831263818917
743 0.005803144338081303 -0.013318215539260417 -0.004917599819481215
186 0.0023790470833746926 -0.0017780203383034774 -0.004918636100099681
188 0.0053735759878440915 0.014523609057418155 0.00991129926841563
187 -0.0004541524601539038 -0.0002744024140769747 0.025537328102060837
181 -0.00455723740386914 0.00011378966171899594 0.0033654324724158185
182 0.0048705929839302645 0.0040413622420064615 0.0036851539878437964
184 0.003340615076528802 -0.005747643475015018 0.003934930860657595
183 -0.000905712167772764 0.004308664050449193 -0.004438181369707516
190 0.004510327698861698 -0.0061290042365648644 0.033202155676532216
995 -0.0028569996285374485 -0.0010355197019845319 -0.0017696340581197232
998 0.0029322104150712263 -0.001276898581782722 0.004356065139851105
996 0.0014956067913266013 0.002682212823825478 0.001889177715431952
753 -0.0004891236051306916 -0.004620569844489663 -0.0003507730876810177
745 0.0010067697958212457 0.003718015688701662 0.0014798849631522653
752 0.01003842908818027 0.0293585410738761 0.002578424021264357
129 -0.026890145398006646 -0.010160979975722044 0.013992282047502367
75 0.003428738973136744 -0.0005955252325890211 0.0006093581990230466
147 0.018138752840506114 0.017567747989322386 0.030234819506515825
74 0.0067995937894542325 0.0006617309990428861 -0.0017265702660771048
948 0.012728960533638808 0.024901491645325353 0.0025385737434847535
78 -0.03529550399458568 0.014475568636951658 0.015798970341964803
80 0.004456368165461778 -0.008092915139192951 -0.011146953597778873
71 -0.003615090082367116 -0.004012683882755035 -0.005934175005318186
72 -0.0018686759035771035 0.0009888098049102186 -0.00040418272573321056
76 0.00521121964128788 -0.00018375425895530927 0.0063573660509368985
73 0.002249143997974406 0.000683168819395272 0.00399708030843241
946 0.00905868090224178 0.002191046881080642 -0.0030918414018013623
588 -0.003937162483841945 -0.014013035307605157 0.002313751967212844
938 -0.0008879988391621586 0.00047956172473687147 0.0008348106173695041
939 -0.0007823917622967404 -0.0024067145758479994 0.008425331420835064
945 -0.0039499267774503015 0.024414743601748185 -0.01728677128970177
264 0.0034989921827404554 -0.00604685387054336 0.0031948834534324963
944 -0.0007071464294885663 0.007981884991465266 -0.0009368009363003039
937 -0.004719381216370281 -0.015588480271636755 -0.003879525022237012
266 0.004622859370587303 -0.005738635796686381 -0.005573113030136004
269 0.027033449272259764 0.010274478628237911 0.0035666886917857664
263 -0.005392423368509737 -0.004935923036918211 0.004836188416353824
943 0.0026216731974754728 -0.007310696323034064 0.011829929748294239
262 -0.00019380359533218916 -0.0020519873234521374 -0.0010413874708180074
669 -0.021688671236454817 -0.00784342205093107 0.003221724709291321
667 0.030210185069198432 -0.039061610625487186 -0.0008844244399081234
270 0.001072712339359918 -0.032809888255306605 -0.007021046518067592
261 0.0026018817183585856 -0.004413488772808108 -0.0038253617857411186
267 -0.006840707547822641 0.01726275122031047 -0.010967728416543514
185 0.0008780047593509351 0.005873712641502593 -0.005312068230235106
268 -0.00442900912182085 -0.007177839454120376 -0.0045751338716734785
940 -0.00645087239777224 -0.00034017970292755793 0.0011110415018462274
649 0.0034268767280950787 -0.0038526077525826317 -0.0015313610453067002
657 0.0005564512652250866 0.005307052088995933 0.003999380938188779
587 0.021194912721631945 0.001461439293739102 -0.011531225280420594
582 -0.002807238999572455 -0.00907992392390448 0.0020495576704658218
580 -0.002554499741224066 -0.0008084643050509173 -0.000538063241482728
615 -0.006039920948758849 0.004350173987005495 0.004214661344043945
936 0.0028431349934414664 -0.02041015966862077 -0.009579789397185833
130 -0.006934516013539079 -0.006024876530604089 -0.006959380502591561
586 0.00934639522048389 0.010846042401766983 0.002382683415890924
359 -3.90571312352481e-05 0.010578401183733923 0.018060730584518608
358 0.014115527259453026 0.006322396577693151 0.005393619930976679
354 -0.0003766162029494158 -0.009251327176531267 0.004437509496665451
122 0.0010653867242022387 0.0012143558895558676 -0.0006097797035108265
623 -0.013189643432740697 -0.0066224011332439055 0.000678970904439842
123 -0.0008256776660527295 0.0007728370422005915 0.002402869907961669
617 -0.001184879941373314 0.0024419126454704983 -0.0021005024858817122
618 -0.0049709886080826155 0.006673157758317184 -0.00446949343853081
622 0.009817981070823335 0.003135946408952351 0.0060510369140500345
624 -0.015390406074339669 -0.009210392016892817 -0.027542900419430756
124 0.0008741632430476758 -0.0036611289547313717 0.002162883809290954
125 -0.012765902190710998 -0.0042457823424647415 0.0005589364501363934
655 -0.02470167206400064 0.010446431191489969 -0.006691895763787583
957 -0.002971841329415808 -0.011063873244249121 0.007144061095019087
956 -0.014741447816609323 0.0010629338287981543 -0.00010880197969617764
650 0.003405732070932849 -0.0029214103545944147 0.0006497821927257181
941 0.007828755731622521 -0.0037123104493875653 -0.0015161797940278679
942 0.002137042606143498 0.0033067412976601628 -0.0036621708177670426
661 0.0011640490232019314 0.003315882051575168 0.0012104815718551652
664 0.006120026279200438 0.0007371671917930764 0.0021271991171591086
596 0.027525308176072683 -0.01586247920357259 -0.012419625434416444
947 -0.002402383466701589 0.004901188872740978 -0.005169556139751748
662 0.0012616501931066357 0.0062521086250627396 0.004671971658955613
663 -0.003957482341054428 -0.0016993023586056532 0.0013365192906959508
949 0.00436856800237127 0.0030771562943834162 -0.0006584306196309275
659 -0.011444451247869468 -0.016508943903193105 0.0007341531661426207
653 0.0025718719059335793 0.0006051928818702882 -0.0030070325531593944
955 0.0014700038573086487 -0.0022414399378243408 -0.019923843216693528
497 0.0021460562658986455 0.002139224961484791 0.0035371237044988495
660 0.015317689490406327 -0.021005295770830823 -0.007499219969831645
665 0.0003559335507089515 -0.0021228368967460237 -0.003527058867859506
651 0.0040970660387116345 0.0011128515905658891 -0.0008899110616902364
658 0.005111769521302011 0.009805557466876556 0.002407895630997113
498 0.008400483847844347 0.0026973930710362543 0.001003591325081911
503 -0.002535639783657975 0.03161919501966803 -0.004994193803833352
504 -0.002073501983436443 0.01642613491412009 0.012744822309328555
652 0.002335182386591319 0.005155375991829616 0.002504234194223567
654 -0.0007355381936614604 0.008544463340411538 0.002838635943834395
502 0.011943010004155293 -0.004061252779527012 0.009343741879205728
799 0.015880488808411728 0.0035397201560224403 0.016888746782208607
391 -0.010051527101742152 0.0025191996774487084 0.005094183038133452
865 -0.008343339078057366 -0.0012720541075843534 -0.003874741268999879
872 0.02692235301921277 -0.0020332390204038727 0.0006588375802342602
46 0.010533621513247403 0.005253168512250201 -0.004484130211619726
178 0.00602513016685318 0.03379908434984229 9.659099922003039e-05
198 -0.002578272709483676 -0.0026298553075623306 0.0017170248227303638
192 -0.001244012528429296 0.00012235033135116893 -0.0032292440634871856
191 0.00958138154543597 0.0014863009968402294 0.0071578542302100315
228 -0.0027599996975197967 0.0076945513471540555 -0.035494025386835056
935 0.013740236232996474 -0.01027272993187661 0.0039133007890160745
332 0.0002710905303272064 0.008992400635923981 0.00021231441156852076
338 -0.004127190246678551 0.0023070642343801175 -0.005244990185902706
339 0.0020417963703844165 0.00022237883056216575 0.00205287890556619
341 -0.0019814172399552897 -0.002002147188966548 0.0018907404532659037
148 -0.020024460540182823 0.011827453759631087 0.027823110300865456
189 -0.034130405758832104 0.00189010995004223 0.005244412588227976
326 -0.0037162464387377326 -0.009952868918989242 0.00010845675278813907
127 -0.004001638719343151 0.002543207923832337 0.012333957792483537
953 0.002348242543263777 -0.003467947134602331 0.0016965469932022444
153 -0.003344349005218801 0.0046712847127918095 -0.004724663301741875
128 -0.0011644068478051627 0.005774878176283848 -0.02058794641630796
950 0.004053798430440463 0.004775490024833052 -0.004585143471013711
539 0.01015358131959824 -0.002108099939076197 0.027729106977339383
144 0.0050963890442745985 0.0018639847879331145 -0.0031086960235457042
142 0.004878091235743901 -0.011359690240727168 -0.003970727169833542
141 -0.0014328864942499077 -0.001554480772852419 0.0057264279176366
149 -0.021816139355073108 -0.0022069929720941323 -0.010494957780178843
143 0.00041071161671704697 0.0015539896003199972 -0.004529648516849036
79 -0.03164189043497461 0.020059144760367985 0.0036229093025520187
146 0.0028614414226858917 -0.0038488830822289827 -0.004062483194360561
77 -0.0035319500638241034 -0.014038086306360073 -0.002631270037726719
154 0.00024464664526377075 0.005014054120392994 0.008527042833024823
155 0.0034221630684517336 -0.001715004476171102 0.006647290810064059
499 -0.004361149000425434 -0.007452477210167174 0.02802496662936276
494 -0.006301225313945894 -0.0015582998478291114 0.005951350297262258
493 0.0004238981613454437 -0.0018473489064120482 0.0017438239728788856
500 -0.01857842147659252 0.0179577775887596 0.029573924791609203
501 0.00019220756547150332 -0.00884111203701025 -0.01636839652935774
337 0.008855094335102169 0.002729828050078479 0.001573067131453071
344 0.004429963791678827 -0.018049405295600472 -0.002162229921310161
343 0.020819353927399514 0.001728245898513028 -0.023454801498202806
345 0.00656187751702306 -0.005982147262682487 0.009395155762795822
340 -0.01298147998370496 -0.0002375211398951115 0.0005124328796103703
633 -0.016975951602936346 0.03049061676886078 -0.010138798695613186
990 0.006693655544820578 0.002826751710785147 0.0022130436123396946
991 0.000970385598233251 0.0026887252619506295 -0.003338832192061727
994 0.008302616846793327 0.004483091383539013 0.011643891155758644
898 -0.01490249514263514 -0.0270398187950708 -0.013004005538833095
899 0.008877056403157746 -0.0014550263413545545 -0.02051365063595513
993 -0.00137859491959122 -0.007613431766928731 0.0058753753913081035
930 -2.2629770718594698e-05 -0.004858077899781555 -0.0034901828802430296
934 0.0026799816734002983 0.005045158685149816 0.024930583796322927
121 -0.0018628087721527433 0.0013993939376642736 0.004406890949562937
900 -0.02199356476721466 -0.0153817395183203 -0.005001970384062766
894 -0.001477691864767134 -0.009675536350698927 -0.0014993849195962668
893 -0.0007877548555209743 0.006291620714070016 -0.003578087906658634
891 -0.005648735387749622 -0.006851443070251814 0.007405579164587111
126 -0.0035704607919912414 -0.0028035559349488125 0.003204893853619474
848 0.016496550493973607 -0.012462313089409479 -0.009980381983952086
890 0.005998829289583284 -0.0023685845912306933 -0.0024248378616288733
892 -0.006576705184385562 0.0015204923878714856 -0.0007638641005587731
847 0.02096435628954781 -0.005056457920833429 -0.018632920655225725
841 0.0037419720507110557 -0.004750314532380486 0.001755408651079401
951 -0.0011018458243973596 0.0016645091963003046 -0.0021743227901560073
895 0.0007112637461481475 -0.010153750422006287 -0.00425002887144855
889 -0.0019499165462808878 -0.010373364437921074 0.003143775507001726
849 0.005587592884144709 0.01761274802818538 0.007268879708746086
668 0.020190051715861024 0.0038641510207303572 0.00716403446019165
631 0.01674890486574636 0.008008032443335377 0.0017210968504237619
632 0.007466521459946205 -0.01544929302767622 0.01288832013650045
625 -0.0006601844039111072 0.008216501202865505 0.0068935089633587535
626 0.005719062261538966 0.0031925705062370185 -0.006903745046650257
495 0.0023771546964425445 0.005500103633970914 -0.0036318438772857354
952 0.001472760232128713 -0.0007984066070758511 -0.0019766635144369588
844 0.0035391201972400986 -0.002844452465726288 -0.004639875674238947
975 -0.0016778590815074903 -0.000930814448455788 -0.01433534797311089
496 -0.000203350932068326 0.001991394370625251 -0.0026834397087169837
850 -0.023297823313217968 -0.00592122916683907 0.00572443712400874
842 0.0007435589077761527 0.000997182284081424 0.0017932526927658657
843 0.0003031469020932336 -0.0006985572740968454 -0.007212378324902362
845 0.003927802555739069 0.0097702063355046 -0.0033249009212658726
846 0.0035667355989890495 0.006563735095127696 -0.011235183568798867
310 0.011037488908385375 0.01421040499431489 -0.015071366691788709
306 0.0012286951104676972 0.0020663594085581845 -0.009881142338416431
312 -0.0028853109547943246 -0.004332289076689155 -0.017591135467055652
769 -0.0062005951422751 0.0039150639302352915 0.00045270859723676695
775 -0.014299882026566586 0.0168751479439533 -0.0202004314290187
477 0.01487686540696583 -0.004327915350223919 0.01665404294124915
801 -0.020120820818832492 0.02104388033480232 -0.006740815569995761
793 -0.005489153134097814 0.001195999476058205 -0.00339793356786663
342 0.0026627488624424663 0.0011746356871209654 -0.012599806043226832
348 0.01890400068932977 0.014990275104067755 0.002124460067837394
347 -0.004676070566078363 -0.014918733545011418 -0.03430511284772977
346 -0.0263880972644276 -0.001325289662966781 -0.01035179388513921
1012 -0.0010439207587196878 -0.004575379213680455 -0.0006310863219271429
329 -0.003150925735433793 -0.0008845357292339095 0.004270479263670206
335 0.021198242174942337 -0.009254081390058809 0.03589200222297078
334 0.00786697244718385 -0.0008511488239015815 -0.00217764508395206
330 0.004767519491077798 -0.004697303291694557 0.004238249489001999
549 0.0200833746612971 -0.018303905928173714 -0.009483790140419448
642 0.005354199077818823 0.001910036503898382 0.003527334525025496
646 -8.228105293014683e-05 0.006156340377377114 0.024457380475616085
647 -0.010768440084287916 0.002603425880435579 0.017872170150312405
1011 -0.0013547109484957983 -0.0028525771558195914 0.00039112071971479477
796 -0.0009229577587629199 0.0008416323067453969 -0.0025118879293845584
1014 -0.005809788063636144 -0.0004953003898916245 -0.0018848108962160389
794 -0.004277153620544317 0.002581229267240906 0.003488877462414569
795 -0.0031102720340631545 0.001198343047208575 0.0022977446446233963
729 0.004330801291645293 -0.027744115814819278 -0.0032569480736213343
1010 -0.0039005455672045672 0.003696766892004688 0.005507321511241013
976 0.003569332981698432 0.000780144686853806 -0.0003138800150485832
954 0.001290401328690203 0.005473337247133584 -0.0019128165368103261
959 -0.0008324619862648011 0.01588416372373742 0.0041630807589179905
541 0.0013412742182239853 -0.011912107819215324 0.005478432605776955
548 -0.008988139418889741 -0.015888129884150073 -0.006038823075816114
547 -0.002745269278196229 0.015610406814423185 -0.015337503232484645
722 -0.0020943524631363893 -8.131801339729466e-05 -0.005611128209535218
540 0.0017569045890192478 -0.012740352518084034 0.014080188395962912
725 0.0010028073655015909 0.002396412400585425 -0.002495366336063398
723 -6.161036367205394e-05 0.004769481341312284 0.001374355075452691
532 -0.000788848315907704 -0.0008241504513445114 0.002857634784605856
531 0.0015060053426634206 -0.006272368046647094 0.003610624162771024
535 -0.008421715596970065 0.001419815192279235 0.014317857057511896
529 -0.0018117668013221614 0.0005792466061462247 0.0005103542099358362
537 0.004115366532726906 0.010147044531607408 0.013091366911704174
536 -0.01141308646430131 0.017588588365163492 0.00048592391276741973
530 0.004542678241814199 0.002893562251555864 0.000548522886478984
538 -0.02126351779756406 -0.014509071502560334 0.011067908643746325
534 0.003577635456932536 0.0019211702205198427 -0.0017720399029582457
533 0.0034052949217535625 -0.0029422699435507123 -0.00913543474599454
280 -0.005385125455635625 0.0012717459573659683 0.005918115637785464
220 0.018781532577238778 -0.010381349446894913 0.013360442492032944
960 -0.010521160608062451 -0.009113320651926805 -0.024078160992016616
145 -0.005227195665506939 0.0009748689435957335 0.005772614346351089
797 0.0012658059112735335 0.0012618555721880598 -0.0018148636605760421
802 0.013847224761067329 0.03337748710323938 0.006247306493837771
885 0.01072325067124639 0.01853954414933386 -0.015176903450162817
704 0.0021029016348536014 -0.008145171901816042 0.03281211735474248
703 0.01023899964144466 0.008308967550012303 0.020675794311541547
681 0.00753458590451369 -0.0032012607921731748 0.018644846001787698
697 -0.0006388979975780289 0.00741340726208169 -0.0007349021873222947
705 -0.012763168179021758 0.009792574778502906 0.002480261450354556
698 0.0016716012789581452 -0.0006938376601428201 0.003181150376767869
699 0.0020543539160962727 0.005980012882965965 0.004457796729434521
700 0.001619892022874516 -0.0019255271606376412 0.0027255320330432545
803 -0.006314650755950635 -0.00469556917547729 0.007955172118538125
798 -0.0007076556841646965 -0.004648114001229075 0.001894897476166947
804 -0.02482089572401669 0.02825923946196803 -0.002686082714376529
992 -0.006007680607019881 0.004020061778672614 -0.0005978986602836158
776 0.011638826269789881 -0.005309288560754451 0.047405360619892895
772 -0.002655652158119168 -0.0003684042965764898 0.0039113097057971915
648 -0.0020827602025303067 0.002375485988292025 -0.003631087453986006
308 0.005865020615983408 -0.004982816477204199 0.041762225677722
309 -0.0067934244254564775 -0.0029233796641802185 -0.014853209369915467
1013 0.0023549909367171404 -0.0037501164543444 0.0028468165266259623
641 0.0005668792164392632 0.0022104810321720825 0.0007900106336975913
301 -0.0069994052982537405 -0.0008980929798631198 0.004172339402030217
230 0.005695175852928301 -0.011780656947608643 0.013525039923070525
305 0.0032075955924192197 -0.005918948398978165 0.0012628994662754638
871 -0.0058378333136109425 -0.007272294329573198 0.018838970968504537
302 -0.0027382750650474692 0.0020357767216645705 -0.003417872876692945
979 -0.00348562011159366 -0.005524006184243476 0.009414380128095848
643 0.003187889462678171 -0.0072035217188603385 0.03699715956612953
275 0.002299193698779704 -0.0007139297873329423 0.008416541218393392
307 -0.00025141258763615936 0.008452090586867139 0.0062614412161079835
637 0.004463002848133853 0.003361764709486006 -0.001493757679466098
644 0.017449234476713767 -0.00836630465735283 -0.011630699339123416
303 0.004851825129916241 -0.002850125673308474 0.0037955598955192226
304 0.004535184623738579 0.0033526798536030336 -0.0018247038793214692
640 0.002126445226496091 -0.007709585576245677 -0.0026762401269473913
645 0.004796974025032839 0.036489179055751865 -0.0017599327181707096
638 -0.004337162147973849 0.006310947069747441 0.00047068980081898176
639 0.006926669312973044 0.0014471765651348214 -0.00020615309656325686
634 0.027233156183668457 0.018232042460273597 0.0032100467316691517
770 -0.0011025402827911346 -0.001684236791873021 0.003274519921650197
101 -0.00041710949389057474 -0.005583766158896355 -0.0035199231110582627
108 0.00758713572805627 0.0001960483748365338 0.03017298994521733
771 0.0001402619681516996 0.002089665113172487 -0.003558495387856292
761 -0.0024499423048844004 0.005024501633741586 0.001169601737102757
106 0.0033787617947063898 0.003310167710377876 -0.007329944489741384
107 -0.009692667539765165 -0.009049592019640847 -0.0030882683030214668
110 -0.017536919987295722 0.01768561365928202 0.011370075615134857
109 0.008136969589623252 0.0018187682320292544 0.030940170780487955
102 -0.006675552422041689 5.974368831540388e-05 0.006720396878779157
475 -0.008935622637317892 0.0046192422884641865 0.013912077320590755
792 -0.00218966912160041 -0.007818435524526436 0.0030208341116404465
469 -0.00042749317424884727 8.662069620294986e-05 0.004975626041908274
104 0.0028638008591398124 -0.0015430385722040839 0.0032821248182372683
274 0.0030069792310047487 0.005757075617890871 0.0037494753756938896
276 -0.0029841593737891473 0.005354324844420733 0.009032991890073528
278 0.004390363706726192 0.007211754230483205 -0.02996908594886097
2 -0.0015359051651666286 -0.011372483229285673 0.002037880052348422
273 -0.006540939161436698 0.01067363979067525 0.002879668556065903
785 0.0010806216752416494 0.0008429041487313676 -0.0027223060343857155
103 0.006706016246926084 -0.006643754168754558 0.0023049759545840983
196 0.0032527049827874416 0.005608848371086495 -0.00016135242408115593
958 -0.0012375944129588514 -0.015314415989818865 0.007420879779279155
10 0.008230040819036721 0.015124286699081379 -0.010414566114964077
3 0.0010701279017160962 0.007196717762335291 -0.0006616125703416251
195 -0.0028359324251039696 0.005206947201367525 -0.007023554034182412
194 0.005739447071318521 -7.012584824879019e-05 3.984672096919284e-05
193 0.006085723840398298 -0.002466726946003698 0.008022181011430334
279 0.010376115950700694 -0.00838234037668365 0.02497775471958462
272 0.0018802253453034917 0.0022448139604371014 -0.0036929738673346798
897 0.008769681033866446 0.027406362981111453 0.007743763650197551
896 0.03374969373911522 -0.007375196880059277 -0.0002532388059684652
782 -0.001490094310643935 -0.0041585467901193406 0.005873846513817845
783 -0.0026932065975625217 -0.005205994720724097 0.0004447112167836763
788 0.0022873756031623386 0.0006267680347898313 -0.010573791485276523
781 0.0034434952451420217 0.0016569331949494543 0.0005951484199828856
787 0.023188662768095558 0.0007028039835448541 -0.014930500053790543
789 -0.0018645318109607454 0.006085243343559173 0.02573878039062858
9 0.0006887579758132604 -0.007712156352160638 0.017949132064236272
784 -0.002729544632387172 -0.0036701517353304584 -0.0027100582281361744
271 -0.0005051304349745888 0.00021372179650717575 0.010070231078049574
277 0.009711940720680936 0.02481903858243177 0.015913931222813153
627 -0.007665756859037601 -0.0006845404267757606 0.007882878205332542
629 0.002244226887612892 -0.005751676602264682 -0.0057131360103421765
852 -0.030045114960809055 0.02184760605464646 0.0037375614061599107
851 0.01714678174816837 -0.0006491415654931249 -0.01630566803041305
778 -0.0036642611664135555 -6.722984966575517e-05 0.014953074560661818
472 -0.003579992335269695 0.0008513780511045788 0.001659217095882962
480 -0.003316772561570263 0.0011530055702095516 0.013105740734539307
470 -0.0005053654787639138 -0.005917468043430401 0.0015009032534941578
628 -0.00014706714484634213 -0.0021900238876830344 -0.0008651808307268995
478 0.03919658891068486 0.006842205741532303 0.017678570049311622
471 0.0009908077535318298 -0.002013993791966218 -0.0019112708893602127
630 -0.005560190347431983 -0.0014529553278191337 0.006140867245080852
635 0.015677536113293502 -0.00263203244017046 -0.01057464281202885
763 -0.03203216991421038 0.0019445864179724731 0.01884247829166441
758 0.004697924930718288 -0.0013611254764082069 0.0006288710906169887
764 -0.004195679460956035 -0.00883598833996722 -0.0036196672410667577
757 -0.004767840659383408 0.007103892511632487 -0.0023405213148091626
173 -0.004611189343086963 -0.0009916731574713359 0.0027443117411834915
180 -0.008906762419364018 -0.014247426625476796 -0.01935416430497411
179 0.001680945653086811 0.011915951358676673 -0.015447942346551152
172 -0.0025776127112716834 -0.005252046853730905 0.0010869250172281378
759 -0.003449579635076255 -0.00029303461916844125 -0.005784860405038008
474 0.0018612181979726543 -0.0037850655296678666 -0.005746579278342989
479 -0.004124078244452501 0.0037628545153419748 0.03398135591032601
984 -0.002931420143182144 -0.003440406440442162 0.006928146765313955
473 -0.004239294157492792 -0.006906727661905052 -0.005318196963207445
760 -0.0006637452466047309 0.0072513671737440945 -0.006675478125912234
765 0.008128291053426542 0.0035805292631413315 0.008112574253612797
171 -0.0031329799713398503 0.0034619604507301516 0.0006450322163813137
177 -0.0018473073263961081 -0.014166456518675557 0.013502587968445392
780 -0.013312294380963352 -0.016073994393841266 -0.012300361719384718
983 0.006045676896953695 0.0006406335891077572 -0.001163222568371923
779 -0.03388580208428018 -0.011002151361274231 0.015339208242021788
774 -0.0011368043524556408 0.005579466108087872 0.004490512245774303
980 0.0016407599115150521 -0.0009186634006726141 0.0009609712299932647
636 -0.015678035984646597 -0.025435762437129278 0.013003124703588246
981 -0.0026733444536656235 0.0004730449477467822 -0.007377116545426137
982 7.58304017684685e-05 -0.003810296065084017 -0.0009564052288676992
773 0.002417927906495391 0.0012700442277799517 -0.003024425397470721

Bonds

1 3 714 718
2 3 714 719
3 3 714 720
4 5 375 376
5 4 375 377
6 4 374 375
7 2 373 374
8 3 373 379
9 3 373 380
10 3 373 381
11 3 870 874
12 3 870 875
13 3 870 876
14 3 510 514
15 3 510 515
16 3 510 516
17 2 961 962
18 3 961 967
19 3 961 968
20 3 961 969
21 5 963 964
22 4 963 965
23 2 869 870
24 2 509 510
25 2 377 378
26 5 867 868
27 4 867 869
28 3 378 382
29 3 378 383
30 3 378 384
31 4 962 963
32 5 244 245
33 4 244 246
34 1 241 242
35 2 241 246
36 3 241 247
37 3 241 248
38 2 242 243
39 3 242 249
40 3 242 250
41 4 243 244
42 6 1001 1002
43 6 1001 1003
44 6 1001 1004
45 4 686 687
46 6 1000 1001
47 2 689 690
48 5 687 688
49 4 687 689
50 3 690 694
51 3 690 695
52 3 690 696
53 3 858 862
54 3 858 863
55 3 858 864
56 2 361 362
57 3 361 367
58 3 361 368
59 3 361 369
60 2 685 686
61 3 685 691
62 3 685 692
63 3 685 693
64 5 84 85
65 4 84 86
66 1 81 82
67 2 81 86
68 3 81 87
69 3 81 88
70 2 82 83
71 3 82 89
72 3 82 90
73 4 83 84
74 4 902 903
75 5 903 904
76 4 903 905
77 2 905 906
78 4 422 423
79 2 421 422
80 3 421 427
81 3 421 428
82 3 421 429
83 5 423 424
84 4 423 425
85 3 906 910
86 3 906 911
87 3 906 912
88 3 462 466
89 3 462 467
90 3 462 468
91 5 44 45
92 4 44 46
93 2 42 43
94 3 42 49
95 3 42 50
96 4 43 44
97 2 425 426
98 4 362 363
99 2 713 714
100 6 1005 1006
101 5 711 712
102 4 711 713
103 6 1006 1007
104 6 1006 1008
105 6 1006 1009
106 3 834 838
107 3 834 839
108 3 834 840
109 4 710 711
110 2 709 710
111 3 709 715
112 3 709 716
113 3 709 717
114 5 507 508
115 4 507 509
116 2 833 834
117 2 385 386
118 3 385 391
119 3 385 392
120 3 385 393
121 2 857 858
122 4 506 507
123 2 505 506
124 3 505 511
125 3 505 512
126 3 505 513
127 5 855 856
128 4 855 857
129 5 214 215
130 4 214 216
131 4 854 855
132 4 213 214
133 2 212 213
134 3 212 219
135 3 212 220
136 3 426 430
137 3 426 431
138 3 426 432
139 4 830 831
140 5 363 364
141 4 363 365
142 2 365 366
143 3 366 370
144 3 366 371
145 3 366 372
146 5 831 832
147 4 831 833
148 2 829 830
149 3 829 835
150 3 829 836
151 3 829 837
152 3 966 970
153 3 966 971
154 3 966 972
155 4 283 284
156 3 606 610
157 3 606 611
158 3 606 612
159 2 282 283
160 3 282 289
161 3 282 290
162 2 605 606
163 5 603 604
164 4 603 605
165 2 613 614
166 3 613 619
167 3 613 620
168 3 613 621
169 2 965 966
170 2 349 350
171 3 349 355
172 3 349 356
173 3 349 357
174 4 350 351
175 4 163 164
176 5 164 165
177 4 164 166
178 2 162 163
179 3 162 169
180 3 162 170
181 5 114 115
182 4 114 116
183 5 351 352
184 4 351 353
185 4 113 114
186 2 112 113
187 3 112 119
188 3 112 120
189 2 353 354
190 5 284 285
191 4 284 286
192 4 602 603
193 2 553 554
194 3 553 559
195 3 553 560
196 3 553 561
197 4 554 555
198 2 601 602
199 3 601 607
200 3 601 608
201 3 601 609
202 1 281 282
203 2 281 286
204 3 281 287
205 3 281 288
206 6 985 986
207 6 986 987
208 6 986 988
209 6 986 989
210 5 735 736
211 4 735 737
212 5 204 205
213 4 204 206
214 4 203 204
215 1 201 202
216 2 201 206
217 3 201 207
218 3 201 208
219 2 202 203
220 3 202 209
221 3 202 210
222 4 314 315
223 1 111 112
224 2 111 116
225 3 111 117
226 3 111 118
227 4 734 735
228 2 733 734
229 3 733 739
230 3 733 740
231 3 733 741
232 2 313 314
233 3 313 319
234 3 313 320
235 3 313 321
236 2 132 133
237 3 132 139
238 3 132 140
239 3 438 442
240 3 438 443
241 3 438 444
242 2 437 438
243 5 435 436
244 4 435 437
245 4 446 447
246 5 447 448
247 4 447 449
248 2 449 450
249 1 221 222
250 2 221 226
251 3 221 227
252 3 221 228
253 2 445 446
254 3 445 451
255 3 445 452
256 3 445 453
257 4 434 435
258 1 161 162
259 2 161 166
260 3 161 167
261 3 161 168
262 5 927 928
263 4 927 929
264 2 925 926
265 3 925 931
266 3 925 932
267 3 925 933
268 4 926 927
269 2 929 930
270 3 450 454
271 3 450 455
272 3 450 456
273 2 481 482
274 3 481 487
275 3 481 488
276 3 481 489
277 5 555 556
278 4 555 557
279 2 557 558
280 3 558 562
281 3 558 563
282 3 558 564
283 2 565 566
284 3 565 571
285 3 565 572
286 3 565 573
287 4 566 567
288 1 231 232
289 2 231 236
290 3 231 237
291 3 231 238
292 4 482 483
293 5 483 484
294 4 483 485
295 2 325 326
296 3 325 331
297 3 325 332
298 3 325 333
299 2 252 253
300 3 252 259
301 3 252 260
302 1 251 252
303 2 251 256
304 3 251 257
305 3 251 258
306 4 253 254
307 5 254 255
308 4 254 256
309 1 151 152
310 2 151 156
311 3 151 157
312 3 151 158
313 2 152 153
314 3 152 159
315 3 152 160
316 2 317 318
317 5 315 316
318 4 315 317
319 3 318 322
320 3 318 323
321 3 318 324
322 5 224 225
323 4 224 226
324 4 223 224
325 1 51 52
326 2 51 56
327 3 51 57
328 3 51 58
329 2 52 53
330 3 52 59
331 3 52 60
332 4 53 54
333 5 54 55
334 4 54 56
335 2 32 33
336 3 32 39
337 3 32 40
338 4 33 34
339 5 34 35
340 4 34 36
341 2 222 223
342 3 222 229
343 3 222 230
344 2 433 434
345 3 433 439
346 3 433 440
347 3 433 441
348 1 61 62
349 2 61 66
350 3 61 67
351 3 61 68
352 2 517 518
353 3 517 523
354 3 517 524
355 3 517 525
356 2 913 914
357 3 913 919
358 3 913 920
359 3 913 921
360 4 518 519
361 5 519 520
362 4 519 521
363 2 521 522
364 3 522 526
365 3 522 527
366 3 522 528
367 1 1 2
368 2 1 6
369 3 1 7
370 3 1 8
371 2 62 63
372 3 62 69
373 3 62 70
374 4 63 64
375 5 4 5
376 4 4 6
377 5 64 65
378 4 64 66
379 3 546 550
380 3 546 551
381 3 546 552
382 1 131 132
383 2 131 136
384 3 131 137
385 3 131 138
386 3 486 490
387 3 486 491
388 3 486 492
389 1 31 32
390 2 31 36
391 3 31 37
392 3 31 38
393 4 133 134
394 4 914 915
395 2 485 486
396 2 917 918
397 5 915 916
398 4 915 917
399 5 134 135
400 4 134 136
401 3 918 922
402 3 918 923
403 3 918 924
404 5 567 568
405 4 567 569
406 2 569 570
407 3 570 574
408 3 570 575
409 3 570 576
410 5 234 235
411 4 234 236
412 2 232 233
413 3 232 239
414 3 232 240
415 4 233 234
416 3 390 394
417 3 390 395
418 3 390 396
419 2 817 818
420 3 817 823
421 3 817 824
422 3 817 825
423 4 818 819
424 4 386 387
425 5 327 328
426 4 327 329
427 2 389 390
428 5 387 388
429 4 387 389
430 5 819 820
431 4 819 821
432 3 822 826
433 3 822 827
434 3 822 828
435 4 542 543
436 5 543 544
437 4 543 545
438 2 545 546
439 3 726 730
440 3 726 731
441 3 726 732
442 2 881 882
443 3 882 886
444 3 882 887
445 3 882 888
446 5 879 880
447 4 879 881
448 1 211 212
449 2 211 216
450 3 211 217
451 3 211 218
452 4 878 879
453 2 877 878
454 3 877 883
455 3 877 884
456 3 877 885
457 2 821 822
458 2 701 702
459 3 702 706
460 3 702 707
461 3 702 708
462 1 91 92
463 2 91 96
464 3 91 97
465 3 91 98
466 2 901 902
467 3 901 907
468 3 901 908
469 3 901 909
470 4 293 294
471 2 292 293
472 3 292 299
473 3 292 300
474 5 294 295
475 4 294 296
476 2 397 398
477 3 397 403
478 3 397 404
479 3 397 405
480 2 577 578
481 3 577 583
482 3 577 584
483 3 577 585
484 2 853 854
485 3 853 859
486 3 853 860
487 3 853 861
488 4 398 399
489 5 399 400
490 4 399 401
491 5 747 748
492 4 747 749
493 4 746 747
494 2 721 722
495 3 721 727
496 3 721 728
497 3 721 729
498 1 291 292
499 2 291 296
500 3 291 297
501 3 291 298
502 2 677 678
503 5 675 676
504 4 675 677
505 4 674 675
506 3 678 682
507 3 678 683
508 3 678 684
509 2 673 674
510 3 673 679
511 3 673 680
512 3 673 681
513 4 410 411
514 5 411 412
515 4 411 413
516 2 409 410
517 3 409 415
518 3 409 416
519 3 409 417
520 2 92 93
521 3 92 99
522 3 92 100
523 2 413 414
524 3 414 418
525 3 414 419
526 3 414 420
527 4 93 94
528 4 866 867
529 2 12 13
530 3 12 19
531 3 12 20
532 1 11 12
533 2 11 16
534 3 11 17
535 3 11 18
536 4 13 14
537 5 14 15
538 4 14 16
539 1 21 22
540 2 21 26
541 3 21 27
542 3 21 28
543 2 22 23
544 3 22 29
545 3 22 30
546 5 94 95
547 4 94 96
548 5 24 25
549 4 24 26
550 4 23 24
551 3 762 766
552 3 762 767
553 3 762 768
554 3 402 406
555 3 402 407
556 3 402 408
557 4 578 579
558 5 579 580
559 4 579 581
560 3 810 814
561 3 810 815
562 3 810 816
563 2 401 402
564 5 807 808
565 4 807 809
566 2 809 810
567 4 806 807
568 2 805 806
569 3 805 811
570 3 805 812
571 3 805 813
572 2 581 582
573 3 786 790
574 3 786 791
575 3 786 792
576 3 750 754
577 3 750 755
578 3 750 756
579 2 749 750
580 2 461 462
581 1 41 42
582 2 41 46
583 3 41 47
584 3 41 48
585 2 457 458
586 3 457 463
587 3 457 464
588 3 457 465
589 2 589 590
590 3 589 595
591 3 589 596
592 3 589 597
593 5 459 460
594 4 459 461
595 4 458 459
596 4 590 591
597 5 591 592
598 4 591 593
599 2 593 594
600 3 594 598
601 3 594 599
602 3 594 600
603 5 174 175
604 4 174 176
605 3 666 670
606 3 666 671
607 3 666 672
608 4 614 615
609 2 737 738
610 3 738 742
611 3 738 743
612 3 738 744
613 1 181 182
614 2 181 186
615 3 181 187
616 3 181 188
617 2 182 183
618 3 182 189
619 3 182 190
620 5 184 185
621 4 184 186
622 4 183 184
623 6 995 996
624 6 996 997
625 6 996 998
626 6 996 999
627 2 745 746
628 3 745 751
629 3 745 752
630 3 745 753
631 5 74 75
632 4 74 76
633 1 71 72
634 2 71 76
635 3 71 77
636 3 71 78
637 2 72 73
638 3 72 79
639 3 72 80
640 4 73 74
641 4 938 939
642 5 939 940
643 4 939 941
644 5 264 265
645 4 264 266
646 2 937 938
647 3 937 943
648 3 937 944
649 3 937 945
650 4 263 264
651 2 262 263
652 3 262 269
653 3 262 270
654 1 261 262
655 2 261 266
656 3 261 267
657 3 261 268
658 2 649 650
659 3 649 655
660 3 649 656
661 3 649 657
662 3 582 586
663 3 582 587
664 3 582 588
665 5 615 616
666 4 615 617
667 3 354 358
668 3 354 359
669 3 354 360
670 2 122 123
671 3 122 129
672 3 122 130
673 4 123 124
674 2 617 618
675 3 618 622
676 3 618 623
677 3 618 624
678 5 124 125
679 4 124 126
680 4 650 651
681 2 941 942
682 3 942 946
683 3 942 947
684 3 942 948
685 2 661 662
686 3 661 667
687 3 661 668
688 3 661 669
689 4 662 663
690 5 663 664
691 4 663 665
692 2 949 950
693 3 949 955
694 3 949 956
695 3 949 957
696 2 653 654
697 2 497 498
698 2 665 666
699 5 651 652
700 4 651 653
701 3 498 502
702 3 498 503
703 3 498 504
704 3 654 658
705 3 654 659
706 3 654 660
707 2 865 866
708 3 865 871
709 3 865 872
710 3 865 873
711 2 192 193
712 3 192 199
713 3 192 200
714 1 191 192
715 2 191 196
716 3 191 197
717 3 191 198
718 4 338 339
719 5 339 340
720 4 339 341
721 2 341 342
722 4 326 327
723 2 953 954
724 4 153 154
725 4 950 951
726 5 144 145
727 4 144 146
728 2 142 143
729 3 142 149
730 3 142 150
731 1 141 142
732 2 141 146
733 3 141 147
734 3 141 148
735 4 143 144
736 5 154 155
737 4 154 156
738 4 494 495
739 2 493 494
740 3 493 499
741 3 493 500
742 3 493 501
743 2 337 338
744 3 337 343
745 3 337 344
746 3 337 345
747 6 990 991
748 6 991 992
749 6 991 993
750 6 991 994
751 3 930 934
752 3 930 935
753 3 930 936
754 1 121 122
755 2 121 126
756 3 121 127
757 3 121 128
758 3 894 898
759 3 894 899
760 3 894 900
761 2 893 894
762 5 891 892
763 4 891 893
764 4 890 891
765 2 841 842
766 3 841 847
767 3 841 848
768 3 841 849
769 5 951 952
770 4 951 953
771 2 889 890
772 3 889 895
773 3 889 896
774 3 889 897
775 2 625 626
776 3 625 631
777 3 625 632
778 3 625 633
779 4 626 627
780 5 495 496
781 4 495 497
782 4 842 843
783 5 843 844
784 4 843 845
785 2 845 846
786 3 846 850
787 3 846 851
788 3 846 852
789 3 306 310
790 3 306 311
791 3 306 312
792 2 769 770
793 3 769 775
794 3 769 776
795 3 769 777
796 2 793 794
797 3 793 799
798 3 793 800
799 3 793 801
800 3 342 346
801 3 342 347
802 3 342 348
803 2 329 330
804 3 330 334
805 3 330 335
806 3 330 336
807 3 642 646
808 3 642 647
809 3 642 648
810 6 1011 1012
811 6 1011 1013
812 6 1011 1014
813 4 794 795
814 5 795 796
815 4 795 797
816 6 1010 1011
817 3 954 958
818 3 954 959
819 3 954 960
820 2 541 542
821 3 541 547
822 3 541 548
823 3 541 549
824 4 722 723
825 2 725 726
826 5 723 724
827 4 723 725
828 5 531 532
829 4 531 533
830 2 529 530
831 3 529 535
832 3 529 536
833 3 529 537
834 4 530 531
835 3 534 538
836 3 534 539
837 3 534 540
838 2 533 534
839 2 797 798
840 2 697 698
841 3 697 703
842 3 697 704
843 3 697 705
844 4 698 699
845 5 699 700
846 4 699 701
847 3 798 802
848 3 798 803
849 3 798 804
850 2 641 642
851 2 301 302
852 3 301 307
853 3 301 308
854 3 301 309
855 2 305 306
856 4 302 303
857 2 637 638
858 3 637 643
859 3 637 644
860 3 637 645
861 5 303 304
862 4 303 305
863 4 638 639
864 5 639 640
865 4 639 641
866 4 770 771
867 1 101 102
868 2 101 106
869 3 101 107
870 3 101 108
871 5 771 772
872 4 771 773
873 2 761 762
874 2 102 103
875 3 102 109
876 3 102 110
877 2 469 470
878 3 469 475
879 3 469 476
880 3 469 477
881 5 104 105
882 4 104 106
883 5 274 275
884 4 274 276
885 2 2 3
886 3 2 9
887 3 2 10
888 4 273 274
889 2 785 786
890 4 103 104
891 4 3 4
892 5 194 195
893 4 194 196
894 4 193 194
895 2 272 273
896 3 272 279
897 3 272 280
898 4 782 783
899 5 783 784
900 4 783 785
901 2 781 782
902 3 781 787
903 3 781 788
904 3 781 789
905 1 271 272
906 2 271 276
907 3 271 277
908 3 271 278
909 5 627 628
910 4 627 629
911 2 629 630
912 4 470 471
913 5 471 472
914 4 471 473
915 3 630 634
916 3 630 635
917 3 630 636
918 4 758 759
919 2 757 758
920 3 757 763
921 3 757 764
922 3 757 765
923 4 173 174
924 2 172 173
925 3 172 179
926 3 172 180
927 5 759 760
928 4 759 761
929 3 474 478
930 3 474 479
931 3 474 480
932 2 473 474
933 1 171 172
934 2 171 176
935 3 171 177
936 3 171 178
937 3 774 778
938 3 774 779
939 3 774 780
940 6 980 981
941 6 981 982
942 6 981 983
943 6 981 984
944 2 773 774

Angles

1 2 713 714 718
2 2 713 714 719
3 2 713 714 720
4 4 718 714 719
5 4 718 714 720
6 4 719 714 720
7 3 374 375 376
8 6 374 375 377
9 3 376 375 377
10 5 373 374 375
11 2 374 373 379
12 2 374 373 380
13 2 374 373 381
14 4 379 373 380
15 4 379 373 381
16 4 380 373 381
17 2 869 870 874
18 2 869 870 875
19 2 869 870 876
20 4 874 870 875
21 4 874 870 876
22 4 875 870 876
23 2 509 510 514
24 2 509 510 515
25 2 509 510 516
26 4 514 510 515
27 4 514 510 516
28 4 515 510 516
29 1 81 86 84
30 2 962 961 967
31 2 962 961 968
32 2 962 961 969
33 4 967 961 968
34 4 967 961 969
35 4 968 961 969
36 3 962 963 964
37 6 962 963 965
38 3 964 963 965
39 5 867 869 870
40 5 507 509 510
41 5 375 377 378
42 3 866 867 868
43 6 866 867 869
44 3 868 867 869
45 2 377 378 382
46 2 377 378 383
47 2 377 378 384
48 4 382 378 383
49 4 382 378 384
50 4 383 378 384
51 5 961 962 963
52 3 243 244 245
53 1 243 244 246
54 3 245 244 246
55 1 242 241 246
56 2 242 241 247
57 2 242 241 248
58 2 246 241 247
59 2 246 241 248
60 4 247 241 248
61 1 241 242 243
62 2 241 242 249
63 2 241 242 250
64 2 243 242 249
65 2 243 242 250
66 4 249 242 250
67 1 242 243 244
68 1 241 246 244
69 7 1000 1001 1002
70 7 1000 1001 1003
71 7 1000 1001 1004
72 7 1002 1001 1003
73 7 1002 1001 1004
74 7 1003 1001 1004
75 5 685 686 687
76 5 687 689 690
77 3 686 687 688
78 6 686 687 689
79 3 688 687 689
80 2 689 690 694
81 2 689 690 695
82 2 689 690 696
83 4 694 690 695
84 4 694 690 696
85 4 695 690 696
86 2 857 858 862
87 2 857 858 863
88 2 857 858 864
89 4 862 858 863
90 4 862 858 864
91 4 863 858 864
92 2 362 361 367
93 2 362 361 368
94 2 362 361 369
95 4 367 361 368
96 4 367 361 369
97 4 368 361 369
98 2 686 685 691
99 2 686 685 692
100 2 686 685 693
101 4 691 685 692
102 4 691 685 693
103 4 692 685 693
104 3 83 84 85
105 1 83 84 86
106 3 85 84 86
107 1 82 81 86
108 2 82 81 87
109 2 82 81 88
110 2 86 81 87
111 2 86 81 88
112 4 87 81 88
113 1 81 82 83
114 2 81 82 89
115 2 81 82 90
116 2 83 82 89
117 2 83 82 90
118 4 89 82 90
119 1 82 83 84
120 5 901 902 903
121 3 902 903 904
122 6 902 903 905
123 3 904 903 905
124 5 903 905 906
125 5 421 422 423
126 2 422 421 427
127 2 422 421 428
128 2 422 421 429
129 4 427 421 428
130 4 427 421 429
131 4 428 421 429
132 3 422 423 424
133 6 422 423 425
134 3 424 423 425
135 2 905 906 910
136 2 905 906 911
137 2 905 906 912
138 4 910 906 911
139 4 910 906 912
140 4 911 906 912
141 2 461 462 466
142 2 461 462 467
143 2 461 462 468
144 4 466 462 467
145 4 466 462 468
146 4 467 462 468
147 3 43 44 45
148 1 43 44 46
149 3 45 44 46
150 1 41 42 43
151 2 41 42 49
152 2 41 42 50
153 2 43 42 49
154 2 43 42 50
155 4 49 42 50
156 1 42 43 44
157 5 423 425 426
158 5 361 362 363
159 5 711 713 714
160 3 710 711 712
161 6 710 711 713
162 3 712 711 713
163 7 1005 1006 1007
164 7 1005 1006 1008
165 7 1005 1006 1009
166 7 1007 1006 1008
167 7 1007 1006 1009
168 7 1008 1006 1009
169 2 833 834 838
170 2 833 834 839
171 2 833 834 840
172 4 838 834 839
173 4 838 834 840
174 4 839 834 840
175 5 709 710 711
176 2 710 709 715
177 2 710 709 716
178 2 710 709 717
179 4 715 709 716
180 4 715 709 717
181 4 716 709 717
182 3 506 507 508
183 6 506 507 509
184 3 508 507 509
185 5 831 833 834
186 2 386 385 391
187 2 386 385 392
188 2 386 385 393
189 4 391 385 392
190 4 391 385 393
191 4 392 385 393
192 5 855 857 858
193 5 505 506 507
194 2 506 505 511
195 2 506 505 512
196 2 506 505 513
197 4 511 505 512
198 4 511 505 513
199 4 512 505 513
200 3 854 855 856
201 6 854 855 857
202 3 856 855 857
203 3 213 214 215
204 1 213 214 216
205 3 215 214 216
206 5 853 854 855
207 1 212 213 214
208 1 211 216 214
209 1 211 212 213
210 2 211 212 219
211 2 211 212 220
212 2 213 212 219
213 2 213 212 220
214 4 219 212 220
215 2 425 426 430
216 2 425 426 431
217 2 425 426 432
218 4 430 426 431
219 4 430 426 432
220 4 431 426 432
221 5 829 830 831
222 3 362 363 364
223 6 362 363 365
224 3 364 363 365
225 5 363 365 366
226 2 365 366 370
227 2 365 366 371
228 2 365 366 372
229 4 370 366 371
230 4 370 366 372
231 4 371 366 372
232 3 830 831 832
233 6 830 831 833
234 3 832 831 833
235 2 830 829 835
236 2 830 829 836
237 2 830 829 837
238 4 835 829 836
239 4 835 829 837
240 4 836 829 837
241 2 965 966 970
242 2 965 966 971
243 2 965 966 972
244 4 970 966 971
245 4 970 966 972
246 4 971 966 972
247 1 282 283 284
248 2 605 606 610
249 2 605 606 611
250 2 605 606 612
251 4 610 606 611
252 4 610 606 612
253 4 611 606 612
254 1 281 282 283
255 2 281 282 289
256 2 281 282 290
257 2 283 282 289
258 2 283 282 290
259 4 289 282 290
260 5 603 605 606
261 3 602 603 604
262 6 602 603 605
263 3 604 603 605
264 2 614 613 619
265 2 614 613 620
266 2 614 613 621
267 4 619 613 620
268 4 619 613 621
269 4 620 613 621
270 5 963 965 966
271 2 350 349 355
272 2 350 349 356
273 2 350 349 357
274 4 355 349 356
275 4 355 349 357
276 4 356 349 357
277 5 349 350 351
278 1 162 163 164
279 3 163 164 165
280 1 163 164 166
281 3 165 164 166
282 1 161 162 163
283 2 161 162 169
284 2 161 162 170
285 2 163 162 169
286 2 163 162 170
287 4 169 162 170
288 3 113 114 115
289 1 113 114 116
290 3 115 114 116
291 3 350 351 352
292 6 350 351 353
293 3 352 351 353
294 1 112 113 114
295 1 111 112 113
296 2 111 112 119
297 2 111 112 120
298 2 113 112 119
299 2 113 112 120
300 4 119 112 120
301 5 351 353 354
302 3 283 284 285
303 1 283 284 286
304 3 285 284 286
305 5 601 602 603
306 1 281 286 284
307 2 554 553 559
308 2 554 553 560
309 2 554 553 561
310 4 559 553 560
311 4 559 553 561
312 4 560 553 561
313 5 553 554 555
314 2 602 601 607
315 2 602 601 608
316 2 602 601 609
317 4 607 601 608
318 4 607 601 609
319 4 608 601 609
320 1 282 281 286
321 2 282 281 287
322 2 282 281 288
323 2 286 281 287
324 2 286 281 288
325 4 287 281 288
326 7 985 986 987
327 7 985 986 988
328 7 985 986 989
329 7 987 986 988
330 7 987 986 989
331 7 988 986 989
332 3 734 735 736
333 6 734 735 737
334 3 736 735 737
335 3 203 204 205
336 1 203 204 206
337 3 205 204 206
338 1 202 203 204
339 1 201 206 204
340 1 202 201 206
341 2 202 201 207
342 2 202 201 208
343 2 206 201 207
344 2 206 201 208
345 4 207 201 208
346 1 201 202 203
347 2 201 202 209
348 2 201 202 210
349 2 203 202 209
350 2 203 202 210
351 4 209 202 210
352 1 111 116 114
353 5 313 314 315
354 1 112 111 116
355 2 112 111 117
356 2 112 111 118
357 2 116 111 117
358 2 116 111 118
359 4 117 111 118
360 5 733 734 735
361 2 734 733 739
362 2 734 733 740
363 2 734 733 741
364 4 739 733 740
365 4 739 733 741
366 4 740 733 741
367 2 314 313 319
368 2 314 313 320
369 2 314 313 321
370 4 319 313 320
371 4 319 313 321
372 4 320 313 321
373 1 131 132 133
374 2 131 132 139
375 2 131 132 140
376 2 133 132 139
377 2 133 132 140
378 4 139 132 140
379 2 437 438 442
380 2 437 438 443
381 2 437 438 444
382 4 442 438 443
383 4 442 438 444
384 4 443 438 444
385 5 435 437 438
386 3 434 435 436
387 6 434 435 437
388 3 436 435 437
389 5 445 446 447
390 1 221 226 224
391 3 446 447 448
392 6 446 447 449
393 3 448 447 449
394 5 447 449 450
395 1 222 221 226
396 2 222 221 227
397 2 222 221 228
398 2 226 221 227
399 2 226 221 228
400 4 227 221 228
401 2 446 445 451
402 2 446 445 452
403 2 446 445 453
404 4 451 445 452
405 4 451 445 453
406 4 452 445 453
407 5 433 434 435
408 1 162 161 166
409 2 162 161 167
410 2 162 161 168
411 2 166 161 167
412 2 166 161 168
413 4 167 161 168
414 1 161 166 164
415 3 926 927 928
416 6 926 927 929
417 3 928 927 929
418 2 926 925 931
419 2 926 925 932
420 2 926 925 933
421 4 931 925 932
422 4 931 925 933
423 4 932 925 933
424 5 925 926 927
425 5 927 929 930
426 2 449 450 454
427 2 449 450 455
428 2 449 450 456
429 4 454 450 455
430 4 454 450 456
431 4 455 450 456
432 2 482 481 487
433 2 482 481 488
434 2 482 481 489
435 4 487 481 488
436 4 487 481 489
437 4 488 481 489
438 3 554 555 556
439 6 554 555 557
440 3 556 555 557
441 5 555 557 558
442 2 557 558 562
443 2 557 558 563
444 2 557 558 564
445 4 562 558 563
446 4 562 558 564
447 4 563 558 564
448 2 566 565 571
449 2 566 565 572
450 2 566 565 573
451 4 571 565 572
452 4 571 565 573
453 4 572 565 573
454 5 565 566 567
455 1 232 231 236
456 2 232 231 237
457 2 232 231 238
458 2 236 231 237
459 2 236 231 238
460 4 237 231 238
461 5 481 482 483
462 3 482 483 484
463 6 482 483 485
464 3 484 483 485
465 2 326 325 331
466 2 326 325 332
467 2 326 325 333
468 4 331 325 332
469 4 331 325 333
470 4 332 325 333
471 1 251 252 253
472 2 251 252 259
473 2 251 252 260
474 2 253 252 259
475 2 253 252 260
476 4 259 252 260
477 1 252 251 256
478 2 252 251 257
479 2 252 251 258
480 2 256 251 257
481 2 256 251 258
482 4 257 251 258
483 1 252 253 254
484 3 253 254 255
485 1 253 254 256
486 3 255 254 256
487 1 251 256 254
488 1 152 151 156
489 2 152 151 157
490 2 152 151 158
491 2 156 151 157
492 2 156 151 158
493 4 157 151 158
494 1 151 152 153
495 2 151 152 159
496 2 151 152 160
497 2 153 152 159
498 2 153 152 160
499 4 159 152 160
500 5 315 317 318
501 1 151 156 154
502 3 314 315 316
503 6 314 315 317
504 3 316 315 317
505 2 317 318 322
506 2 317 318 323
507 2 317 318 324
508 4 322 318 323
509 4 322 318 324
510 4 323 318 324
511 3 223 224 225
512 1 223 224 226
513 3 225 224 226
514 1 222 223 224
515 1 52 51 56
516 2 52 51 57
517 2 52 51 58
518 2 56 51 57
519 2 56 51 58
520 4 57 51 58
521 1 51 52 53
522 2 51 52 59
523 2 51 52 60
524 2 53 52 59
525 2 53 52 60
526 4 59 52 60
527 1 52 53 54
528 3 53 54 55
529 1 53 54 56
530 3 55 54 56
531 1 51 56 54
532 1 31 32 33
533 2 31 32 39
534 2 31 32 40
535 2 33 32 39
536 2 33 32 40
537 4 39 32 40
538 1 32 33 34
539 3 33 34 35
540 1 33 34 36
541 3 35 34 36
542 1 221 222 223
543 2 221 222 229
544 2 221 222 230
545 2 223 222 229
546 2 223 222 230
547 4 229 222 230
548 2 434 433 439
549 2 434 433 440
550 2 434 433 441
551 4 439 433 440
552 4 439 433 441
553 4 440 433 441
554 1 62 61 66
555 2 62 61 67
556 2 62 61 68
557 2 66 61 67
558 2 66 61 68
559 4 67 61 68
560 2 518 517 523
561 2 518 517 524
562 2 518 517 525
563 4 523 517 524
564 4 523 517 525
565 4 524 517 525
566 2 914 913 919
567 2 914 913 920
568 2 914 913 921
569 4 919 913 920
570 4 919 913 921
571 4 920 913 921
572 5 517 518 519
573 3 518 519 520
574 6 518 519 521
575 3 520 519 521
576 5 519 521 522
577 2 521 522 526
578 2 521 522 527
579 2 521 522 528
580 4 526 522 527
581 4 526 522 528
582 4 527 522 528
583 1 2 1 6
584 2 2 1 7
585 2 2 1 8
586 2 6 1 7
587 2 6 1 8
588 4 7 1 8
589 1 61 62 63
590 2 61 62 69
591 2 61 62 70
592 2 63 62 69
593 2 63 62 70
594 4 69 62 70
595 1 1 6 4
596 1 61 66 64
597 1 62 63 64
598 3 3 4 5
599 1 3 4 6
600 3 5 4 6
601 3 63 64 65
602 1 63 64 66
603 3 65 64 66
604 2 545 546 550
605 2 545 546 551
606 2 545 546 552
607 4 550 546 551
608 4 550 546 552
609 4 551 546 552
610 1 132 131 136
611 2 132 131 137
612 2 132 131 138
613 2 136 131 137
614 2 136 131 138
615 4 137 131 138
616 2 485 486 490
617 2 485 486 491
618 2 485 486 492
619 4 490 486 491
620 4 490 486 492
621 4 491 486 492
622 1 231 236 234
623 1 32 31 36
624 2 32 31 37
625 2 32 31 38
626 2 36 31 37
627 2 36 31 38
628 4 37 31 38
629 1 132 133 134
630 5 913 914 915
631 5 483 485 486
632 1 31 36 34
633 1 131 136 134
634 5 915 917 918
635 3 914 915 916
636 6 914 915 917
637 3 916 915 917
638 3 133 134 135
639 1 133 134 136
640 3 135 134 136
641 2 917 918 922
642 2 917 918 923
643 2 917 918 924
644 4 922 918 923
645 4 922 918 924
646 4 923 918 924
647 3 566 567 568
648 6 566 567 569
649 3 568 567 569
650 5 567 569 570
651 2 569 570 574
652 2 569 570 575
653 2 569 570 576
654 4 574 570 575
655 4 574 570 576
656 4 575 570 576
657 3 233 234 235
658 1 233 234 236
659 3 235 234 236
660 1 231 232 233
661 2 231 232 239
662 2 231 232 240
663 2 233 232 239
664 2 233 232 240
665 4 239 232 240
666 1 232 233 234
667 2 389 390 394
668 2 389 390 395
669 2 389 390 396
670 4 394 390 395
671 4 394 390 396
672 4 395 390 396
673 2 818 817 823
674 2 818 817 824
675 2 818 817 825
676 4 823 817 824
677 4 823 817 825
678 4 824 817 825
679 5 817 818 819
680 5 385 386 387
681 3 326 327 328
682 6 326 327 329
683 3 328 327 329
684 5 387 389 390
685 3 386 387 388
686 6 386 387 389
687 3 388 387 389
688 3 818 819 820
689 6 818 819 821
690 3 820 819 821
691 2 821 822 826
692 2 821 822 827
693 2 821 822 828
694 4 826 822 827
695 4 826 822 828
696 4 827 822 828
697 5 541 542 543
698 3 542 543 544
699 6 542 543 545
700 3 544 543 545
701 5 543 545 546
702 2 725 726 730
703 2 725 726 731
704 2 725 726 732
705 4 730 726 731
706 4 730 726 732
707 4 731 726 732
708 5 879 881 882
709 2 881 882 886
710 2 881 882 887
711 2 881 882 888
712 4 886 882 887
713 4 886 882 888
714 4 887 882 888
715 3 878 879 880
716 6 878 879 881
717 3 880 879 881
718 1 212 211 216
719 2 212 211 217
720 2 212 211 218
721 2 216 211 217
722 2 216 211 218
723 4 217 211 218
724 5 877 878 879
725 2 878 877 883
726 2 878 877 884
727 2 878 877 885
728 4 883 877 884
729 4 883 877 885
730 4 884 877 885
731 5 819 821 822
732 5 699 701 702
733 2 701 702 706
734 2 701 702 707
735 2 701 702 708
736 4 706 702 707
737 4 706 702 708
738 4 707 702 708
739 1 92 91 96
740 2 92 91 97
741 2 92 91 98
742 2 96 91 97
743 2 96 91 98
744 4 97 91 98
745 2 902 901 907
746 2 902 901 908
747 2 902 901 909
748 4 907 901 908
749 4 907 901 909
750 4 908 901 909
751 1 292 293 294
752 1 291 292 293
753 2 291 292 299
754 2 291 292 300
755 2 293 292 299
756 2 293 292 300
757 4 299 292 300
758 3 293 294 295
759 1 293 294 296
760 3 295 294 296
761 2 398 397 403
762 2 398 397 404
763 2 398 397 405
764 4 403 397 404
765 4 403 397 405
766 4 404 397 405
767 2 578 577 583
768 2 578 577 584
769 2 578 577 585
770 4 583 577 584
771 4 583 577 585
772 4 584 577 585
773 2 854 853 859
774 2 854 853 860
775 2 854 853 861
776 4 859 853 860
777 4 859 853 861
778 4 860 853 861
779 5 397 398 399
780 3 398 399 400
781 6 398 399 401
782 3 400 399 401
783 3 746 747 748
784 6 746 747 749
785 3 748 747 749
786 5 745 746 747
787 2 722 721 727
788 2 722 721 728
789 2 722 721 729
790 4 727 721 728
791 4 727 721 729
792 4 728 721 729
793 1 292 291 296
794 2 292 291 297
795 2 292 291 298
796 2 296 291 297
797 2 296 291 298
798 4 297 291 298
799 1 291 296 294
800 5 675 677 678
801 3 674 675 676
802 6 674 675 677
803 3 676 675 677
804 5 673 674 675
805 2 677 678 682
806 2 677 678 683
807 2 677 678 684
808 4 682 678 683
809 4 682 678 684
810 4 683 678 684
811 2 674 673 679
812 2 674 673 680
813 2 674 673 681
814 4 679 673 680
815 4 679 673 681
816 4 680 673 681
817 5 409 410 411
818 3 410 411 412
819 6 410 411 413
820 3 412 411 413
821 2 410 409 415
822 2 410 409 416
823 2 410 409 417
824 4 415 409 416
825 4 415 409 417
826 4 416 409 417
827 1 91 92 93
828 2 91 92 99
829 2 91 92 100
830 2 93 92 99
831 2 93 92 100
832 4 99 92 100
833 5 411 413 414
834 2 413 414 418
835 2 413 414 419
836 2 413 414 420
837 4 418 414 419
838 4 418 414 420
839 4 419 414 420
840 1 91 96 94
841 1 92 93 94
842 5 865 866 867
843 1 11 12 13
844 2 11 12 19
845 2 11 12 20
846 2 13 12 19
847 2 13 12 20
848 4 19 12 20
849 1 12 11 16
850 2 12 11 17
851 2 12 11 18
852 2 16 11 17
853 2 16 11 18
854 4 17 11 18
855 1 11 16 14
856 1 12 13 14
857 3 13 14 15
858 1 13 14 16
859 3 15 14 16
860 1 22 21 26
861 2 22 21 27
862 2 22 21 28
863 2 26 21 27
864 2 26 21 28
865 4 27 21 28
866 1 21 22 23
867 2 21 22 29
868 2 21 22 30
869 2 23 22 29
870 2 23 22 30
871 4 29 22 30
872 1 21 26 24
873 3 93 94 95
874 1 93 94 96
875 3 95 94 96
876 3 23 24 25
877 1 23 24 26
878 3 25 24 26
879 1 22 23 24
880 2 761 762 766
881 2 761 762 767
882 2 761 762 768
883 4 766 762 767
884 4 766 762 768
885 4 767 762 768
886 2 401 402 406
887 2 401 402 407
888 2 401 402 408
889 4 406 402 407
890 4 406 402 408
891 4 407 402 408
892 5 577 578 579
893 3 578 579 580
894 6 578 579 581
895 3 580 579 581
896 2 809 810 814
897 2 809 810 815
898 2 809 810 816
899 4 814 810 815
900 4 814 810 816
901 4 815 810 816
902 5 399 401 402
903 3 806 807 808
904 6 806 807 809
905 3 808 807 809
906 5 807 809 810
907 5 805 806 807
908 2 806 805 811
909 2 806 805 812
910 2 806 805 813
911 4 811 805 812
912 4 811 805 813
913 4 812 805 813
914 5 579 581 582
915 2 785 786 790
916 2 785 786 791
917 2 785 786 792
918 4 790 786 791
919 4 790 786 792
920 4 791 786 792
921 2 749 750 754
922 2 749 750 755
923 2 749 750 756
924 4 754 750 755
925 4 754 750 756
926 4 755 750 756
927 5 747 749 750
928 5 459 461 462
929 1 42 41 46
930 2 42 41 47
931 2 42 41 48
932 2 46 41 47
933 2 46 41 48
934 4 47 41 48
935 2 458 457 463
936 2 458 457 464
937 2 458 457 465
938 4 463 457 464
939 4 463 457 465
940 4 464 457 465
941 2 590 589 595
942 2 590 589 596
943 2 590 589 597
944 4 595 589 596
945 4 595 589 597
946 4 596 589 597
947 3 458 459 460
948 6 458 459 461
949 3 460 459 461
950 5 457 458 459
951 5 589 590 591
952 3 590 591 592
953 6 590 591 593
954 3 592 591 593
955 5 591 593 594
956 2 593 594 598
957 2 593 594 599
958 2 593 594 600
959 4 598 594 599
960 4 598 594 600
961 4 599 594 600
962 3 173 174 175
963 1 173 174 176
964 3 175 174 176
965 1 171 176 174
966 2 665 666 670
967 2 665 666 671
968 2 665 666 672
969 4 670 666 671
970 4 670 666 672
971 4 671 666 672
972 5 613 614 615
973 5 735 737 738
974 2 737 738 742
975 2 737 738 743
976 2 737 738 744
977 4 742 738 743
978 4 742 738 744
979 4 743 738 744
980 1 181 186 184
981 1 182 181 186
982 2 182 181 187
983 2 182 181 188
984 2 186 181 187
985 2 186 181 188
986 4 187 181 188
987 1 181 182 183
988 2 181 182 189
989 2 181 182 190
990 2 183 182 189
991 2 183 182 190
992 4 189 182 190
993 3 183 184 185
994 1 183 184 186
995 3 185 184 186
996 1 182 183 184
997 7 995 996 997
998 7 995 996 998
999 7 995 996 999
1000 7 997 996 998
1001 7 997 996 999
1002 7 998 996 999
1003 2 746 745 751
1004 2 746 745 752
1005 2 746 745 753
1006 4 751 745 752
1007 4 751 745 753
1008 4 752 745 753
1009 3 73 74 75
1010 1 73 74 76
1011 3 75 74 76
1012 1 72 71 76
1013 2 72 71 77
1014 2 72 71 78
1015 2 76 71 77
1016 2 76 71 78
1017 4 77 71 78
1018 1 71 72 73
1019 2 71 72 79
1020 2 71 72 80
1021 2 73 72 79
1022 2 73 72 80
1023 4 79 72 80
1024 1 71 76 74
1025 1 72 73 74
1026 5 937 938 939
1027 3 938 939 940
1028 6 938 939 941
1029 3 940 939 941
1030 3 263 264 265
1031 1 263 264 266
1032 3 265 264 266
1033 2 938 937 943
1034 2 938 937 944
1035 2 938 937 945
1036 4 943 937 944
1037 4 943 937 945
1038 4 944 937 945
1039 1 261 266 264
1040 1 262 263 264
1041 1 261 262 263
1042 2 261 262 269
1043 2 261 262 270
1044 2 263 262 269
1045 2 263 262 270
1046 4 269 262 270
1047 1 262 261 266
1048 2 262 261 267
1049 2 262 261 268
1050 2 266 261 267
1051 2 266 261 268
1052 4 267 261 268
1053 2 650 649 655
1054 2 650 649 656
1055 2 650 649 657
1056 4 655 649 656
1057 4 655 649 657
1058 4 656 649 657
1059 2 581 582 586
1060 2 581 582 587
1061 2 581 582 588
1062 4 586 582 587
1063 4 586 582 588
1064 4 587 582 588
1065 3 614 615 616
1066 6 614 615 617
1067 3 616 615 617
1068 2 353 354 358
1069 2 353 354 359
1070 2 353 354 360
1071 4 358 354 359
1072 4 358 354 360
1073 4 359 354 360
1074 1 121 122 123
1075 2 121 122 129
1076 2 121 122 130
1077 2 123 122 129
1078 2 123 122 130
1079 4 129 122 130
1080 1 122 123 124
1081 5 615 617 618
1082 2 617 618 622
1083 2 617 618 623
1084 2 617 618 624
1085 4 622 618 623
1086 4 622 618 624
1087 4 623 618 624
1088 3 123 124 125
1089 1 123 124 126
1090 3 125 124 126
1091 5 649 650 651
1092 5 939 941 942
1093 2 941 942 946
1094 2 941 942 947
1095 2 941 942 948
1096 4 946 942 947
1097 4 946 942 948
1098 4 947 942 948
1099 2 662 661 667
1100 2 662 661 668
1101 2 662 661 669
1102 4 667 661 668
1103 4 667 661 669
1104 4 668 661 669
1105 5 661 662 663
1106 3 662 663 664
1107 6 662 663 665
1108 3 664 663 665
1109 2 950 949 955
1110 2 950 949 956
1111 2 950 949 957
1112 4 955 949 956
1113 4 955 949 957
1114 4 956 949 957
1115 5 651 653 654
1116 5 495 497 498
1117 5 663 665 666
1118 3 650 651 652
1119 6 650 651 653
1120 3 652 651 653
1121 2 497 498 502
1122 2 497 498 503
1123 2 497 498 504
1124 4 502 498 503
1125 4 502 498 504
1126 4 503 498 504
1127 2 653 654 658
1128 2 653 654 659
1129 2 653 654 660
1130 4 658 654 659
1131 4 658 654 660
1132 4 659 654 660
1133 2 866 865 871
1134 2 866 865 872
1135 2 866 865 873
1136 4 871 865 872
1137 4 871 865 873
1138 4 872 865 873
1139 1 41 46 44
1140 1 191 192 193
1141 2 191 192 199
1142 2 191 192 200
1143 2 193 192 199
1144 2 193 192 200
1145 4 199 192 200
1146 1 192 191 196
1147 2 192 191 197
1148 2 192 191 198
1149 2 196 191 197
1150 2 196 191 198
1151 4 197 191 198
1152 5 337 338 339
1153 3 338 339 340
1154 6 338 339 341
1155 3 340 339 341
1156 5 339 341 342
1157 5 325 326 327
1158 5 951 953 954
1159 1 152 153 154
1160 5 949 950 951
1161 3 143 144 145
1162 1 143 144 146
1163 3 145 144 146
1164 1 141 142 143
1165 2 141 142 149
1166 2 141 142 150
1167 2 143 142 149
1168 2 143 142 150
1169 4 149 142 150
1170 1 142 141 146
1171 2 142 141 147
1172 2 142 141 148
1173 2 146 141 147
1174 2 146 141 148
1175 4 147 141 148
1176 1 142 143 144
1177 1 141 146 144
1178 3 153 154 155
1179 1 153 154 156
1180 3 155 154 156
1181 5 493 494 495
1182 2 494 493 499
1183 2 494 493 500
1184 2 494 493 501
1185 4 499 493 500
1186 4 499 493 501
1187 4 500 493 501
1188 2 338 337 343
1189 2 338 337 344
1190 2 338 337 345
1191 4 343 337 344
1192 4 343 337 345
1193 4 344 337 345
1194 7 990 991 992
1195 7 990 991 993
1196 7 990 991 994
1197 7 992 991 993
1198 7 992 991 994
1199 7 993 991 994
1200 2 929 930 934
1201 2 929 930 935
1202 2 929 930 936
1203 4 934 930 935
1204 4 934 930 936
1205 4 935 930 936
1206 1 122 121 126
1207 2 122 121 127
1208 2 122 121 128
1209 2 126 121 127
1210 2 126 121 128
1211 4 127 121 128
1212 2 893 894 898
1213 2 893 894 899
1214 2 893 894 900
1215 4 898 894 899
1216 4 898 894 900
1217 4 899 894 900
1218 5 891 893 894
1219 3 890 891 892
1220 6 890 891 893
1221 3 892 891 893
1222 1 121 126 124
1223 5 889 890 891
1224 2 842 841 847
1225 2 842 841 848
1226 2 842 841 849
1227 4 847 841 848
1228 4 847 841 849
1229 4 848 841 849
1230 3 950 951 952
1231 6 950 951 953
1232 3 952 951 953
1233 2 890 889 895
1234 2 890 889 896
1235 2 890 889 897
1236 4 895 889 896
1237 4 895 889 897
1238 4 896 889 897
1239 2 626 625 631
1240 2 626 625 632
1241 2 626 625 633
1242 4 631 625 632
1243 4 631 625 633
1244 4 632 625 633
1245 5 625 626 627
1246 3 494 495 496
1247 6 494 495 497
1248 3 496 495 497
1249 5 841 842 843
1250 3 842 843 844
1251 6 842 843 845
1252 3 844 843 845
1253 5 843 845 846
1254 2 845 846 850
1255 2 845 846 851
1256 2 845 846 852
1257 4 850 846 851
1258 4 850 846 852
1259 4 851 846 852
1260 2 305 306 310
1261 2 305 306 311
1262 2 305 306 312
1263 4 310 306 311
1264 4 310 306 312
1265 4 311 306 312
1266 2 770 769 775
1267 2 770 769 776
1268 2 770 769 777
1269 4 775 769 776
1270 4 775 769 777
1271 4 776 769 777
1272 2 794 793 799
1273 2 794 793 800
1274 2 794 793 801
1275 4 799 793 800
1276 4 799 793 801
1277 4 800 793 801
1278 2 341 342 346
1279 2 341 342 347
1280 2 341 342 348
1281 4 346 342 347
1282 4 346 342 348
1283 4 347 342 348
1284 5 327 329 330
1285 2 329 330 334
1286 2 329 330 335
1287 2 329 330 336
1288 4 334 330 335
1289 4 334 330 336
1290 4 335 330 336
1291 2 641 642 646
1292 2 641 642 647
1293 2 641 642 648
1294 4 646 642 647
1295 4 646 642 648
1296 4 647 642 648
1297 7 1010 1011 1012
1298 7 1010 1011 1013
1299 7 1010 1011 1014
1300 7 1012 1011 1013
1301 7 1012 1011 1014
1302 7 1013 1011 1014
1303 5 793 794 795
1304 3 794 795 796
1305 6 794 795 797
1306 3 796 795 797
1307 2 953 954 958
1308 2 953 954 959
1309 2 953 954 960
1310 4 958 954 959
1311 4 958 954 960
1312 4 959 954 960
1313 2 542 541 547
1314 2 542 541 548
1315 2 542 541 549
1316 4 547 541 548
1317 4 547 541 549
1318 4 548 541 549
1319 5 721 722 723
1320 5 723 725 726
1321 3 722 723 724
1322 6 722 723 725
1323 3 724 723 725
1324 3 530 531 532
1325 6 530 531 533
1326 3 532 531 533
1327 2 530 529 535
1328 2 530 529 536
1329 2 530 529 537
1330 4 535 529 536
1331 4 535 529 537
1332 4 536 529 537
1333 5 529 530 531
1334 2 533 534 538
1335 2 533 534 539
1336 2 533 534 540
1337 4 538 534 539
1338 4 538 534 540
1339 4 539 534 540
1340 5 531 533 534
1341 5 795 797 798
1342 2 698 697 703
1343 2 698 697 704
1344 2 698 697 705
1345 4 703 697 704
1346 4 703 697 705
1347 4 704 697 705
1348 5 697 698 699
1349 3 698 699 700
1350 6 698 699 701
1351 3 700 699 701
1352 2 797 798 802
1353 2 797 798 803
1354 2 797 798 804
1355 4 802 798 803
1356 4 802 798 804
1357 4 803 798 804
1358 5 639 641 642
1359 2 302 301 307
1360 2 302 301 308
1361 2 302 301 309
1362 4 307 301 308
1363 4 307 301 309
1364 4 308 301 309
1365 5 303 305 306
1366 5 301 302 303
1367 2 638 637 643
1368 2 638 637 644
1369 2 638 637 645
1370 4 643 637 644
1371 4 643 637 645
1372 4 644 637 645
1373 3 302 303 304
1374 6 302 303 305
1375 3 304 303 305
1376 5 637 638 639
1377 3 638 639 640
1378 6 638 639 641
1379 3 640 639 641
1380 5 769 770 771
1381 1 102 101 106
1382 2 102 101 107
1383 2 102 101 108
1384 2 106 101 107
1385 2 106 101 108
1386 4 107 101 108
1387 3 770 771 772
1388 6 770 771 773
1389 3 772 771 773
1390 5 759 761 762
1391 1 101 106 104
1392 1 101 102 103
1393 2 101 102 109
1394 2 101 102 110
1395 2 103 102 109
1396 2 103 102 110
1397 4 109 102 110
1398 2 470 469 475
1399 2 470 469 476
1400 2 470 469 477
1401 4 475 469 476
1402 4 475 469 477
1403 4 476 469 477
1404 3 103 104 105
1405 1 103 104 106
1406 3 105 104 106
1407 3 273 274 275
1408 1 273 274 276
1409 3 275 274 276
1410 1 271 276 274
1411 1 1 2 3
1412 2 1 2 9
1413 2 1 2 10
1414 2 3 2 9
1415 2 3 2 10
1416 4 9 2 10
1417 1 272 273 274
1418 5 783 785 786
1419 1 102 103 104
1420 1 191 196 194
1421 1 2 3 4
1422 3 193 194 195
1423 1 193 194 196
1424 3 195 194 196
1425 1 192 193 194
1426 1 271 272 273
1427 2 271 272 279
1428 2 271 272 280
1429 2 273 272 279
1430 2 273 272 280
1431 4 279 272 280
1432 5 781 782 783
1433 3 782 783 784
1434 6 782 783 785
1435 3 784 783 785
1436 2 782 781 787
1437 2 782 781 788
1438 2 782 781 789
1439 4 787 781 788
1440 4 787 781 789
1441 4 788 781 789
1442 1 272 271 276
1443 2 272 271 277
1444 2 272 271 278
1445 2 276 271 277
1446 2 276 271 278
1447 4 277 271 278
1448 3 626 627 628
1449 6 626 627 629
1450 3 628 627 629
1451 5 627 629 630
1452 5 469 470 471
1453 3 470 471 472
1454 6 470 471 473
1455 3 472 471 473
1456 2 629 630 634
1457 2 629 630 635
1458 2 629 630 636
1459 4 634 630 635
1460 4 634 630 636
1461 4 635 630 636
1462 5 757 758 759
1463 2 758 757 763
1464 2 758 757 764
1465 2 758 757 765
1466 4 763 757 764
1467 4 763 757 765
1468 4 764 757 765
1469 1 172 173 174
1470 1 171 172 173
1471 2 171 172 179
1472 2 171 172 180
1473 2 173 172 179
1474 2 173 172 180
1475 4 179 172 180
1476 3 758 759 760
1477 6 758 759 761
1478 3 760 759 761
1479 2 473 474 478
1480 2 473 474 479
1481 2 473 474 480
1482 4 478 474 479
1483 4 478 474 480
1484 4 479 474 480
1485 5 471 473 474
1486 1 172 171 176
1487 2 172 171 177
1488 2 172 171 178
1489 2 176 171 177
1490 2 176 171 178
1491 4 177 171 178
1492 2 773 774 778
1493 2 773 774 779
1494 2 773 774 780
1495 4 778 774 779
1496 4 778 774 780
1497 4 779 774 780
1498 7 980 981 982
1499 7 980 981 983
1500 7 980 981 984
1501 7 982 981 983
1502 7 982 981 984
1503 7 983 981 984
1504 5 771 773 774

Dihedrals

1 12 374 375 377 378
2 10 376 375 377 378
3 11 376 375 377 378
4 10 373 374 375 376
5 11 373 374 375 376
6 12 373 374 375 377
7 8 375 374 373 379
8 8 375 374 373 380
9 8 375 374 373 381
10 3 81 86 84 83
11 3 81 86 84 85
12 8 84 86 81 87
13 8 84 86 81 88
14 12 962 963 965 966
15 10 964 963 965 966
16 11 964 963 965 966
17 8 867 869 870 874
18 8 867 869 870 875
19 8 867 869 870 876
20 8 507 509 510 514
21 8 507 509 510 515
22 8 507 509 510 516
23 8 375 377 378 382
24 8 375 377 378 383
25 8 375 377 378 384
26 12 866 867 869 870
27 10 868 867 869 870
28 11 868 867 869 870
29 10 961 962 963 964
30 11 961 962 963 964
31 12 961 962 963 965
32 8 963 962 961 967
33 8 963 962 961 968
34 8 963 962 961 969
35 1 242 241 246 244
36 2 242 241 246 244
37 6 246 241 242 249
38 7 246 241 242 249
39 6 246 241 242 250
40 7 246 241 242 250
41 9 247 241 242 249
42 9 247 241 242 250
43 9 248 241 242 249
44 9 248 241 242 250
45 1 241 242 243 244
46 2 241 242 243 244
47 4 243 242 241 246
48 5 243 242 241 246
49 6 243 242 241 247
50 7 243 242 241 247
51 6 243 242 241 248
52 7 243 242 241 248
53 3 242 243 244 245
54 3 242 243 244 246
55 8 244 243 242 249
56 8 244 243 242 250
57 3 241 246 244 243
58 3 241 246 244 245
59 8 244 246 241 247
60 8 244 246 241 248
61 10 685 686 687 688
62 11 685 686 687 688
63 12 685 686 687 689
64 8 687 686 685 691
65 8 687 686 685 692
66 8 687 686 685 693
67 8 687 689 690 694
68 8 687 689 690 695
69 8 687 689 690 696
70 12 686 687 689 690
71 10 688 687 689 690
72 11 688 687 689 690
73 1 82 81 86 84
74 2 82 81 86 84
75 6 86 81 82 89
76 7 86 81 82 89
77 6 86 81 82 90
78 7 86 81 82 90
79 9 87 81 82 89
80 9 87 81 82 90
81 9 88 81 82 89
82 9 88 81 82 90
83 1 81 82 83 84
84 2 81 82 83 84
85 4 83 82 81 86
86 5 83 82 81 86
87 6 83 82 81 87
88 7 83 82 81 87
89 6 83 82 81 88
90 7 83 82 81 88
91 3 82 83 84 85
92 3 82 83 84 86
93 8 84 83 82 89
94 8 84 83 82 90
95 10 901 902 903 904
96 11 901 902 903 904
97 12 901 902 903 905
98 8 903 902 901 907
99 8 903 902 901 908
100 8 903 902 901 909
101 12 902 903 905 906
102 10 904 903 905 906
103 11 904 903 905 906
104 8 903 905 906 910
105 8 903 905 906 911
106 8 903 905 906 912
107 10 421 422 423 424
108 11 421 422 423 424
109 12 421 422 423 425
110 8 423 422 421 427
111 8 423 422 421 428
112 8 423 422 421 429
113 12 422 423 425 426
114 10 424 423 425 426
115 11 424 423 425 426
116 1 41 42 43 44
117 2 41 42 43 44
118 4 43 42 41 46
119 5 43 42 41 46
120 6 43 42 41 47
121 7 43 42 41 47
122 6 43 42 41 48
123 7 43 42 41 48
124 3 42 43 44 45
125 3 42 43 44 46
126 8 44 43 42 49
127 8 44 43 42 50
128 8 423 425 426 430
129 8 423 425 426 431
130 8 423 425 426 432
131 10 361 362 363 364
132 11 361 362 363 364
133 12 361 362 363 365
134 8 363 362 361 367
135 8 363 362 361 368
136 8 363 362 361 369
137 8 711 713 714 718
138 8 711 713 714 719
139 8 711 713 714 720
140 12 710 711 713 714
141 10 712 711 713 714
142 11 712 711 713 714
143 10 709 710 711 712
144 11 709 710 711 712
145 12 709 710 711 713
146 8 711 710 709 715
147 8 711 710 709 716
148 8 711 710 709 717
149 12 506 507 509 510
150 10 508 507 509 510
151 11 508 507 509 510
152 8 831 833 834 838
153 8 831 833 834 839
154 8 831 833 834 840
155 8 855 857 858 862
156 8 855 857 858 863
157 8 855 857 858 864
158 10 505 506 507 508
159 11 505 506 507 508
160 12 505 506 507 509
161 8 507 506 505 511
162 8 507 506 505 512
163 8 507 506 505 513
164 12 854 855 857 858
165 10 856 855 857 858
166 11 856 855 857 858
167 10 853 854 855 856
168 11 853 854 855 856
169 12 853 854 855 857
170 8 855 854 853 859
171 8 855 854 853 860
172 8 855 854 853 861
173 3 212 213 214 215
174 3 212 213 214 216
175 8 214 213 212 219
176 8 214 213 212 220
177 3 211 216 214 213
178 3 211 216 214 215
179 8 214 216 211 217
180 8 214 216 211 218
181 1 211 212 213 214
182 2 211 212 213 214
183 4 213 212 211 216
184 5 213 212 211 216
185 6 213 212 211 217
186 7 213 212 211 217
187 6 213 212 211 218
188 7 213 212 211 218
189 10 829 830 831 832
190 11 829 830 831 832
191 12 829 830 831 833
192 8 831 830 829 835
193 8 831 830 829 836
194 8 831 830 829 837
195 12 362 363 365 366
196 10 364 363 365 366
197 11 364 363 365 366
198 8 363 365 366 370
199 8 363 365 366 371
200 8 363 365 366 372
201 12 830 831 833 834
202 10 832 831 833 834
203 11 832 831 833 834
204 3 282 283 284 285
205 3 282 283 284 286
206 8 284 283 282 289
207 8 284 283 282 290
208 1 281 282 283 284
209 2 281 282 283 284
210 4 283 282 281 286
211 5 283 282 281 286
212 6 283 282 281 287
213 7 283 282 281 287
214 6 283 282 281 288
215 7 283 282 281 288
216 8 603 605 606 610
217 8 603 605 606 611
218 8 603 605 606 612
219 12 602 603 605 606
220 10 604 603 605 606
221 11 604 603 605 606
222 8 963 965 966 970
223 8 963 965 966 971
224 8 963 965 966 972
225 10 349 350 351 352
226 11 349 350 351 352
227 12 349 350 351 353
228 8 351 350 349 355
229 8 351 350 349 356
230 8 351 350 349 357
231 3 162 163 164 165
232 3 162 163 164 166
233 8 164 163 162 169
234 8 164 163 162 170
235 1 161 162 163 164
236 2 161 162 163 164
237 4 163 162 161 166
238 5 163 162 161 166
239 6 163 162 161 167
240 7 163 162 161 167
241 6 163 162 161 168
242 7 163 162 161 168
243 12 350 351 353 354
244 10 352 351 353 354
245 11 352 351 353 354
246 3 112 113 114 115
247 3 112 113 114 116
248 8 114 113 112 119
249 8 114 113 112 120
250 1 111 112 113 114
251 2 111 112 113 114
252 4 113 112 111 116
253 5 113 112 111 116
254 6 113 112 111 117
255 7 113 112 111 117
256 6 113 112 111 118
257 7 113 112 111 118
258 8 351 353 354 358
259 8 351 353 354 359
260 8 351 353 354 360
261 10 601 602 603 604
262 11 601 602 603 604
263 12 601 602 603 605
264 8 603 602 601 607
265 8 603 602 601 608
266 8 603 602 601 609
267 3 281 286 284 283
268 3 281 286 284 285
269 8 284 286 281 287
270 8 284 286 281 288
271 10 553 554 555 556
272 11 553 554 555 556
273 12 553 554 555 557
274 8 555 554 553 559
275 8 555 554 553 560
276 8 555 554 553 561
277 1 282 281 286 284
278 2 282 281 286 284
279 6 286 281 282 289
280 7 286 281 282 289
281 6 286 281 282 290
282 7 286 281 282 290
283 9 287 281 282 289
284 9 287 281 282 290
285 9 288 281 282 289
286 9 288 281 282 290
287 12 734 735 737 738
288 10 736 735 737 738
289 11 736 735 737 738
290 3 202 203 204 205
291 3 202 203 204 206
292 8 204 203 202 209
293 8 204 203 202 210
294 3 201 206 204 203
295 3 201 206 204 205
296 8 204 206 201 207
297 8 204 206 201 208
298 1 202 201 206 204
299 2 202 201 206 204
300 6 206 201 202 209
301 7 206 201 202 209
302 6 206 201 202 210
303 7 206 201 202 210
304 9 207 201 202 209
305 9 207 201 202 210
306 9 208 201 202 209
307 9 208 201 202 210
308 1 201 202 203 204
309 2 201 202 203 204
310 4 203 202 201 206
311 5 203 202 201 206
312 6 203 202 201 207
313 7 203 202 201 207
314 6 203 202 201 208
315 7 203 202 201 208
316 3 111 116 114 113
317 3 111 116 114 115
318 8 114 116 111 117
319 8 114 116 111 118
320 10 313 314 315 316
321 11 313 314 315 316
322 12 313 314 315 317
323 8 315 314 313 319
324 8 315 314 313 320
325 8 315 314 313 321
326 1 112 111 116 114
327 2 112 111 116 114
328 6 116 111 112 119
329 7 116 111 112 119
330 6 116 111 112 120
331 7 116 111 112 120
332 9 117 111 112 119
333 9 117 111 112 120
334 9 118 111 112 119
335 9 118 111 112 120
336 10 733 734 735 736
337 11 733 734 735 736
338 12 733 734 735 737
339 8 735 734 733 739
340 8 735 734 733 740
341 8 735 734 733 741
342 1 131 132 133 134
343 2 131 132 133 134
344 4 133 132 131 136
345 5 133 132 131 136
346 6 133 132 131 137
347 7 133 132 131 137
348 6 133 132 131 138
349 7 133 132 131 138
350 8 435 437 438 442
351 8 435 437 438 443
352 8 435 437 438 444
353 12 434 435 437 438
354 10 436 435 437 438
355 11 436 435 437 438
356 10 445 446 447 448
357 11 445 446 447 448
358 12 445 446 447 449
359 8 447 446 445 451
360 8 447 446 445 452
361 8 447 446 445 453
362 3 221 226 224 223
363 3 221 226 224 225
364 8 224 226 221 227
365 8 224 226 221 228
366 12 446 447 449 450
367 10 448 447 449 450
368 11 448 447 449 450
369 8 447 449 450 454
370 8 447 449 450 455
371 8 447 449 450 456
372 1 222 221 226 224
373 2 222 221 226 224
374 6 226 221 222 229
375 7 226 221 222 229
376 6 226 221 222 230
377 7 226 221 222 230
378 9 227 221 222 229
379 9 227 221 222 230
380 9 228 221 222 229
381 9 228 221 222 230
382 10 433 434 435 436
383 11 433 434 435 436
384 12 433 434 435 437
385 8 435 434 433 439
386 8 435 434 433 440
387 8 435 434 433 441
388 1 162 161 166 164
389 2 162 161 166 164
390 6 166 161 162 169
391 7 166 161 162 169
392 6 166 161 162 170
393 7 166 161 162 170
394 9 167 161 162 169
395 9 167 161 162 170
396 9 168 161 162 169
397 9 168 161 162 170
398 3 161 166 164 163
399 3 161 166 164 165
400 8 164 166 161 167
401 8 164 166 161 168
402 12 926 927 929 930
403 10 928 927 929 930
404 11 928 927 929 930
405 10 925 926 927 928
406 11 925 926 927 928
407 12 925 926 927 929
408 8 927 926 925 931
409 8 927 926 925 932
410 8 927 926 925 933
411 8 927 929 930 934
412 8 927 929 930 935
413 8 927 929 930 936
414 12 554 555 557 558
415 10 556 555 557 558
416 11 556 555 557 558
417 8 555 557 558 562
418 8 555 557 558 563
419 8 555 557 558 564
420 10 565 566 567 568
421 11 565 566 567 568
422 12 565 566 567 569
423 8 567 566 565 571
424 8 567 566 565 572
425 8 567 566 565 573
426 1 232 231 236 234
427 2 232 231 236 234
428 6 236 231 232 239
429 7 236 231 232 239
430 6 236 231 232 240
431 7 236 231 232 240
432 9 237 231 232 239
433 9 237 231 232 240
434 9 238 231 232 239
435 9 238 231 232 240
436 10 481 482 483 484
437 11 481 482 483 484
438 12 481 482 483 485
439 8 483 482 481 487
440 8 483 482 481 488
441 8 483 482 481 489
442 12 482 483 485 486
443 10 484 483 485 486
444 11 484 483 485 486
445 1 251 252 253 254
446 2 251 252 253 254
447 4 253 252 251 256
448 5 253 252 251 256
449 6 253 252 251 257
450 7 253 252 251 257
451 6 253 252 251 258
452 7 253 252 251 258
453 1 252 251 256 254
454 2 252 251 256 254
455 6 256 251 252 259
456 7 256 251 252 259
457 6 256 251 252 260
458 7 256 251 252 260
459 9 257 251 252 259
460 9 257 251 252 260
461 9 258 251 252 259
462 9 258 251 252 260
463 3 252 253 254 255
464 3 252 253 254 256
465 8 254 253 252 259
466 8 254 253 252 260
467 3 251 256 254 253
468 3 251 256 254 255
469 8 254 256 251 257
470 8 254 256 251 258
471 1 152 151 156 154
472 2 152 151 156 154
473 6 156 151 152 159
474 7 156 151 152 159
475 6 156 151 152 160
476 7 156 151 152 160
477 9 157 151 152 159
478 9 157 151 152 160
479 9 158 151 152 159
480 9 158 151 152 160
481 1 151 152 153 154
482 2 151 152 153 154
483 4 153 152 151 156
484 5 153 152 151 156
485 6 153 152 151 157
486 7 153 152 151 157
487 6 153 152 151 158
488 7 153 152 151 158
489 8 315 317 318 322
490 8 315 317 318 323
491 8 315 317 318 324
492 3 151 156 154 153
493 3 151 156 154 155
494 8 154 156 151 157
495 8 154 156 151 158
496 12 314 315 317 318
497 10 316 315 317 318
498 11 316 315 317 318
499 3 222 223 224 225
500 3 222 223 224 226
501 8 224 223 222 229
502 8 224 223 222 230
503 1 52 51 56 54
504 2 52 51 56 54
505 6 56 51 52 59
506 7 56 51 52 59
507 6 56 51 52 60
508 7 56 51 52 60
509 9 57 51 52 59
510 9 57 51 52 60
511 9 58 51 52 59
512 9 58 51 52 60
513 1 51 52 53 54
514 2 51 52 53 54
515 4 53 52 51 56
516 5 53 52 51 56
517 6 53 52 51 57
518 7 53 52 51 57
519 6 53 52 51 58
520 7 53 52 51 58
521 3 52 53 54 55
522 3 52 53 54 56
523 8 54 53 52 59
524 8 54 53 52 60
525 3 51 56 54 53
526 3 51 56 54 55
527 8 54 56 51 57
528 8 54 56 51 58
529 1 31 32 33 34
530 2 31 32 33 34
531 4 33 32 31 36
532 5 33 32 31 36
533 6 33 32 31 37
534 7 33 32 31 37
535 6 33 32 31 38
536 7 33 32 31 38
537 3 32 33 34 35
538 3 32 33 34 36
539 8 34 33 32 39
540 8 34 33 32 40
541 1 221 222 223 224
542 2 221 222 223 224
543 4 223 222 221 226
544 5 223 222 221 226
545 6 223 222 221 227
546 7 223 222 221 227
547 6 223 222 221 228
548 7 223 222 221 228
549 1 62 61 66 64
550 2 62 61 66 64
551 6 66 61 62 69
552 7 66 61 62 69
553 6 66 61 62 70
554 7 66 61 62 70
555 9 67 61 62 69
556 9 67 61 62 70
557 9 68 61 62 69
558 9 68 61 62 70
559 10 517 518 519 520
560 11 517 518 519 520
561 12 517 518 519 521
562 8 519 518 517 523
563 8 519 518 517 524
564 8 519 518 517 525
565 12 518 519 521 522
566 10 520 519 521 522
567 11 520 519 521 522
568 8 519 521 522 526
569 8 519 521 522 527
570 8 519 521 522 528
571 1 2 1 6 4
572 2 2 1 6 4
573 6 6 1 2 9
574 7 6 1 2 9
575 6 6 1 2 10
576 7 6 1 2 10
577 9 7 1 2 9
578 9 7 1 2 10
579 9 8 1 2 9
580 9 8 1 2 10
581 1 61 62 63 64
582 2 61 62 63 64
583 4 63 62 61 66
584 5 63 62 61 66
585 6 63 62 61 67
586 7 63 62 61 67
587 6 63 62 61 68
588 7 63 62 61 68
589 3 1 6 4 3
590 3 1 6 4 5
591 8 4 6 1 7
592 8 4 6 1 8
593 3 61 66 64 63
594 3 61 66 64 65
595 8 64 66 61 67
596 8 64 66 61 68
597 3 62 63 64 65
598 3 62 63 64 66
599 8 64 63 62 69
600 8 64 63 62 70
601 1 132 131 136 134
602 2 132 131 136 134
603 6 136 131 132 139
604 7 136 131 132 139
605 6 136 131 132 140
606 7 136 131 132 140
607 9 137 131 132 139
608 9 137 131 132 140
609 9 138 131 132 139
610 9 138 131 132 140
611 3 231 236 234 233
612 3 231 236 234 235
613 8 234 236 231 237
614 8 234 236 231 238
615 1 32 31 36 34
616 2 32 31 36 34
617 6 36 31 32 39
618 7 36 31 32 39
619 6 36 31 32 40
620 7 36 31 32 40
621 9 37 31 32 39
622 9 37 31 32 40
623 9 38 31 32 39
624 9 38 31 32 40
625 3 132 133 134 135
626 3 132 133 134 136
627 8 134 133 132 139
628 8 134 133 132 140
629 10 913 914 915 916
630 11 913 914 915 916
631 12 913 914 915 917
632 8 915 914 913 919
633 8 915 914 913 920
634 8 915 914 913 921
635 8 483 485 486 490
636 8 483 485 486 491
637 8 483 485 486 492
638 3 31 36 34 33
639 3 31 36 34 35
640 8 34 36 31 37
641 8 34 36 31 38
642 3 131 136 134 133
643 3 131 136 134 135
644 8 134 136 131 137
645 8 134 136 131 138
646 8 915 917 918 922
647 8 915 917 918 923
648 8 915 917 918 924
649 12 914 915 917 918
650 10 916 915 917 918
651 11 916 915 917 918
652 12 566 567 569 570
653 10 568 567 569 570
654 11 568 567 569 570
655 8 567 569 570 574
656 8 567 569 570 575
657 8 567 569 570 576
658 1 231 232 233 234
659 2 231 232 233 234
660 4 233 232 231 236
661 5 233 232 231 236
662 6 233 232 231 237
663 7 233 232 231 237
664 6 233 232 231 238
665 7 233 232 231 238
666 3 232 233 234 235
667 3 232 233 234 236
668 8 234 233 232 239
669 8 234 233 232 240
670 10 817 818 819 820
671 11 817 818 819 820
672 12 817 818 819 821
673 8 819 818 817 823
674 8 819 818 817 824
675 8 819 818 817 825
676 10 385 386 387 388
677 11 385 386 387 388
678 12 385 386 387 389
679 8 387 386 385 391
680 8 387 386 385 392
681 8 387 386 385 393
682 12 326 327 329 330
683 10 328 327 329 330
684 11 328 327 329 330
685 8 387 389 390 394
686 8 387 389 390 395
687 8 387 389 390 396
688 12 386 387 389 390
689 10 388 387 389 390
690 11 388 387 389 390
691 12 818 819 821 822
692 10 820 819 821 822
693 11 820 819 821 822
694 10 541 542 543 544
695 11 541 542 543 544
696 12 541 542 543 545
697 8 543 542 541 547
698 8 543 542 541 548
699 8 543 542 541 549
700 12 542 543 545 546
701 10 544 543 545 546
702 11 544 543 545 546
703 8 543 545 546 550
704 8 543 545 546 551
705 8 543 545 546 552
706 8 879 881 882 886
707 8 879 881 882 887
708 8 879 881 882 888
709 12 878 879 881 882
710 10 880 879 881 882
711 11 880 879 881 882
712 1 212 211 216 214
713 2 212 211 216 214
714 6 216 211 212 219
715 7 216 211 212 219
716 6 216 211 212 220
717 7 216 211 212 220
718 9 217 211 212 219
719 9 217 211 212 220
720 9 218 211 212 219
721 9 218 211 212 220
722 10 877 878 879 880
723 11 877 878 879 880
724 12 877 878 879 881
725 8 879 878 877 883
726 8 879 878 877 884
727 8 879 878 877 885
728 8 819 821 822 826
729 8 819 821 822 827
730 8 819 821 822 828
731 8 699 701 702 706
732 8 699 701 702 707
733 8 699 701 702 708
734 1 92 91 96 94
735 2 92 91 96 94
736 6 96 91 92 99
737 7 96 91 92 99
738 6 96 91 92 100
739 7 96 91 92 100
740 9 97 91 92 99
741 9 97 91 92 100
742 9 98 91 92 99
743 9 98 91 92 100
744 3 292 293 294 295
745 3 292 293 294 296
746 8 294 293 292 299
747 8 294 293 292 300
748 1 291 292 293 294
749 2 291 292 293 294
750 4 293 292 291 296
751 5 293 292 291 296
752 6 293 292 291 297
753 7 293 292 291 297
754 6 293 292 291 298
755 7 293 292 291 298
756 10 397 398 399 400
757 11 397 398 399 400
758 12 397 398 399 401
759 8 399 398 397 403
760 8 399 398 397 404
761 8 399 398 397 405
762 12 398 399 401 402
763 10 400 399 401 402
764 11 400 399 401 402
765 12 746 747 749 750
766 10 748 747 749 750
767 11 748 747 749 750
768 10 745 746 747 748
769 11 745 746 747 748
770 12 745 746 747 749
771 8 747 746 745 751
772 8 747 746 745 752
773 8 747 746 745 753
774 1 292 291 296 294
775 2 292 291 296 294
776 6 296 291 292 299
777 7 296 291 292 299
778 6 296 291 292 300
779 7 296 291 292 300
780 9 297 291 292 299
781 9 297 291 292 300
782 9 298 291 292 299
783 9 298 291 292 300
784 3 291 296 294 293
785 3 291 296 294 295
786 8 294 296 291 297
787 8 294 296 291 298
788 8 675 677 678 682
789 8 675 677 678 683
790 8 675 677 678 684
791 12 674 675 677 678
792 10 676 675 677 678
793 11 676 675 677 678
794 10 673 674 675 676
795 11 673 674 675 676
796 12 673 674 675 677
797 8 675 674 673 679
798 8 675 674 673 680
799 8 675 674 673 681
800 10 409 410 411 412
801 11 409 410 411 412
802 12 409 410 411 413
803 8 411 410 409 415
804 8 411 410 409 416
805 8 411 410 409 417
806 12 410 411 413 414
807 10 412 411 413 414
808 11 412 411 413 414
809 1 91 92 93 94
810 2 91 92 93 94
811 4 93 92 91 96
812 5 93 92 91 96
813 6 93 92 91 97
814 7 93 92 91 97
815 6 93 92 91 98
816 7 93 92 91 98
817 8 411 413 414 418
818 8 411 413 414 419
819 8 411 413 414 420
820 3 91 96 94 93
821 3 91 96 94 95
822 8 94 96 91 97
823 8 94 96 91 98
824 3 92 93 94 95
825 3 92 93 94 96
826 8 94 93 92 99
827 8 94 93 92 100
828 10 865 866 867 868
829 11 865 866 867 868
830 12 865 866 867 869
831 8 867 866 865 871
832 8 867 866 865 872
833 8 867 866 865 873
834 1 11 12 13 14
835 2 11 12 13 14
836 4 13 12 11 16
837 5 13 12 11 16
838 6 13 12 11 17
839 7 13 12 11 17
840 6 13 12 11 18
841 7 13 12 11 18
842 1 12 11 16 14
843 2 12 11 16 14
844 6 16 11 12 19
845 7 16 11 12 19
846 6 16 11 12 20
847 7 16 11 12 20
848 9 17 11 12 19
849 9 17 11 12 20
850 9 18 11 12 19
851 9 18 11 12 20
852 3 11 16 14 13
853 3 11 16 14 15
854 8 14 16 11 17
855 8 14 16 11 18
856 3 12 13 14 15
857 3 12 13 14 16
858 8 14 13 12 19
859 8 14 13 12 20
860 1 22 21 26 24
861 2 22 21 26 24
862 6 26 21 22 29
863 7 26 21 22 29
864 6 26 21 22 30
865 7 26 21 22 30
866 9 27 21 22 29
867 9 27 21 22 30
868 9 28 21 22 29
869 9 28 21 22 30
870 1 21 22 23 24
871 2 21 22 23 24
872 4 23 22 21 26
873 5 23 22 21 26
874 6 23 22 21 27
875 7 23 22 21 27
876 6 23 22 21 28
877 7 23 22 21 28
878 3 21 26 24 23
879 3 21 26 24 25
880 8 24 26 21 27
881 8 24 26 21 28
882 3 22 23 24 25
883 3 22 23 24 26
884 8 24 23 22 29
885 8 24 23 22 30
886 10 577 578 579 580
887 11 577 578 579 580
888 12 577 578 579 581
889 8 579 578 577 583
890 8 579 578 577 584
891 8 579 578 577 585
892 12 578 579 581 582
893 10 580 579 581 582
894 11 580 579 581 582
895 8 399 401 402 406
896 8 399 401 402 407
897 8 399 401 402 408
898 12 806 807 809 810
899 10 808 807 809 810
900 11 808 807 809 810
901 8 807 809 810 814
902 8 807 809 810 815
903 8 807 809 810 816
904 10 805 806 807 808
905 11 805 806 807 808
906 12 805 806 807 809
907 8 807 806 805 811
908 8 807 806 805 812
909 8 807 806 805 813
910 8 579 581 582 586
911 8 579 581 582 587
912 8 579 581 582 588
913 8 747 749 750 754
914 8 747 749 750 755
915 8 747 749 750 756
916 8 459 461 462 466
917 8 459 461 462 467
918 8 459 461 462 468
919 1 42 41 46 44
920 2 42 41 46 44
921 6 46 41 42 49
922 7 46 41 42 49
923 6 46 41 42 50
924 7 46 41 42 50
925 9 47 41 42 49
926 9 47 41 42 50
927 9 48 41 42 49
928 9 48 41 42 50
929 12 458 459 461 462
930 10 460 459 461 462
931 11 460 459 461 462
932 10 457 458 459 460
933 11 457 458 459 460
934 12 457 458 459 461
935 8 459 458 457 463
936 8 459 458 457 464
937 8 459 458 457 465
938 10 589 590 591 592
939 11 589 590 591 592
940 12 589 590 591 593
941 8 591 590 589 595
942 8 591 590 589 596
943 8 591 590 589 597
944 12 590 591 593 594
945 10 592 591 593 594
946 11 592 591 593 594
947 8 591 593 594 598
948 8 591 593 594 599
949 8 591 593 594 600
950 3 171 176 174 173
951 3 171 176 174 175
952 8 174 176 171 177
953 8 174 176 171 178
954 10 613 614 615 616
955 11 613 614 615 616
956 12 613 614 615 617
957 8 615 614 613 619
958 8 615 614 613 620
959 8 615 614 613 621
960 8 735 737 738 742
961 8 735 737 738 743
962 8 735 737 738 744
963 3 181 186 184 183
964 3 181 186 184 185
965 8 184 186 181 187
966 8 184 186 181 188
967 1 182 181 186 184
968 2 182 181 186 184
969 6 186 181 182 189
970 7 186 181 182 189
971 6 186 181 182 190
972 7 186 181 182 190
973 9 187 181 182 189
974 9 187 181 182 190
975 9 188 181 182 189
976 9 188 181 182 190
977 1 181 182 183 184
978 2 181 182 183 184
979 4 183 182 181 186
980 5 183 182 181 186
981 6 183 182 181 187
982 7 183 182 181 187
983 6 183 182 181 188
984 7 183 182 181 188
985 3 182 183 184 185
986 3 182 183 184 186
987 8 184 183 182 189
988 8 184 183 182 190
989 1 72 71 76 74
990 2 72 71 76 74
991 6 76 71 72 79
992 7 76 71 72 79
993 6 76 71 72 80
994 7 76 71 72 80
995 9 77 71 72 79
996 9 77 71 72 80
997 9 78 71 72 79
998 9 78 71 72 80
999 1 71 72 73 74
1000 2 71 72 73 74
1001 4 73 72 71 76
1002 5 73 72 71 76
1003 6 73 72 71 77
1004 7 73 72 71 77
1005 6 73 72 71 78
1006 7 73 72 71 78
1007 3 71 76 74 73
1008 3 71 76 74 75
1009 8 74 76 71 77
1010 8 74 76 71 78
1011 3 72 73 74 75
1012 3 72 73 74 76
1013 8 74 73 72 79
1014 8 74 73 72 80
1015 10 937 938 939 940
1016 11 937 938 939 940
1017 12 937 938 939 941
1018 8 939 938 937 943
1019 8 939 938 937 944
1020 8 939 938 937 945
1021 12 938 939 941 942
1022 10 940 939 941 942
1023 11 940 939 941 942
1024 3 261 266 264 263
1025 3 261 266 264 265
1026 8 264 266 261 267
1027 8 264 266 261 268
1028 3 262 263 264 265
1029 3 262 263 264 266
1030 8 264 263 262 269
1031 8 264 263 262 270
1032 1 261 262 263 264
1033 2 261 262 263 264
1034 4 263 262 261 266
1035 5 263 262 261 266
1036 6 263 262 261 267
1037 7 263 262 261 267
1038 6 263 262 261 268
1039 7 263 262 261 268
1040 1 262 261 266 264
1041 2 262 261 266 264
1042 6 266 261 262 269
1043 7 266 261 262 269
1044 6 266 261 262 270
1045 7 266 261 262 270
1046 9 267 261 262 269
1047 9 267 261 262 270
1048 9 268 261 262 269
1049 9 268 261 262 270
1050 12 614 615 617 618
1051 10 616 615 617 618
1052 11 616 615 617 618
1053 1 121 122 123 124
1054 2 121 122 123 124
1055 4 123 122 121 126
1056 5 123 122 121 126
1057 6 123 122 121 127
1058 7 123 122 121 127
1059 6 123 122 121 128
1060 7 123 122 121 128
1061 3 122 123 124 125
1062 3 122 123 124 126
1063 8 124 123 122 129
1064 8 124 123 122 130
1065 8 615 617 618 622
1066 8 615 617 618 623
1067 8 615 617 618 624
1068 10 649 650 651 652
1069 11 649 650 651 652
1070 12 649 650 651 653
1071 8 651 650 649 655
1072 8 651 650 649 656
1073 8 651 650 649 657
1074 8 939 941 942 946
1075 8 939 941 942 947
1076 8 939 941 942 948
1077 10 661 662 663 664
1078 11 661 662 663 664
1079 12 661 662 663 665
1080 8 663 662 661 667
1081 8 663 662 661 668
1082 8 663 662 661 669
1083 12 662 663 665 666
1084 10 664 663 665 666
1085 11 664 663 665 666
1086 8 651 653 654 658
1087 8 651 653 654 659
1088 8 651 653 654 660
1089 8 495 497 498 502
1090 8 495 497 498 503
1091 8 495 497 498 504
1092 8 663 665 666 670
1093 8 663 665 666 671
1094 8 663 665 666 672
1095 12 650 651 653 654
1096 10 652 651 653 654
1097 11 652 651 653 654
1098 3 41 46 44 43
1099 3 41 46 44 45
1100 8 44 46 41 47
1101 8 44 46 41 48
1102 1 191 192 193 194
1103 2 191 192 193 194
1104 4 193 192 191 196
1105 5 193 192 191 196
1106 6 193 192 191 197
1107 7 193 192 191 197
1108 6 193 192 191 198
1109 7 193 192 191 198
1110 1 192 191 196 194
1111 2 192 191 196 194
1112 6 196 191 192 199
1113 7 196 191 192 199
1114 6 196 191 192 200
1115 7 196 191 192 200
1116 9 197 191 192 199
1117 9 197 191 192 200
1118 9 198 191 192 199
1119 9 198 191 192 200
1120 10 337 338 339 340
1121 11 337 338 339 340
1122 12 337 338 339 341
1123 8 339 338 337 343
1124 8 339 338 337 344
1125 8 339 338 337 345
1126 12 338 339 341 342
1127 10 340 339 341 342
1128 11 340 339 341 342
1129 8 339 341 342 346
1130 8 339 341 342 347
1131 8 339 341 342 348
1132 10 325 326 327 328
1133 11 325 326 327 328
1134 12 325 326 327 329
1135 8 327 326 325 331
1136 8 327 326 325 332
1137 8 327 326 325 333
1138 8 951 953 954 958
1139 8 951 953 954 959
1140 8 951 953 954 960
1141 3 152 153 154 155
1142 3 152 153 154 156
1143 8 154 153 152 159
1144 8 154 153 152 160
1145 10 949 950 951 952
1146 11 949 950 951 952
1147 12 949 950 951 953
1148 8 951 950 949 955
1149 8 951 950 949 956
1150 8 951 950 949 957
1151 1 141 142 143 144
1152 2 141 142 143 144
1153 4 143 142 141 146
1154 5 143 142 141 146
1155 6 143 142 141 147
1156 7 143 142 141 147
1157 6 143 142 141 148
1158 7 143 142 141 148
1159 1 142 141 146 144
1160 2 142 141 146 144
1161 6 146 141 142 149
1162 7 146 141 142 149
1163 6 146 141 142 150
1164 7 146 141 142 150
1165 9 147 141 142 149
1166 9 147 141 142 150
1167 9 148 141 142 149
1168 9 148 141 142 150
1169 3 142 143 144 145
1170 3 142 143 144 146
1171 8 144 143 142 149
1172 8 144 143 142 150
1173 3 141 146 144 143
1174 3 141 146 144 145
1175 8 144 146 141 147
1176 8 144 146 141 148
1177 10 493 494 495 496
1178 11 493 494 495 496
1179 12 493 494 495 497
1180 8 495 494 493 499
1181 8 495 494 493 500
1182 8 495 494 493 501
1183 1 122 121 126 124
1184 2 122 121 126 124
1185 6 126 121 122 129
1186 7 126 121 122 129
1187 6 126 121 122 130
1188 7 126 121 122 130
1189 9 127 121 122 129
1190 9 127 121 122 130
1191 9 128 121 122 129
1192 9 128 121 122 130
1193 8 891 893 894 898
1194 8 891 893 894 899
1195 8 891 893 894 900
1196 12 890 891 893 894
1197 10 892 891 893 894
1198 11 892 891 893 894
1199 3 121 126 124 123
1200 3 121 126 124 125
1201 8 124 126 121 127
1202 8 124 126 121 128
1203 10 889 890 891 892
1204 11 889 890 891 892
1205 12 889 890 891 893
1206 8 891 890 889 895
1207 8 891 890 889 896
1208 8 891 890 889 897
1209 12 950 951 953 954
1210 10 952 951 953 954
1211 11 952 951 953 954
1212 10 625 626 627 628
1213 11 625 626 627 628
1214 12 625 626 627 629
1215 8 627 626 625 631
1216 8 627 626 625 632
1217 8 627 626 625 633
1218 12 494 495 497 498
1219 10 496 495 497 498
1220 11 496 495 497 498
1221 10 841 842 843 844
1222 11 841 842 843 844
1223 12 841 842 843 845
1224 8 843 842 841 847
1225 8 843 842 841 848
1226 8 843 842 841 849
1227 12 842 843 845 846
1228 10 844 843 845 846
1229 11 844 843 845 846
1230 8 843 845 846 850
1231 8 843 845 846 851
1232 8 843 845 846 852
1233 8 327 329 330 334
1234 8 327 329 330 335
1235 8 327 329 330 336
1236 10 793 794 795 796
1237 11 793 794 795 796
1238 12 793 794 795 797
1239 8 795 794 793 799
1240 8 795 794 793 800
1241 8 795 794 793 801
1242 12 794 795 797 798
1243 10 796 795 797 798
1244 11 796 795 797 798
1245 10 721 722 723 724
1246 11 721 722 723 724
1247 12 721 722 723 725
1248 8 723 722 721 727
1249 8 723 722 721 728
1250 8 723 722 721 729
1251 8 723 725 726 730
1252 8 723 725 726 731
1253 8 723 725 726 732
1254 12 722 723 725 726
1255 10 724 723 725 726
1256 11 724 723 725 726
1257 12 530 531 533 534
1258 10 532 531 533 534
1259 11 532 531 533 534
1260 10 529 530 531 532
1261 11 529 530 531 532
1262 12 529 530 531 533
1263 8 531 530 529 535
1264 8 531 530 529 536
1265 8 531 530 529 537
1266 8 531 533 534 538
1267 8 531 533 534 539
1268 8 531 533 534 540
1269 8 795 797 798 802
1270 8 795 797 798 803
1271 8 795 797 798 804
1272 10 697 698 699 700
1273 11 697 698 699 700
1274 12 697 698 699 701
1275 8 699 698 697 703
1276 8 699 698 697 704
1277 8 699 698 697 705
1278 12 698 699 701 702
1279 10 700 699 701 702
1280 11 700 699 701 702
1281 8 639 641 642 646
1282 8 639 641 642 647
1283 8 639 641 642 648
1284 8 303 305 306 310
1285 8 303 305 306 311
1286 8 303 305 306 312
1287 10 301 302 303 304
1288 11 301 302 303 304
1289 12 301 302 303 305
1290 8 303 302 301 307
1291 8 303 302 301 308
1292 8 303 302 301 309
1293 12 302 303 305 306
1294 10 304 303 305 306
1295 11 304 303 305 306
1296 10 637 638 639 640
1297 11 637 638 639 640
1298 12 637 638 639 641
1299 8 639 638 637 643
1300 8 639 638 637 644
1301 8 639 638 637 645
1302 12 638 639 641 642
1303 10 640 639 641 642
1304 11 640 639 641 642
1305 10 769 770 771 772
1306 11 769 770 771 772
1307 12 769 770 771 773
1308 8 771 770 769 775
1309 8 771 770 769 776
1310 8 771 770 769 777
1311 1 102 101 106 104
1312 2 102 101 106 104
1313 6 106 101 102 109
1314 7 106 101 102 109
1315 6 106 101 102 110
1316 7 106 101 102 110
1317 9 107 101 102 109
1318 9 107 101 102 110
1319 9 108 101 102 109
1320 9 108 101 102 110
1321 12 770 771 773 774
1322 10 772 771 773 774
1323 11 772 771 773 774
1324 8 759 761 762 766
1325 8 759 761 762 767
1326 8 759 761 762 768
1327 3 101 106 104 103
1328 3 101 106 104 105
1329 8 104 106 101 107
1330 8 104 106 101 108
1331 1 101 102 103 104
1332 2 101 102 103 104
1333 4 103 102 101 106
1334 5 103 102 101 106
1335 6 103 102 101 107
1336 7 103 102 101 107
1337 6 103 102 101 108
1338 7 103 102 101 108
1339 3 271 276 274 273
1340 3 271 276 274 275
1341 8 274 276 271 277
1342 8 274 276 271 278
1343 1 1 2 3 4
1344 2 1 2 3 4
1345 4 3 2 1 6
1346 5 3 2 1 6
1347 6 3 2 1 7
1348 7 3 2 1 7
1349 6 3 2 1 8
1350 7 3 2 1 8
1351 3 272 273 274 275
1352 3 272 273 274 276
1353 8 274 273 272 279
1354 8 274 273 272 280
1355 8 783 785 786 790
1356 8 783 785 786 791
1357 8 783 785 786 792
1358 3 102 103 104 105
1359 3 102 103 104 106
1360 8 104 103 102 109
1361 8 104 103 102 110
1362 3 191 196 194 193
1363 3 191 196 194 195
1364 8 194 196 191 197
1365 8 194 196 191 198
1366 3 2 3 4 5
1367 3 2 3 4 6
1368 8 4 3 2 9
1369 8 4 3 2 10
1370 3 192 193 194 195
1371 3 192 193 194 196
1372 8 194 193 192 199
1373 8 194 193 192 200
1374 1 271 272 273 274
1375 2 271 272 273 274
1376 4 273 272 271 276
1377 5 273 272 271 276
1378 6 273 272 271 277
1379 7 273 272 271 277
1380 6 273 272 271 278
1381 7 273 272 271 278
1382 10 781 782 783 784
1383 11 781 782 783 784
1384 12 781 782 783 785
1385 8 783 782 781 787
1386 8 783 782 781 788
1387 8 783 782 781 789
1388 12 782 783 785 786
1389 10 784 783 785 786
1390 11 784 783 785 786
1391 1 272 271 276 274
1392 2 272 271 276 274
1393 6 276 271 272 279
1394 7 276 271 272 279
1395 6 276 271 272 280
1396 7 276 271 272 280
1397 9 277 271 272 279
1398 9 277 271 272 280
1399 9 278 271 272 279
1400 9 278 271 272 280
1401 12 626 627 629 630
1402 10 628 627 629 630
1403 11 628 627 629 630
1404 8 627 629 630 634
1405 8 627 629 630 635
1406 8 627 629 630 636
1407 10 469 470 471 472
1408 11 469 470 471 472
1409 12 469 470 471 473
1410 8 471 470 469 475
1411 8 471 470 469 476
1412 8 471 470 469 477
1413 12 470 471 473 474
1414 10 472 471 473 474
1415 11 472 471 473 474
1416 10 757 758 759 760
1417 11 757 758 759 760
1418 12 757 758 759 761
1419 8 759 758 757 763
1420 8 759 758 757 764
1421 8 759 758 757 765
1422 3 172 173 174 175
1423 3 172 173 174 176
1424 8 174 173 172 179
1425 8 174 173 172 180
1426 1 171 172 173 174
1427 2 171 172 173 174
1428 4 173 172 171 176
1429 5 173 172 171 176
1430 6 173 172 171 177
1431 7 173 172 171 177
1432 6 173 172 171 178
1433 7 173 172 171 178
1434 12 758 759 761 762
1435 10 760 759 761 762
1436 11 760 759 761 762
1437 8 471 473 474 478
1438 8 471 473 474 479
1439 8 471 473 474 480
1440 1 172 171 176 174
1441 2 172 171 176 174
1442 6 176 171 172 179
1443 7 176 171 172 179
1444 6 176 171 172 180
1445 7 176 171 172 180
1446 9 177 171 172 179
1447 9 177 171 172 180
1448 9 178 171 172 179
1449 9 178 171 172 180
1450 8 771 773 774 778
1451 8 771 773 774 779
1452 8 771 773 774 780

Impropers

1 1 375 376 377 374
2 1 375 374 376 377
3 1 84 86 83 85
4 1 963 964 965 962
5 1 867 869 866 868
6 1 507 509 506 508
7 1 375 377 374 376
8 1 84 85 86 83
9 1 963 962 964 965
10 1 867 868 869 866
11 1 244 245 246 243
12 1 244 243 245 246
13 1 244 246 243 245
14 1 687 686 688 689
15 1 687 689 686 688
16 1 84 83 85 86
17 1 903 902 904 905
18 1 903 905 902 904
19 1 903 904 905 902
20 1 423 422 424 425
21 1 423 424 425 422
22 1 44 43 45 46
23 1 423 425 422 424
24 1 363 362 364 365
25 1 711 713 710 712
26 1 711 712 713 710
27 1 711 710 712 713
28 1 204 205 206 203
29 1 831 833 830 832
30 1 507 508 509 506
31 1 855 857 854 856
32 1 507 506 508 509
33 1 855 856 857 854
34 1 214 215 216 213
35 1 855 854 856 857
36 1 214 213 215 216
37 1 214 216 213 215
38 1 831 830 832 833
39 1 363 364 365 362
40 1 363 365 362 364
41 1 831 832 833 830
42 1 284 283 285 286
43 1 603 604 605 602
44 1 603 605 602 604
45 1 963 965 962 964
46 1 687 688 689 686
47 1 351 350 352 353
48 1 164 165 166 163
49 1 164 163 165 166
50 1 927 928 929 926
51 1 351 352 353 350
52 1 114 115 116 113
53 1 114 113 115 116
54 1 615 616 617 614
55 1 351 353 350 352
56 1 284 285 286 283
57 1 603 602 604 605
58 1 284 286 283 285
59 1 555 554 556 557
60 1 735 736 737 734
61 1 204 203 205 206
62 1 204 206 203 205
63 1 114 116 113 115
64 1 315 314 316 317
65 1 735 734 736 737
66 1 315 316 317 314
67 1 44 45 46 43
68 1 435 436 437 434
69 1 435 437 434 436
70 1 447 446 448 449
71 1 224 226 223 225
72 1 447 448 449 446
73 1 447 449 446 448
74 1 435 434 436 437
75 1 164 166 163 165
76 1 927 926 928 929
77 1 927 929 926 928
78 1 555 557 554 556
79 1 555 556 557 554
80 1 567 566 568 569
81 1 483 484 485 482
82 1 483 482 484 485
83 1 254 253 255 256
84 1 254 256 253 255
85 1 254 255 256 253
86 1 315 317 314 316
87 1 154 156 153 155
88 1 224 225 226 223
89 1 224 223 225 226
90 1 54 53 55 56
91 1 54 55 56 53
92 1 54 56 53 55
93 1 34 33 35 36
94 1 34 35 36 33
95 1 519 518 520 521
96 1 519 520 521 518
97 1 519 521 518 520
98 1 4 6 3 5
99 1 64 66 63 65
100 1 104 105 106 103
101 1 64 63 65 66
102 1 4 5 6 3
103 1 64 65 66 63
104 1 234 236 233 235
105 1 134 133 135 136
106 1 915 914 916 917
107 1 483 485 482 484
108 1 234 235 236 233
109 1 34 36 33 35
110 1 134 136 133 135
111 1 915 916 917 914
112 1 915 917 914 916
113 1 567 569 566 568
114 1 567 568 569 566
115 1 134 135 136 133
116 1 234 233 235 236
117 1 819 818 820 821
118 1 819 820 821 818
119 1 387 386 388 389
120 1 327 328 329 326
121 1 387 389 386 388
122 1 387 388 389 386
123 1 543 542 544 545
124 1 543 545 542 544
125 1 543 544 545 542
126 1 879 881 878 880
127 1 723 724 725 722
128 1 879 880 881 878
129 1 879 878 880 881
130 1 819 821 818 820
131 1 699 701 698 700
132 1 411 412 413 410
133 1 294 293 295 296
134 1 294 295 296 293
135 1 399 400 401 398
136 1 747 748 749 746
137 1 399 398 400 401
138 1 747 746 748 749
139 1 294 296 293 295
140 1 675 677 674 676
141 1 675 674 676 677
142 1 675 676 677 674
143 1 411 410 412 413
144 1 411 413 410 412
145 1 94 96 93 95
146 1 94 93 95 96
147 1 867 866 868 869
148 1 14 16 13 15
149 1 14 13 15 16
150 1 14 15 16 13
151 1 264 265 266 263
152 1 24 26 23 25
153 1 24 23 25 26
154 1 579 578 580 581
155 1 24 25 26 23
156 1 399 401 398 400
157 1 807 808 809 806
158 1 807 809 806 808
159 1 807 806 808 809
160 1 579 581 578 580
161 1 747 749 746 748
162 1 459 461 458 460
163 1 94 95 96 93
164 1 174 175 176 173
165 1 591 592 593 590
166 1 459 458 460 461
167 1 459 460 461 458
168 1 591 590 592 593
169 1 591 593 590 592
170 1 174 176 173 175
171 1 615 614 616 617
172 1 735 737 734 736
173 1 184 186 183 185
174 1 184 183 185 186
175 1 74 75 76 73
176 1 74 76 73 75
177 1 74 73 75 76
178 1 939 938 940 941
179 1 264 266 263 265
180 1 264 263 265 266
181 1 184 185 186 183
182 1 939 940 941 938
183 1 579 580 581 578
184 1 124 123 125 126
185 1 615 617 614 616
186 1 124 125 126 123
187 1 651 650 652 653
188 1 939 941 938 940
189 1 663 664 665 662
190 1 663 662 664 665
191 1 651 653 650 652
192 1 495 497 494 496
193 1 663 665 662 664
194 1 651 652 653 650
195 1 44 46 43 45
196 1 339 338 340 341
197 1 339 341 338 340
198 1 327 326 328 329
199 1 951 953 950 952
200 1 154 153 155 156
201 1 951 950 952 953
202 1 144 143 145 146
203 1 144 146 143 145
204 1 154 155 156 153
205 1 495 494 496 497
206 1 339 340 341 338
207 1 891 893 890 892
208 1 124 126 123 125
209 1 891 890 892 893
210 1 891 892 893 890
211 1 627 626 628 629
212 1 951 952 953 950
213 1 843 844 845 842
214 1 495 496 497 494
215 1 843 842 844 845
216 1 843 845 842 844
217 1 327 329 326 328
218 1 795 796 797 794
219 1 795 794 796 797
220 1 723 722 724 725
221 1 723 725 722 724
222 1 531 532 533 530
223 1 531 530 532 533
224 1 531 533 530 532
225 1 144 145 146 143
226 1 795 797 794 796
227 1 699 698 700 701
228 1 699 700 701 698
229 1 771 772 773 770
230 1 639 641 638 640
231 1 303 305 302 304
232 1 303 302 304 305
233 1 274 275 276 273
234 1 303 304 305 302
235 1 639 640 641 638
236 1 639 638 640 641
237 1 771 770 772 773
238 1 759 761 758 760
239 1 104 106 103 105
240 1 274 276 273 275
241 1 274 273 275 276
242 1 783 785 782 784
243 1 104 103 105 106
244 1 194 196 193 195
245 1 4 3 5 6
246 1 194 195 196 193
247 1 194 193 195 196
248 1 783 782 784 785
249 1 783 784 785 782
250 1 627 629 626 628
251 1 471 472 473 470
252 1 471 470 472 473
253 1 627 628 629 626
254 1 759 758 760 761
255 1 174 173 175 176
256 1 471 473 470 472
257 1 759 760 761 758
258 1 771 773 770 772
