LAMMPS (22 Jul 2025 - Update 4)
# Restart continuation NPT chunk for composition tag=ec_dmc_3_7_liclo4_1m_298K
# Generated by scripts/curate_ff_md_data.py

read_restart    ${input_restart}
read_restart    ec_dmc_3_7_liclo4_1m_298K.npt.3.restart
Reading restart file ...
  restart file = 22 Jul 2025, LAMMPS = 22 Jul 2025
  restoring atom style full from restart
  orthogonal box = (-0.26973842 -0.23873841 -0.25873842) to (22.79583 22.82683 22.80683)
  1 by 1 by 1 MPI processor grid
  restoring pair style lj/cut/coul/long from restart
  restoring bond style harmonic from restart
  restoring angle style harmonic from restart
  restoring dihedral style opls from restart
  restoring improper style cvff from restart
  1014 atoms
  944 bonds
  1504 angles
  1452 dihedrals
  258 impropers
Finding 1-2 1-3 1-4 neighbors ...
  special bond factors lj:    0        0        0.5     
  special bond factors coul:  0        0        0.5     
     4 = max # of 1-2 neighbors
     5 = max # of 1-3 neighbors
     9 = max # of 1-4 neighbors
    11 = max # of special neighbors
  special bonds CPU = 0.001 seconds
  read_restart CPU = 0.006 seconds
kspace_style    pppm 1.0e-4
neighbor        2.0 bin
neigh_modify    every 1 delay 0 check yes
timestep        1.0

thermo_style    custom step time temp press vol density pe ke etotal
thermo          100
variable        tracked_temperature_K equal temp
variable        tracked_density_g_cm3 equal density
variable        tracked_volume_A3 equal vol
variable        tracked_pressure_atm equal press
fix             NPT_EQ all npt temp 298.15 298.15 100.0 iso 1.0 1.0 1000.0
fix             NPT_TRACE all ave/time 100 1 100 v_tracked_temperature_K v_tracked_density_g_cm3 v_tracked_volume_A3 v_tracked_pressure_atm file ${thermo_trace}
fix             NPT_TRACE all ave/time 100 1 100 v_tracked_temperature_K v_tracked_density_g_cm3 v_tracked_volume_A3 v_tracked_pressure_atm file npt_thermo.4.dat
run             5000
PPPM initialization ...
  using 12-bit tables for long-range coulomb
  G vector (1/distance) = 0.21272073
  grid = 9 9 9
  stencil order = 5
  estimated absolute RMS force accuracy = 0.016033732
  estimated relative force accuracy = 4.8285109e-05
  using double precision FFTW3
  3d grid and FFT values/proc = 2744 729
Generated 28 of 28 mixed pair_coeff terms from arithmetic mixing rule
Neighbor list info ...
  update: every = 1 steps, delay = 0 steps, check = yes
  max neighbors/atom: 2000, page size: 100000
  master list distance cutoff = 14
  ghost atom cutoff = 14
  binsize = 7, bins = 4 4 4
  1 neighbor lists, perpetual/occasional/extra = 1 0 0
  (1) pair lj/cut/coul/long, perpetual
      attributes: half, newton on
      pair build: half/bin/newton
      stencil: half/bin/3d
      bin: standard
Per MPI rank memory allocation (min/avg/max) = 14.89 | 14.89 | 14.89 Mbytes
   Step          Time           Temp          Press          Volume        Density         PotEng         KinEng         TotEng    
     15431   15431          289.64813     -2518.94        12271.354      1.1408691     -125.11221      874.61007      749.49786    
     15500   15500          297.50558      399.25793      12258.236      1.14209       -136.80759      898.33611      761.52852    
     15600   15600          305.05769     -852.28567      12265.19       1.1414424     -112.20727      921.14017      808.9329     
     15700   15700          311.17082      460.49569      12315.662      1.1367646     -110.81086      939.59913      828.78827    
     15800   15800          308.26606     -1963.29        12376.369      1.1311886     -109.81118      930.82805      821.01687    
     15900   15900          304.99117      996.4806       12382.282      1.1306485     -122.25977      920.93932      798.67955    
     16000   16000          288.50184      552.08811      12401.529      1.1288937     -79.792578      871.14878      791.35621    
     16100   16100          298.65573      416.16883      12414.608      1.1277044     -72.318672      901.80907      829.4904     
     16200   16200          309.15773      1132.8117      12407.162      1.1283812     -46.602737      933.5205       886.91776    
     16300   16300          304.82463      812.37064      12463.857      1.1232485     -60.933855      920.43644      859.50258    
     16400   16400          298.26696     -715.95494      12575.39       1.1132862     -76.014182      900.63517      824.62099    
     16500   16500          293.25709     -876.38857      12608.073      1.1104003     -73.436133      885.50756      812.07143    
     16600   16600          298.68138      1052.0042      12568.494      1.113897      -91.071836      901.88652      810.81468    
     16700   16700          298.71926      713.80796      12430.299      1.1262809     -96.779562      902.0009       805.22134    
     16800   16800          299.63199      1599.4352      12257.004      1.1422047     -99.103687      904.75696      805.65327    
     16900   16900          306.33176      948.81491      12124.272      1.1547092     -124.42461      924.98732      800.56271    
     17000   17000          289.42813      2544.078       12051.157      1.1617149     -117.23975      873.94578      756.70603    
     17100   17100          296.38305     -2343.8662      12104.009      1.1566423     -146.40593      894.94656      748.54064    
     17200   17200          299.7889      -1285.5288      12191.893      1.1483047     -130.13621      905.23074      775.09453    
     17300   17300          304.44161     -989.0764       12242.496      1.1435584     -82.620512      919.27989      836.65938    
     17400   17400          303.23849     -786.93387      12257.667      1.142143      -85.862552      915.64698      829.78443    
     17500   17500          303.49335     -703.71011      12273.111      1.1407058     -116.65702      916.41654      799.75952    
     17600   17600          295.76689      1313.857       12279.274      1.1401332     -117.76866      893.08606      775.31739    
     17700   17700          309.25852     -609.84871      12298.016      1.1383957     -160.59261      933.82483      773.23222    
     17800   17800          294.60624     -2507.2835      12317.356      1.1366083     -101.23667      889.58139      788.34471    
     17900   17900          293.25962     -1559.0166      12306.07       1.1376506     -90.319214      885.51519      795.19598    
     18000   18000          299.6235       2090.8189      12254.102      1.1424753     -109.34855      904.73132      795.38277    
     18100   18100          291.90496      1162.5373      12236.836      1.1440873     -98.926739      881.4247       782.49796    
     18200   18200          300.28275      2483.1031      12256.726      1.1422306     -140.75085      906.72195      765.9711     
     18300   18300          291.18247     -124.57409      12289.799      1.1391568     -122.38093      879.24311      756.86218    
     18400   18400          305.61122     -897.09942      12333.345      1.1351347     -137.49583      922.81159      785.31576    
     18500   18500          301.68941      199.79295      12334          1.1350745     -85.600734      910.96944      825.3687     
     18600   18600          305.82333      94.282831      12352.23       1.1333993     -75.948631      923.45206      847.50343    
     18700   18700          292.45683     -4658.7496      12399.584      1.1290708     -62.581765      883.09112      820.50935    
     18800   18800          297.07687     -1226.0401      12410.425      1.1280846     -145.02982      897.0416       752.01178    
     18900   18900          291.02726      47.988952      12350.448      1.1335628     -130.10556      878.77444      748.66888    
     19000   19000          306.65589      294.95737      12254.307      1.1424561     -140.97701      925.96604      784.98902    
     19100   19100          297.88226     -950.23418      12190.205      1.1484637     -92.894304      899.47353      806.57922    
     19200   19200          302.51198      1045.418       12165.955      1.1507529     -143.14177      913.45324      770.31147    
     19300   19300          291.8865       1540.1012      12140.522      1.1531636     -167.45989      881.36896      713.90907    
     19400   19400          300.19527      829.12516      12148.135      1.1524409     -176.06266      906.45781      730.39515    
     19500   19500          305.8053       2123.7908      12197.305      1.1477952     -148.20989      923.39762      775.18773    
     19600   19600          309.82943      439.70646      12272.238      1.1407869     -140.82928      935.54874      794.71947    
     19700   19700          306.41323     -1857.2219      12356.034      1.1330504     -123.03299      925.2333       802.20031    
     19800   19800          292.86137     -1648.5691      12358.308      1.1328419     -128.68005      884.31263      755.63259    
     19900   19900          281.14031      1181.7426      12282.72       1.1398134     -132.92842      848.9202       715.99178    
     20000   20000          287.33112      3612.9361      12154.638      1.1518244     -128.36372      867.61372      739.25       
     20100   20100          307.15619     -633.62194      12079.16       1.1590216     -157.5567       927.47673      769.92003    
     20200   20200          300.64815     -9.6068556      11988.344      1.1678017     -137.43797      907.8253       770.38734    
     20300   20300          298.91426      1322.0337      11936.743      1.17285       -156.6187       902.58971      745.971      
     20400   20400          304.90292     -1189.7652      11939.109      1.1726175     -191.06268      920.67284      729.61016    
     20431   20431          290.80195      426.51427      11948.901      1.1716566     -153.98867      878.09412      724.10545    
Loop time of 80.3201 on 1 procs for 5000 steps with 1014 atoms

Performance: 5.378 ns/day, 4.462 hours/ns, 62.251 timesteps/s, 63.122 katom-step/s
85.5% CPU use with 1 MPI tasks x no OpenMP threads

MPI task timing breakdown:
Section |  min time  |  avg time  |  max time  |%varavg| %total
---------------------------------------------------------------
Pair    | 69.193     | 69.193     | 69.193     |   0.0 | 86.15
Bond    | 3.2852     | 3.2852     | 3.2852     |   0.0 |  4.09
Kspace  | 3.2167     | 3.2167     | 3.2167     |   0.0 |  4.00
Neigh   | 2.8544     | 2.8544     | 2.8544     |   0.0 |  3.55
Comm    | 0.43798    | 0.43798    | 0.43798    |   0.0 |  0.55
Output  | 0.0036113  | 0.0036113  | 0.0036113  |   0.0 |  0.00
Modify  | 1.1939     | 1.1939     | 1.1939     |   0.0 |  1.49
Other   |            | 0.135      |            |       |  0.17

Nlocal:           1014 ave        1014 max        1014 min
Histogram: 1 0 0 0 0 0 0 0 0 0
Nghost:          10299 ave       10299 max       10299 min
Histogram: 1 0 0 0 0 0 0 0 0 0
Neighs:         494128 ave      494128 max      494128 min
Histogram: 1 0 0 0 0 0 0 0 0 0

Total # of neighbors = 494128
Ave neighs/atom = 487.30572
Ave special neighs/atom = 6.7613412
Neighbor list builds = 106
Dangerous builds = 0
unfix           NPT_TRACE
unfix           NPT_EQ
write_restart   ${output_restart}
write_restart   ec_dmc_3_7_liclo4_1m_298K.npt.4.restart
System init for write_restart ...
PPPM initialization ...
  using 12-bit tables for long-range coulomb
  G vector (1/distance) = 0.21336508
  grid = 9 9 9
  stencil order = 5
  estimated absolute RMS force accuracy = 0.015618445
  estimated relative force accuracy = 4.7034483e-05
  using double precision FFTW3
  3d grid and FFT values/proc = 2744 729
Generated 28 of 28 mixed pair_coeff terms from arithmetic mixing rule
Total wall time: 0:01:20
