LAMMPS (22 Jul 2025 - Update 4)
# Restart continuation NPT chunk for composition tag=ec_dmc_3_7_liclo4_1m_298K
# Generated by scripts/curate_ff_md_data.py

read_restart    ${input_restart}
read_restart    ec_dmc_3_7_liclo4_1m_298K.npt.2.restart
Reading restart file ...
  restart file = 22 Jul 2025, LAMMPS = 22 Jul 2025
  restoring atom style full from restart
  orthogonal box = (-0.42202971 -0.3910297 -0.41102971) to (22.948121 22.979121 22.959121)
  1 by 2 by 2 MPI processor grid
  restoring pair style lj/cut/coul/long from restart
  restoring bond style harmonic from restart
  restoring angle style harmonic from restart
  restoring dihedral style opls from restart
  restoring improper style cvff from restart
  1014 atoms
  944 bonds
  1504 angles
  1452 dihedrals
  258 impropers
Finding 1-2 1-3 1-4 neighbors ...
  special bond factors lj:    0        0        0.5     
  special bond factors coul:  0        0        0.5     
     4 = max # of 1-2 neighbors
     5 = max # of 1-3 neighbors
     9 = max # of 1-4 neighbors
    11 = max # of special neighbors
  special bonds CPU = 0.001 seconds
  read_restart CPU = 0.012 seconds
kspace_style    pppm 1.0e-4
neighbor        2.0 bin
neigh_modify    every 1 delay 0 check yes
timestep        1.0

thermo_style    custom step time temp press vol density pe ke etotal
thermo          100
variable        tracked_temperature_K equal temp
variable        tracked_density_g_cm3 equal density
variable        tracked_volume_A3 equal vol
variable        tracked_pressure_atm equal press
fix             NPT_EQ all npt temp 298.15 298.15 100.0 iso 1.0 1.0 1000.0
fix             NPT_TRACE all ave/time 100 1 100 v_tracked_temperature_K v_tracked_density_g_cm3 v_tracked_volume_A3 v_tracked_pressure_atm file ${thermo_trace}
fix             NPT_TRACE all ave/time 100 1 100 v_tracked_temperature_K v_tracked_density_g_cm3 v_tracked_volume_A3 v_tracked_pressure_atm file npt_thermo.3.dat
run             5000
PPPM initialization ...
  using 12-bit tables for long-range coulomb
  G vector (1/distance) = 0.21176566
  grid = 9 9 9
  stencil order = 5
  estimated absolute RMS force accuracy = 0.016666847
  estimated relative force accuracy = 5.0191716e-05
  using double precision FFTW3
  3d grid and FFT values/proc = 1400 225
Generated 28 of 28 mixed pair_coeff terms from arithmetic mixing rule
Neighbor list info ...
  update: every = 1 steps, delay = 0 steps, check = yes
  max neighbors/atom: 2000, page size: 100000
  master list distance cutoff = 14
  ghost atom cutoff = 14
  binsize = 7, bins = 4 4 4
  1 neighbor lists, perpetual/occasional/extra = 1 0 0
  (1) pair lj/cut/coul/long, perpetual
      attributes: half, newton on
      pair build: half/bin/newton
      stencil: half/bin/3d
      bin: standard
Per MPI rank memory allocation (min/avg/max) = 13.36 | 13.36 | 13.37 Mbytes
   Step          Time           Temp          Press          Volume        Density         PotEng         KinEng         TotEng    
     10396   10396          294.02422     -645.7378       12763.934      1.0968411     -64.619224      887.82394      823.20472    
     10400   10400          290.51138     -682.32537      12763.925      1.096842      -50.952589      877.21673      826.26414    
     10500   10500          295.94684     -1259.1516      12768.379      1.0964594     -56.315464      893.62942      837.31395    
     10600   10600          302.52006      874.10954      12749.771      1.0980596     -36.689992      913.47765      876.78766    
     10700   10700          324.66837      821.90587      12766.253      1.0966419     -78.261933      980.35582      902.09388    
     10800   10800          289.20303      3234.4236      12812.788      1.092659      -31.838256      873.26606      841.4278     
     10900   10900          289.48163     -507.55822      12903.533      1.0849748     -53.72447       874.10732      820.38285    
     11000   11000          290.65364     -2576.5998      12896.887      1.0855339     -55.067517      877.64628      822.57876    
     11100   11100          295.66429      637.55034      12809.45       1.0929438     -36.426579      892.77623      856.34965    
     11200   11200          311.12212      474.20204      12690.928      1.1031509     -45.033588      939.45209      894.4185     
     11300   11300          306.69181      727.87826      12526.583      1.1176239     -63.475834      926.07451      862.59868    
     11400   11400          294.58781      1517.6866      12376.752      1.1311537     -63.940039      889.52574      825.5857     
     11500   11500          292.72151      2476.0746      12331.816      1.1352755     -66.061622      883.89034      817.82872    
     11600   11600          292.45562      231.63378      12365.974      1.1321396     -81.311565      883.08746      801.7759     
     11700   11700          294.45563     -1651.5312      12474.011      1.1223341     -90.758762      889.12662      798.36786    
     11800   11800          296.53366     -394.18237      12542.917      1.1161685     -87.67901       895.40135      807.72234    
     11900   11900          314.86966     -1469.6559      12541.116      1.1163287     -102.20221      950.76802      848.56581    
     12000   12000          291.87903      1752.5507      12555.736      1.1150289     -23.026466      881.34641      858.31995    
     12100   12100          307.55506     -1541.7154      12592.813      1.1117459     -90.786745      928.68113      837.89439    
     12200   12200          286.99897      21.497573      12553.966      1.1151861     -84.198296      866.61079      782.41249    
     12300   12300          301.06298     -1775.0463      12508.452      1.1192439     -120.36506      909.07791      788.71285    
     12400   12400          301.1947       830.90224      12501.093      1.1199027     -85.833633      909.47563      823.642      
     12500   12500          308.66774     -1093.5596      12557.263      1.1148933     -80.135795      932.04093      851.90513    
     12600   12600          316.7912       156.72963      12651.562      1.1065834     -66.875293      956.57022      889.69493    
     12700   12700          307.60065      163.93579      12761.636      1.0970387     -44.538707      928.8188       884.28009    
     12800   12800          292.35248      1079.6711      12807.862      1.0930792     -61.260518      882.77601      821.51549    
     12900   12900          290.90238     -2737.9968      12785.815      1.0949641     -76.353501      878.39734      802.04384    
     13000   13000          293.18889     -3426.4798      12688.677      1.1033466     -82.078844      885.30161      803.22277    
     13100   13100          304.58398     -1983.9819      12537.478      1.1166527     -118.81628      919.70978      800.89351    
     13200   13200          295.83508      1391.7799      12387.843      1.1301409     -123.46398      893.29196      769.82798    
     13300   13300          292.46788      2706.833       12311.015      1.1371937     -148.45938      883.12448      734.6651     
     13400   13400          292.64819      2198.3241      12326.879      1.1357302     -124.57118      883.66893      759.09775    
     13500   13500          307.24182     -472.82059      12381.533      1.1307169     -121.76492      927.73528      805.97036    
     13600   13600          293.27169      1167.4975      12456.708      1.1238931     -84.333573      885.55163      801.21805    
     13700   13700          296.94053     -900.30866      12551.361      1.1154175     -81.538045      896.62992      815.09187    
     13800   13800          305.77141      1099.71        12579.848      1.1128917     -109.79318      923.29529      813.5021     
     13900   13900          295.9633       115.813        12498.327      1.1201506     -115.34756      893.67912      778.33157    
     14000   14000          285.28389      4193.3261      12318.33       1.1365184     -104.00439      861.432        757.42761    
     14100   14100          294.7632      -244.60957      12159.594      1.1513549     -106.86285      890.05533      783.19248    
     14200   14200          306.98725     -375.35159      12103.532      1.1566878     -93.467745      926.96661      833.49887    
     14300   14300          321.55345     -667.45442      12131.72       1.1540003     -153.5907       970.95013      817.35943    
     14400   14400          300.88392      1643.0951      12213.627      1.1462613     -123.60877      908.53722      784.92845    
     14500   14500          294.1843       729.78436      12305.774      1.137678      -101.82114      888.30733      786.48619    
     14600   14600          296.30405     -1770.2811      12377.718      1.1310654     -93.185391      894.70804      801.52265    
     14700   14700          304.0184      -2863.3848      12415.496      1.1276238     -102.19185      918.00196      815.81012    
     14800   14800          295.98171     -903.39405      12353.875      1.1332483     -57.089014      893.7347       836.64569    
     14900   14900          311.77117      146.45114      12309.572      1.137327      -90.873321      941.41194      850.53861    
     15000   15000          297.69368     -3230.9965      12303.517      1.1378867     -78.609965      898.90409      820.29413    
     15100   15100          284.5677       434.01809      12319.182      1.1364398     -84.607814      859.2694       774.66159    
     15200   15200          294.98371     -809.51084      12377.798      1.1310581     -114.81033      890.72119      775.91086    
     15300   15300          297.67087      1379.3365      12375.147      1.1313003     -89.05825       898.83521      809.77696    
     15396   15396          306.71851     -367.57762      12299.524      1.1382561     -101.55385      926.15511      824.60125    
Loop time of 31.4376 on 4 procs for 5000 steps with 1014 atoms

Performance: 13.741 ns/day, 1.747 hours/ns, 159.045 timesteps/s, 161.272 katom-step/s
77.7% CPU use with 4 MPI tasks x no OpenMP threads

MPI task timing breakdown:
Section |  min time  |  avg time  |  max time  |%varavg| %total
---------------------------------------------------------------
Pair    | 17.71      | 19.681     | 21.069     |  30.3 | 62.60
Bond    | 0.86519    | 0.91771    | 0.95666    |   3.7 |  2.92
Kspace  | 5.7633     | 7.1267     | 9.0548     |  49.0 | 22.67
Neigh   | 0.92607    | 0.92691    | 0.92783    |   0.1 |  2.95
Comm    | 1.6631     | 1.6779     | 1.6997     |   1.1 |  5.34
Output  | 0.0063011  | 0.0095109  | 0.010603   |   1.9 |  0.03
Modify  | 0.74727    | 0.79321    | 0.84848    |   4.1 |  2.52
Other   |            | 0.3045     |            |       |  0.97

Nlocal:          253.5 ave         258 max         244 min
Histogram: 1 0 0 0 0 0 0 1 0 2
Nghost:           6266 ave        6295 max        6234 min
Histogram: 1 0 0 0 1 0 1 0 0 1
Neighs:         119876 ave      124788 max      112810 min
Histogram: 1 0 0 0 0 1 0 0 1 1

Total # of neighbors = 479505
Ave neighs/atom = 472.88462
Ave special neighs/atom = 6.7613412
Neighbor list builds = 114
Dangerous builds = 0
unfix           NPT_TRACE
unfix           NPT_EQ
write_restart   ${output_restart}
write_restart   ec_dmc_3_7_liclo4_1m_298K.npt.3.restart
System init for write_restart ...
PPPM initialization ...
  using 12-bit tables for long-range coulomb
  G vector (1/distance) = 0.21266518
  grid = 9 9 9
  stencil order = 5
  estimated absolute RMS force accuracy = 0.016069981
  estimated relative force accuracy = 4.8394271e-05
  using double precision FFTW3
  3d grid and FFT values/proc = 1400 225
Generated 28 of 28 mixed pair_coeff terms from arithmetic mixing rule
Total wall time: 0:00:31
