LAMMPS (22 Jul 2025 - Update 4)
# Restart continuation NPT chunk for composition tag=ec_dmc_3_7_liclo4_1m_298K
# Generated by scripts/curate_ff_md_data.py

read_restart    ${input_restart}
read_restart    ec_dmc_3_7_liclo4_1m_298K.npt.4.restart
Reading restart file ...
  restart file = 22 Jul 2025, LAMMPS = 22 Jul 2025
  restoring atom style full from restart
  orthogonal box = (-0.16782514 -0.13682514 -0.15682514) to (22.693917 22.724917 22.704917)
  1 by 1 by 1 MPI processor grid
  restoring pair style lj/cut/coul/long from restart
  restoring bond style harmonic from restart
  restoring angle style harmonic from restart
  restoring dihedral style opls from restart
  restoring improper style cvff from restart
  1014 atoms
  944 bonds
  1504 angles
  1452 dihedrals
  258 impropers
Finding 1-2 1-3 1-4 neighbors ...
  special bond factors lj:    0        0        0.5     
  special bond factors coul:  0        0        0.5     
     4 = max # of 1-2 neighbors
     5 = max # of 1-3 neighbors
     9 = max # of 1-4 neighbors
    11 = max # of special neighbors
  special bonds CPU = 0.001 seconds
  read_restart CPU = 0.007 seconds
kspace_style    pppm 1.0e-4
neighbor        2.0 bin
neigh_modify    every 1 delay 0 check yes
timestep        1.0

thermo_style    custom step time temp press vol density pe ke etotal
thermo          100
variable        tracked_temperature_K equal temp
variable        tracked_density_g_cm3 equal density
variable        tracked_volume_A3 equal vol
variable        tracked_pressure_atm equal press
fix             NPT_EQ all npt temp 298.15 298.15 100.0 iso 1.0 1.0 1000.0
fix             NPT_TRACE all ave/time 100 1 100 v_tracked_temperature_K v_tracked_density_g_cm3 v_tracked_volume_A3 v_tracked_pressure_atm file ${thermo_trace}
fix             NPT_TRACE all ave/time 100 1 100 v_tracked_temperature_K v_tracked_density_g_cm3 v_tracked_volume_A3 v_tracked_pressure_atm file npt_thermo.5.dat
run             5000
PPPM initialization ...
  using 12-bit tables for long-range coulomb
  G vector (1/distance) = 0.21336508
  grid = 9 9 9
  stencil order = 5
  estimated absolute RMS force accuracy = 0.015618445
  estimated relative force accuracy = 4.7034483e-05
  using double precision FFTW3
  3d grid and FFT values/proc = 2744 729
Generated 28 of 28 mixed pair_coeff terms from arithmetic mixing rule
Neighbor list info ...
  update: every = 1 steps, delay = 0 steps, check = yes
  max neighbors/atom: 2000, page size: 100000
  master list distance cutoff = 14
  ghost atom cutoff = 14
  binsize = 7, bins = 4 4 4
  1 neighbor lists, perpetual/occasional/extra = 1 0 0
  (1) pair lj/cut/coul/long, perpetual
      attributes: half, newton on
      pair build: half/bin/newton
      stencil: half/bin/3d
      bin: standard
Per MPI rank memory allocation (min/avg/max) = 15.3 | 15.3 | 15.3 Mbytes
   Step          Time           Temp          Press          Volume        Density         PotEng         KinEng         TotEng    
     20431   20431          290.80195      426.39154      11948.901      1.1716566     -153.99268      878.09412      724.10144    
     20500   20500          291.77209      1297.5849      11962.412      1.1703333     -149.93135      881.02352      731.09217    
     20600   20600          293.14664     -1465.3201      12005.783      1.1661054     -108.24093      885.17405      776.93312    
     20700   20700          308.1136       1270.6163      11995.245      1.1671298     -115.32521      930.36768      815.04247    
     20800   20800          312.12844     -3236.6671      12016.786      1.1650377     -119.09619      942.49072      823.39454    
     20900   20900          304.94464     -650.53801      12072.579      1.1596535     -153.91204      920.79882      766.88678    
     21000   21000          288.01122     -583.05968      12158.702      1.1514394     -130.79082      869.66733      738.8765     
     21100   21100          293.71261      803.79768      12199.595      1.1475797     -122.21691      886.88301      764.66609    
     21200   21200          297.71594     -19.824623      12178.493      1.1495682     -91.728864      898.97132      807.24245    
     21300   21300          310.48709      2522.0818      12141.576      1.1530635     -117.8409       937.53457      819.69368    
     21400   21400          299.20591      407.96633      12100.413      1.156986      -110.39867      903.47037      793.0717     
     21500   21500          291.99563     -103.42242      12071.419      1.1597649     -108.88878      881.6985       772.80972    
     21600   21600          310.52257      1649.9531      12070.113      1.1598905     -165.52112      937.6417       772.12058    
     21700   21700          296.73678      1674.5997      12082.908      1.1586622     -131.70323      896.01469      764.31146    
     21800   21800          292.54052      1635.9832      12054.304      1.1614116     -159.43527      883.34384      723.90856    
     21900   21900          291.30667      1957.3284      11986.402      1.1679909     -187.89152      879.61814      691.72662    
     22000   22000          300.26253      1473.6759      11954.245      1.1711328     -181.49769      906.66091      725.16322    
     22100   22100          312.27628     -901.07943      11947.952      1.1717496     -168.47961      942.93714      774.45753    
     22200   22200          299.50188      54.105317      11956.412      1.1709205     -127.4795       904.36407      776.88457    
     22300   22300          302.09104      830.6234       12072.446      1.1596663     -135.8483       912.1822       776.3339     
     22400   22400          304.24272     -56.983106      12226.008      1.1451005     -148.66492      918.67932      770.0144     
     22500   22500          293.63245     -1822.9368      12256.871      1.1422171     -145.74587      886.64096      740.89509    
     22600   22600          293.69082     -984.99255      12131.25       1.154045      -152.49608      886.81721      734.32113    
     22700   22700          305.3043       561.29035      11946.515      1.1718905     -142.62642      921.88483      779.25841    
     22800   22800          311.65284      709.79802      11758.836      1.1905948     -147.75175      941.05464      793.3029     
     22900   22900          307.9356       2049.5152      11686.467      1.1979676     -179.42689      929.8302       750.40332    
     23000   23000          296.52235      3999.7825      11735.01       1.193012      -171.14309      895.3672       724.22411    
     23100   23100          289.86146      1673.5029      11866.734      1.1797693     -154.24226      875.25424      721.01197    
     23200   23200          301.51156     -1677.4922      12014.641      1.1652456     -167.48355      910.43241      742.94886    
     23300   23300          303.31994     -2085.1676      12126.37       1.1545094     -132.42674      915.89293      783.4662     
     23400   23400          293.35209      1446.9533      12157.612      1.1515426     -78.74741       885.7944       807.04699    
     23500   23500          300.23997      281.98773      12155.406      1.1517517     -80.787513      906.59278      825.80527    
     23600   23600          300.60412     -590.76644      12146.827      1.1525651     -118.83305      907.69236      788.8593     
     23700   23700          292.916        528.49718      12078.834      1.159053      -143.6356       884.47761      740.84201    
     23800   23800          288.64384      1198.7584      11977.659      1.1688434     -140.67271      871.57757      730.90485    
     23900   23900          304.09043     -1533.3436      11870.638      1.1793813     -160.60116      918.21948      757.61832    
     24000   24000          316.69232      1014.3434      11792.537      1.1871923     -167.28457      956.27164      788.98707    
     24100   24100          301.42461      1284.6167      11758.096      1.1906697     -130.83429      910.16988      779.33559    
     24200   24200          309.51815      1545.2694      11817.63       1.1846714     -216.35566      934.6088       718.25314    
     24300   24300          297.04005     -282.52474      11886.871      1.1777707     -202.10223      896.93043      694.8282     
     24400   24400          289.75205      1754.1044      11942.632      1.1722716     -177.5718       874.92386      697.35206    
     24500   24500          297.46528     -112.74019      12034.053      1.163366      -144.39627      898.21444      753.81816    
     24600   24600          302.34195      1141.6131      12101.409      1.1568908     -140.21         912.93984      772.72984    
     24700   24700          294.00784      133.55589      12109.785      1.1560906     -125.45046      887.77448      762.32403    
     24800   24800          302.93634      2021.058       12042.627      1.1625377     -177.41638      914.73463      737.31825    
     24900   24900          296.69796     -792.69632      11953.348      1.1712206     -197.78306      895.89746      698.1144     
     25000   25000          283.56421      386.67963      11833.24       1.1831087     -199.24039      856.23932      656.99892    
     25100   25100          289.24592      2814.4981      11803.311      1.1861086     -194.5266       873.39557      678.86897    
     25200   25200          292.05208      1396.9504      11921.381      1.1743613     -141.11757      881.86895      740.75138    
     25300   25300          293.40395     -52.144397      12077.838      1.1591486     -123.15039      885.95099      762.8006     
     25400   25400          310.20907      82.699628      12167.802      1.1505783     -148.37204      936.69509      788.32304    
     25431   25431          292.76485     -3310.1747      12176.871      1.1497213     -87.073811      884.0212       796.94739    
Loop time of 79.9983 on 1 procs for 5000 steps with 1014 atoms

Performance: 5.400 ns/day, 4.444 hours/ns, 62.501 timesteps/s, 63.376 katom-step/s
85.6% CPU use with 1 MPI tasks x no OpenMP threads

MPI task timing breakdown:
Section |  min time  |  avg time  |  max time  |%varavg| %total
---------------------------------------------------------------
Pair    | 69.166     | 69.166     | 69.166     |   0.0 | 86.46
Bond    | 3.1001     | 3.1001     | 3.1001     |   0.0 |  3.88
Kspace  | 3.2455     | 3.2455     | 3.2455     |   0.0 |  4.06
Neigh   | 2.7497     | 2.7497     | 2.7497     |   0.0 |  3.44
Comm    | 0.43902    | 0.43902    | 0.43902    |   0.0 |  0.55
Output  | 0.0038812  | 0.0038812  | 0.0038812  |   0.0 |  0.00
Modify  | 1.1514     | 1.1514     | 1.1514     |   0.0 |  1.44
Other   |            | 0.143      |            |       |  0.18

Nlocal:           1014 ave        1014 max        1014 min
Histogram: 1 0 0 0 0 0 0 0 0 0
Nghost:          10115 ave       10115 max       10115 min
Histogram: 1 0 0 0 0 0 0 0 0 0
Neighs:         484863 ave      484863 max      484863 min
Histogram: 1 0 0 0 0 0 0 0 0 0

Total # of neighbors = 484863
Ave neighs/atom = 478.16864
Ave special neighs/atom = 6.7613412
Neighbor list builds = 108
Dangerous builds = 0
unfix           NPT_TRACE
unfix           NPT_EQ
write_restart   ${output_restart}
write_restart   ec_dmc_3_7_liclo4_1m_298K.npt.5.restart
System init for write_restart ...
PPPM initialization ...
  using 12-bit tables for long-range coulomb
  G vector (1/distance) = 0.21290792
  grid = 9 9 9
  stencil order = 5
  estimated absolute RMS force accuracy = 0.015912115
  estimated relative force accuracy = 4.7918862e-05
  using double precision FFTW3
  3d grid and FFT values/proc = 2744 729
Generated 28 of 28 mixed pair_coeff terms from arithmetic mixing rule
Total wall time: 0:01:20
