LAMMPS (22 Jul 2025 - Update 4)
# Restart continuation NPT chunk for composition tag=ec_dmc_3_7_liclo4_1m_298K
# Generated by scripts/curate_ff_md_data.py

read_restart    ${input_restart}
read_restart    ec_dmc_3_7_liclo4_1m_298K.npt.1.restart
Reading restart file ...
  restart file = 22 Jul 2025, LAMMPS = 22 Jul 2025
  restoring atom style full from restart
  orthogonal box = (-0.49993633 -0.46893633 -0.48893633) to (23.026028 23.057028 23.037028)
  1 by 2 by 2 MPI processor grid
  restoring pair style lj/cut/coul/long from restart
  restoring bond style harmonic from restart
  restoring angle style harmonic from restart
  restoring dihedral style opls from restart
  restoring improper style cvff from restart
  1014 atoms
  944 bonds
  1504 angles
  1452 dihedrals
  258 impropers
Finding 1-2 1-3 1-4 neighbors ...
  special bond factors lj:    0        0        0.5     
  special bond factors coul:  0        0        0.5     
     4 = max # of 1-2 neighbors
     5 = max # of 1-3 neighbors
     9 = max # of 1-4 neighbors
    11 = max # of special neighbors
  special bonds CPU = 0.001 seconds
  read_restart CPU = 0.010 seconds
kspace_style    pppm 1.0e-4
neighbor        2.0 bin
neigh_modify    every 1 delay 0 check yes
timestep        1.0

thermo_style    custom step time temp press vol density pe ke etotal
thermo          100
variable        tracked_temperature_K equal temp
variable        tracked_density_g_cm3 equal density
variable        tracked_volume_A3 equal vol
variable        tracked_pressure_atm equal press
fix             NPT_EQ all npt temp 298.15 298.15 100.0 iso 1.0 1.0 1000.0
fix             NPT_TRACE all ave/time 100 1 100 v_tracked_temperature_K v_tracked_density_g_cm3 v_tracked_volume_A3 v_tracked_pressure_atm file ${thermo_trace}
fix             NPT_TRACE all ave/time 100 1 100 v_tracked_temperature_K v_tracked_density_g_cm3 v_tracked_volume_A3 v_tracked_pressure_atm file npt_thermo.2.dat
run             5000
PPPM initialization ...
  using 12-bit tables for long-range coulomb
  G vector (1/distance) = 0.21128064
  grid = 9 9 9
  stencil order = 5
  estimated absolute RMS force accuracy = 0.016996546
  estimated relative force accuracy = 5.1184593e-05
  using double precision FFTW3
  3d grid and FFT values/proc = 1400 225
Generated 28 of 28 mixed pair_coeff terms from arithmetic mixing rule
Neighbor list info ...
  update: every = 1 steps, delay = 0 steps, check = yes
  max neighbors/atom: 2000, page size: 100000
  master list distance cutoff = 14
  ghost atom cutoff = 14
  binsize = 7, bins = 4 4 4
  1 neighbor lists, perpetual/occasional/extra = 1 0 0
  (1) pair lj/cut/coul/long, perpetual
      attributes: half, newton on
      pair build: half/bin/newton
      stencil: half/bin/3d
      bin: standard
Per MPI rank memory allocation (min/avg/max) = 13.36 | 13.36 | 13.36 Mbytes
   Step          Time           Temp          Press          Volume        Density         PotEng         KinEng         TotEng    
      5396   5396           298.40541      189.63692      13020.939      1.0751919     -75.542282      901.05322      825.51094    
      5400   5400           300.47762     -171.92003      13020.947      1.0751913     -81.464765      907.31038      825.84562    
      5500   5500           303.42719      2674.4205      13026.372      1.0747435     -86.964231      916.21678      829.25255    
      5600   5600           297.72701      447.02644      13053.843      1.0724818     -32.223109      899.00475      866.78164    
      5700   5700           304.7265       1894.6169      13131.237      1.0661607     -4.0798879      920.14013      916.06024    
      5800   5800           299.62597     -1439.538       13221.471      1.0588843     -13.192792      904.73876      891.54596    
      5900   5900           290.72882     -3664.0373      13221.678      1.0588678     -20.240522      877.87328      857.63276    
      6000   6000           288.20697     -1122.1074      13131.088      1.0661728     -25.579066      870.25842      844.67935    
      6100   6100           285.59618      358.40255      13076.656      1.0706108     -10.042406      862.37497      852.33257    
      6200   6200           303.97343      1755.6054      13010.045      1.0760922     -60.468967      917.86619      857.39722    
      6300   6300           300.29693      2492.4178      12960.134      1.0802364     -57.647012      906.76476      849.11775    
      6400   6400           289.9941       1534.8174      12931.719      1.08261       -76.522628      875.65477      799.13214    
      6500   6500           281.05605      1592.7727      12900.743      1.0852095     -82.341078      848.66576      766.32468    
      6600   6600           293.59905     -1005.8906      12902.601      1.0850532     -82.077478      886.54011      804.46263    
      6700   6700           299.55973      30.37281       12930.099      1.0827457     -69.335768      904.53875      835.20299    
      6800   6800           295.47285     -330.94484      13036.665      1.0738949     -42.407953      892.19817      849.79021    
      6900   6900           298.61675      2010.2922      13164.519      1.0634652     -45.28573       901.69137      856.40564    
      7000   7000           289.69627      1157.4571      13298.075      1.0527846     -10.229456      874.75544      864.52598    
      7100   7100           313.66622     -1498.5504      13352.073      1.0485269     -55.157618      947.13414      891.97653    
      7200   7200           311.44497     -560.77525      13325.635      1.0506073     -41.160317      940.42694      899.26662    
      7300   7300           307.26267     -1583.1859      13326.866      1.0505102     -39.476188      927.79825      888.32206    
      7400   7400           298.08985     -2262.1861      13225.214      1.0585846     -47.219327      900.10037      852.88104    
      7500   7500           284.31136      1123.3633      12998.134      1.0770783     -50.241477      858.49538      808.25391    
      7600   7600           286.03317      780.31253      12778.594      1.0955828     -45.683522      863.69448      818.01096    
      7700   7700           306.77029      1916.3734      12630.314      1.108445      -58.86665       926.31146      867.44481    
      7800   7800           307.31906      1214.8505      12629.203      1.1085425     -16.84733       927.96853      911.1212     
      7900   7900           320.32433      1275.0893      12744.294      1.0985315     -56.664428      967.23871      910.57428    
      8000   8000           296.59253     -1619.2489      12844.212      1.0899858     -51.329202      895.57913      844.24993    
      8100   8100           303.69572     -1351.3667      12901.998      1.0851039     -95.28217       917.02763      821.74546    
      8200   8200           303.31067     -1311.6872      12916.359      1.0838974     -75.546328      915.86494      840.31862    
      8300   8300           307.25244      1148.433       12895.37       1.0856616     -48.113609      927.76735      879.65374    
      8400   8400           304.06544      1514.2281      12870.346      1.0877725     -45.23861       918.14403      872.90542    
      8500   8500           285.25116      3204.396       12868.467      1.0879314     -53.497203      861.33317      807.83597    
      8600   8600           288.66637      7.261998       12854.483      1.0891148     -73.292963      871.64558      798.35262    
      8700   8700           296.77649     -1159.5015      12790.987      1.0945214     -73.760876      896.1346       822.37372    
      8800   8800           305.58541      1728.6104      12713.89       1.1011585     -84.360812      922.73365      838.37284    
      8900   8900           292.14322     -599.91697      12742.196      1.0987124     -42.181249      882.14415      839.96291    
      9000   9000           301.02247      873.59043      12817.261      1.0922777     -68.175683      908.95558      840.7799     
      9100   9100           287.82443      1484.7254      12879.54       1.086996      -49.524447      869.1033       819.57886    
      9200   9200           281.4407       494.91869      12924.191      1.0832406     -59.928805      849.82723      789.89843    
      9300   9300           300.47467     -1784.7003      12937.336      1.08214       -79.238493      907.30147      828.06298    
      9400   9400           295.27359      2088.1698      12901.61       1.0851365     -25.750648      891.59649      865.84584    
      9500   9500           305.98484      799.75635      12824.558      1.0916562     -52.869333      923.93976      871.07043    
      9600   9600           292.5232       3080.3402      12713.599      1.1011837     -52.010069      883.29151      831.28144    
      9700   9700           299.61699     -1011.6799      12667.933      1.1051533     -101.66554      904.71166      803.04611    
      9800   9800           280.59355      1439.4589      12624.123      1.1089886     -47.853847      847.26922      799.41537    
      9900   9900           301.83216     -549.69096      12625.593      1.1088595     -52.95363       911.4005       858.44687    
     10000   10000          308.08143      1334.9229      12605.951      1.1105872     -61.133665      930.27055      869.13688    
     10100   10100          294.48003      2445.9536      12614.648      1.1098215     -49.434073      889.20028      839.76621    
     10200   10200          292.54916      4049.1053      12673.479      1.1046697     -79.526742      883.36991      803.84317    
     10300   10300          287.15517     -1531.4723      12749.755      1.098061      -78.644876      867.08243      788.43756    
     10396   10396          294.02422     -645.64958      12763.934      1.0968411     -64.614055      887.82394      823.20989    
Loop time of 25.2103 on 4 procs for 5000 steps with 1014 atoms

Performance: 17.136 ns/day, 1.401 hours/ns, 198.332 timesteps/s, 201.108 katom-step/s
86.6% CPU use with 4 MPI tasks x no OpenMP threads

MPI task timing breakdown:
Section |  min time  |  avg time  |  max time  |%varavg| %total
---------------------------------------------------------------
Pair    | 15.663     | 17.01      | 18.282     |  23.6 | 67.47
Bond    | 0.76008    | 0.79996    | 0.86642    |   4.5 |  3.17
Kspace  | 3.5053     | 4.7351     | 6.1051     |  44.3 | 18.78
Neigh   | 0.78016    | 0.78093    | 0.78178    |   0.1 |  3.10
Comm    | 1.1233     | 1.1265     | 1.1309     |   0.3 |  4.47
Output  | 0.0099693  | 0.010743   | 0.011274   |   0.5 |  0.04
Modify  | 0.45768    | 0.51252    | 0.57079    |   5.6 |  2.03
Other   |            | 0.2348     |            |       |  0.93

Nlocal:          253.5 ave         255 max         253 min
Histogram: 3 0 0 0 0 0 0 0 0 1
Nghost:        6161.75 ave        6215 max        6100 min
Histogram: 1 0 0 0 1 0 1 0 0 1
Neighs:         115626 ave      125552 max      105958 min
Histogram: 1 0 0 1 0 0 1 0 0 1

Total # of neighbors = 462503
Ave neighs/atom = 456.11736
Ave special neighs/atom = 6.7613412
Neighbor list builds = 122
Dangerous builds = 0
unfix           NPT_TRACE
unfix           NPT_EQ
write_restart   ${output_restart}
write_restart   ec_dmc_3_7_liclo4_1m_298K.npt.2.restart
System init for write_restart ...
PPPM initialization ...
  using 12-bit tables for long-range coulomb
  G vector (1/distance) = 0.21176566
  grid = 9 9 9
  stencil order = 5
  estimated absolute RMS force accuracy = 0.016666847
  estimated relative force accuracy = 5.0191716e-05
  using double precision FFTW3
  3d grid and FFT values/proc = 1400 225
Generated 28 of 28 mixed pair_coeff terms from arithmetic mixing rule
Total wall time: 0:00:25
