LAMMPS (22 Jul 2025 - Update 4)
# Initial NPT chunk for composition tag=ec_dmc_3_7_liclo4_1m_298K
# Generated by scripts/curate_ff_md_data.py

units           real
boundary        p p p
atom_style      full
bond_style      harmonic
angle_style     harmonic
dihedral_style  opls
improper_style  cvff

pair_style      lj/cut/coul/long 12.0 12.0
pair_modify     mix arithmetic
special_bonds   lj/coul 0.0 0.0 0.5

read_data       ec_dmc_3_7_liclo4_1m_298K.lmp
Reading data file ...
  triclinic box = (-0.075000003 -0.044 -0.064000003) to (22.601092 22.632092 22.612092) with tilt (0 0 0)
  1 by 2 by 2 MPI processor grid
  reading atoms ...
  1014 atoms
  scanning bonds ...
  4 = max bonds/atom
  scanning angles ...
  6 = max angles/atom
  scanning dihedrals ...
  10 = max dihedrals/atom
  scanning impropers ...
  1 = max impropers/atom
  triclinic box = (-0.075000003 -0.044 -0.064000003) to (22.601092 22.632092 22.612092) with tilt (0 0 0)
  1 by 2 by 2 MPI processor grid
  reading bonds ...
  944 bonds
  reading angles ...
  1504 angles
  reading dihedrals ...
  1452 dihedrals
  reading impropers ...
  258 impropers
Finding 1-2 1-3 1-4 neighbors ...
  special bond factors lj:    0        0        0.5     
  special bond factors coul:  0        0        0.5     
     4 = max # of 1-2 neighbors
     5 = max # of 1-3 neighbors
     9 = max # of 1-4 neighbors
    11 = max # of special neighbors
  special bonds CPU = 0.001 seconds
  read_data CPU = 0.042 seconds

# openff-interchange writes the box as triclinic with zero tilt; PPPM stalls
# indefinitely in triclinic mode on this brew LAMMPS build, but works fine
# after change_box all ortho converts the zero-tilt box to orthogonal.
change_box      all ortho
Changing box ...
  orthogonal box = (-0.075000003 -0.044 -0.064000003) to (22.601092 22.632092 22.612092)
kspace_style    pppm 1.0e-4

min_style       cg
minimize        1.0e-4 1.0e-6 10000 100000
PPPM initialization ...
  using 12-bit tables for long-range coulomb
  G vector (1/distance) = 0.2053055
  grid = 8 8 8
  stencil order = 5
  estimated absolute RMS force accuracy = 0.025704958
  estimated relative force accuracy = 7.7409719e-05
  using double precision FFTW3
  3d grid and FFT values/proc = 1053 128
Generated 28 of 28 mixed pair_coeff terms from arithmetic mixing rule
Neighbor list info ...
  update: every = 1 steps, delay = 0 steps, check = yes
  max neighbors/atom: 2000, page size: 100000
  master list distance cutoff = 14
  ghost atom cutoff = 14
  binsize = 7, bins = 4 4 4
  1 neighbor lists, perpetual/occasional/extra = 1 0 0
  (1) pair lj/cut/coul/long, perpetual
      attributes: half, newton on
      pair build: half/bin/newton
      stencil: half/bin/3d
      bin: standard
Per MPI rank memory allocation (min/avg/max) = 14.1 | 14.38 | 14.48 Mbytes
   Step          Temp          E_pair         E_mol          TotEng         Press     
         0   0              4080.6936      20393.221      24473.915      138637.76    
       396   0             -3625.204       3147.3501     -477.85386      5708.1063    
Loop time of 5.9765 on 4 procs for 396 steps with 1014 atoms

88.2% CPU use with 4 MPI tasks x no OpenMP threads

Minimization stats:
  Stopping criterion = energy tolerance
  Energy initial, next-to-last, final = 
      24473.9146539013   -477.82480921458   -477.85385677057
  Force two-norm initial, final = 7419.9526 107.75356
  Force max component initial, final = 1352.5546 30.778076
  Final line search alpha, max atom move = 0.00078574912 0.024183846
  Iterations, force evaluations = 396 795

MPI task timing breakdown:
Section |  min time  |  avg time  |  max time  |%varavg| %total
---------------------------------------------------------------
Pair    | 4.1369     | 4.5948     | 4.8979     |  13.2 | 76.88
Bond    | 0.11682    | 0.13554    | 0.14928    |   3.2 |  2.27
Kspace  | 0.62956    | 0.93193    | 1.4139     |  30.6 | 15.59
Neigh   | 0.071082   | 0.071205   | 0.071362   |   0.0 |  1.19
Comm    | 0.18386    | 0.19158    | 0.19636    |   1.1 |  3.21
Output  | 0          | 0          | 0          |   0.0 |  0.00
Modify  | 0          | 0          | 0          |   0.0 |  0.00
Other   |            | 0.05147    |            |       |  0.86

Nlocal:          253.5 ave         263 max         240 min
Histogram: 1 0 0 0 0 1 0 1 0 1
Nghost:        6482.75 ave        6542 max        6430 min
Histogram: 1 0 1 0 0 0 1 0 0 1
Neighs:         126508 ave      132791 max      119467 min
Histogram: 1 0 0 1 0 0 0 1 0 1

Total # of neighbors = 506030
Ave neighs/atom = 499.04339
Ave special neighs/atom = 6.7613412
Neighbor list builds = 10
Dangerous builds = 0
velocity        all create 298.15 130369 dist gaussian
neighbor        2.0 bin
neigh_modify    every 1 delay 0 check yes
timestep        1.0

thermo_style    custom step time temp press vol density pe ke etotal
thermo          100
variable        tracked_temperature_K equal temp
variable        tracked_density_g_cm3 equal density
variable        tracked_volume_A3 equal vol
variable        tracked_pressure_atm equal press
fix             NPT_EQ all npt temp 298.15 298.15 100.0 iso 1.0 1.0 1000.0
fix             NPT_TRACE all ave/time 100 1 100 v_tracked_temperature_K v_tracked_density_g_cm3 v_tracked_volume_A3 v_tracked_pressure_atm file ${thermo_trace}
fix             NPT_TRACE all ave/time 100 1 100 v_tracked_temperature_K v_tracked_density_g_cm3 v_tracked_volume_A3 v_tracked_pressure_atm file npt_thermo.1.dat
run             5000
PPPM initialization ...
  using 12-bit tables for long-range coulomb
  G vector (1/distance) = 0.2053055
  grid = 8 8 8
  stencil order = 5
  estimated absolute RMS force accuracy = 0.025704958
  estimated relative force accuracy = 7.7409719e-05
  using double precision FFTW3
  3d grid and FFT values/proc = 1053 128
Generated 28 of 28 mixed pair_coeff terms from arithmetic mixing rule
Per MPI rank memory allocation (min/avg/max) = 13.35 | 13.35 | 13.36 Mbytes
   Step          Time           Temp          Press          Volume        Density         PotEng         KinEng         TotEng    
       396   396            298.15         9237.5544      11660.163      1.2006701     -477.85386      900.28199      422.42813    
       400   400            172.75606      6470.8717      11660.824      1.2006019     -80.425062      521.64739      441.22232    
       500   500            184.93515      1324.1743      12021.438      1.1645869     -54.548045      558.42289      503.87485    
       600   600            247.54877     -47.581233      12604.361      1.1107273     -114.3175       747.48849      633.17099    
       700   700            285.65347     -168.81492      12972.304      1.079223      -75.363003      862.54796      787.18496    
       800   800            296.00737     -792.46281      13283.086      1.0539726      23.567119      893.81217      917.37929    
       900   900            310.96212     -834.34898      13557.914      1.0326078      71.240177      938.96897      1010.2091    
      1000   1000           313.99823     -415.55679      13788.521      1.0153379      78.938338      948.13666      1027.075     
      1100   1100           284.30521     -655.11654      13978.992      1.0015034      133.33791      858.4768       991.81471    
      1200   1200           279.49965     -1300.6151      14173.176      0.98778201     134.67845      843.96614      978.64458    
      1300   1300           294.80569     -1104.9813      14325.978      0.97724628     119.09933      890.18364      1009.283     
      1400   1400           302.47096     -1691.591       14432.705      0.97001968     140.82301      913.32939      1054.1524    
      1500   1500           299.10326     -2634.5008      14479.861      0.96686069     141.12911      903.16042      1044.2895    
      1600   1600           295.53533     -2883.3584      14408.587      0.97164337     116.36279      892.38682      1008.7496    
      1700   1700           292.6582      -723.50059      14273.828      0.98081667     108.91705      883.69915      992.61621    
      1800   1800           294.7178      -1123.8513      14094.213      0.9933161      129.40923      889.91826      1019.3275    
      1900   1900           297.16243     -659.32317      13873.641      1.0091085      128.74544      897.29996      1026.0454    
      2000   2000           307.01892      583.38618      13725.82       1.0199761      72.972904      927.06223      1000.0351    
      2100   2100           298.06069      1260.9403      13667.31       1.0243426      50.343495      900.01231      950.35581    
      2200   2200           281.87215      798.02773      13652.365      1.025464       61.571046      851.13002      912.70107    
      2300   2300           291.62044     -1868.2087      13684.566      1.023051       52.045741      880.56559      932.61133    
      2400   2400           310.06983      946.69198      13691.884      1.0225042      40.00248       936.27465      976.27713    
      2500   2500           312.16543      1280.9855      13732.827      1.0194556      43.97604       942.60241      986.57845    
      2600   2600           298.52564     -199.0361       13776.467      1.0162263      49.054888      901.41625      950.47114    
      2700   2700           297.49184      85.401349      13804.86       1.0141362      14.867826      898.29464      913.16247    
      2800   2800           287.29385      412.00657      13792.229      1.015065       41.650592      867.50119      909.15178    
      2900   2900           299.0918      -429.41222      13779.979      1.0159673      38.056495      903.12581      941.18231    
      3000   3000           298.55354     -963.36384      13793.142      1.0149978      75.33338       901.5005       976.83388    
      3100   3100           312.03793      1456.4142      13864.748      1.0097557      33.289414      942.21744      975.50686    
      3200   3200           296.04888     -1484.0146      13925.142      1.0053764      8.6563633      893.93754      902.5939     
      3300   3300           293.83542      58.686378      13864.93       1.0097424      7.0254352      887.25384      894.27927    
      3400   3400           298.00878     -945.24406      13798.733      1.0145865      38.346066      899.85556      938.20162    
      3500   3500           301.70835      1780.3627      13767.539      1.0168854      37.988854      911.02665      949.01551    
      3600   3600           295.95368     -928.49336      13727.503      1.0198511      46.944113      893.65007      940.59418    
      3700   3700           292.80118      225.88605      13660.027      1.0248888      21.384554      884.13091      905.51546    
      3800   3800           291.88772     -768.83444      13588.277      1.0303005     -13.279252      881.37265      868.0934     
      3900   3900           306.28008     -26.547128      13577.853      1.0310915     -28.001119      924.83124      896.83012    
      4000   4000           302.45078     -2565.5651      13626.159      1.0274361      19.524508      913.26847      932.79297    
      4100   4100           304.8668       194.001        13710.187      1.0211391      33.134958      920.56377      953.69872    
      4200   4200           292.36716     -626.15242      13771.694      1.0165785      6.1594346      882.82035      888.97979    
      4300   4300           284.69418     -2431.2673      13748.098      1.0183233      1.8490632      859.65132      861.50038    
      4400   4400           294.50512     -356.00556      13604.18       1.0290961     -9.9098352      889.27607      879.36623    
      4500   4500           307.20507     -649.97684      13480.054      1.0385721     -15.006538      927.62431      912.61777    
      4600   4600           310.64679     -304.82368      13394.209      1.0452285     -7.7921863      938.01681      930.22462    
      4700   4700           297.90221      111.97992      13369.745      1.047141      -4.6992098      899.53376      894.83455    
      4800   4800           294.82885      744.54197      13346.679      1.0489507     -42.944634      890.25359      847.30896    
      4900   4900           303.31191      860.08305      13283.791      1.0539167     -66.260314      915.8687       849.60839    
      5000   5000           294.49764      11.067301      13203.141      1.0603544     -36.846367      889.25347      852.40711    
      5100   5100           307.57216      2774.6555      13119.925      1.0670799     -69.334137      928.73276      859.39862    
      5200   5200           297.72362     -667.62049      13084.778      1.0699462     -85.540884      898.9945       813.45362    
      5300   5300           291.25857     -642.41806      13051.642      1.0726626     -81.383528      879.47291      798.08938    
      5396   5396           298.40541      189.55525      13020.939      1.0751919     -75.604887      901.05322      825.44834    
Loop time of 23.6703 on 4 procs for 5000 steps with 1014 atoms

Performance: 18.251 ns/day, 1.315 hours/ns, 211.236 timesteps/s, 214.193 katom-step/s
86.9% CPU use with 4 MPI tasks x no OpenMP threads

MPI task timing breakdown:
Section |  min time  |  avg time  |  max time  |%varavg| %total
---------------------------------------------------------------
Pair    | 15.012     | 15.78      | 16.94      |  17.9 | 66.67
Bond    | 0.73561    | 0.79829    | 0.85836    |   6.2 |  3.37
Kspace  | 3.4212     | 4.5166     | 5.2224     |  31.4 | 19.08
Neigh   | 0.83155    | 0.8362     | 0.84126    |   0.5 |  3.53
Comm    | 1.0915     | 1.1074     | 1.1215     |   1.1 |  4.68
Output  | 0.0061618  | 0.008612   | 0.0095111  |   1.5 |  0.04
Modify  | 0.45106    | 0.45419    | 0.46239    |   0.7 |  1.92
Other   |            | 0.1688     |            |       |  0.71

Nlocal:          253.5 ave         266 max         232 min
Histogram: 1 0 0 0 0 0 0 1 1 1
Nghost:        6101.75 ave        6125 max        6064 min
Histogram: 1 0 0 0 0 0 1 0 1 1
Neighs:         113197 ave      119984 max      106871 min
Histogram: 2 0 0 0 0 0 0 0 1 1

Total # of neighbors = 452787
Ave neighs/atom = 446.5355
Ave special neighs/atom = 6.7613412
Neighbor list builds = 128
Dangerous builds = 0
unfix           NPT_TRACE
unfix           NPT_EQ
write_restart   ${output_restart}
write_restart   ec_dmc_3_7_liclo4_1m_298K.npt.1.restart
System init for write_restart ...
PPPM initialization ...
  using 12-bit tables for long-range coulomb
  G vector (1/distance) = 0.21128064
  grid = 9 9 9
  stencil order = 5
  estimated absolute RMS force accuracy = 0.016996546
  estimated relative force accuracy = 5.1184593e-05
  using double precision FFTW3
  3d grid and FFT values/proc = 1400 225
Generated 28 of 28 mixed pair_coeff terms from arithmetic mixing rule
Total wall time: 0:00:29
