LAMMPS data file via write_data, version 22 Jul 2025, timestep = 540447, units = real

1078 atoms
7 atom types
1021 bonds
7 bond types
1628 angles
9 angle types
1658 dihedrals
15 dihedral types
336 impropers
1 improper types

-0.042524927591525596 23.26473714750149 xlo xhi
-0.04552492994100099 23.261737147500767 ylo yhi
-0.09652493750008873 23.210737147500687 zlo zhi

Masses

1 12.01078
2 15.99943
3 12.01078
4 15.99943
5 1.007947
6 6.9412
7 10.8117

Pair Coeffs # lj/cut/coul/long

1 0.108841 3.37953
2 0.168465 3.02511
3 0.0868793 3.48065
4 0.210206 3.03981
5 0.0164092 2.58323
6 0.0279896 1.82634
7 0.095 3.42105

Bond Coeffs # harmonic

1 215.301 1.53363
2 227.037 1.43632
3 357.819 1.09421
4 291.342 1.35606
5 762.039 1.225
6 267.429 1.46787
7 215 1.48

Angle Coeffs # harmonic

1 91.5186 108.173
2 66.7563 109.938
3 63.31 123.606
4 36.7766 108.354
5 119.896 112.874
6 84.5477 120.105
7 50.9018 124.802
8 55 120
9 50 109.5

Dihedral Coeffs # opls

1 1 0.111303 3 0
2 1 0.438911 1 180
3 1 1.76361 2 180
4 1 -0.0153377 3 0
5 1 0.41915 2 0
6 1 0.131135 3 0
7 1 0.436547 1 0
8 1 0.263111 3 0
9 1 0.227995 3 0
10 1 0.302195 2 180
11 1 1.35005 1 180
12 1 3.48187 2 180
13 1 1.04276 2 180
14 1 0.2 3 0
15 1 1 2 180

Improper Coeffs # cvff

1 4.30523 -1 2

Atoms # full

83 9 2 -0.4048 5.6125967654832 4.556311218547007 7.522150319230896 0 0 0
84 9 3 0.8478 6.228764705537304 5.366775207688057 8.516538534094835 0 0 0
85 9 4 -0.5484 6.692228917580117 6.492599481240706 8.28839663366914 0 0 0
86 9 2 -0.4048 6.19483307556171 4.84251588704292 9.734374097331548 0 0 0
460 44 1 0.1266165 6.178083715219377 5.983522400822983 4.876618301325314 0 0 0
82 9 1 0.0955 5.233724216115941 3.4036579387754617 8.223911530738357 0 0 0
464 44 5 0.0582835 5.775403543018929 6.093897884510575 5.900131675250487 0 0 0
81 9 1 0.0955 5.581653572709071 3.5717982570138025 9.661771282814463 0 0 0
440 42 5 0.0582835 4.482466119035411 8.415449116110524 7.485145599683458 0 0 0
90 9 5 0.0798 4.335830888989651 2.822128215186748 8.074326360300748 0 0 0
442 42 5 0.0582835 4.666947974559355 9.322399448397436 6.006730744241513 0 0 0
436 42 1 0.1266165 4.046602481026164 9.234337747990285 6.926892279079874 0 0 0
435 42 2 -0.3889835 4.162676594983084 10.482344002895248 7.710023806522055 0 0 0
441 42 5 0.0582835 2.980675028312345 9.02634959395817 6.713764563421248 0 0 0
433 42 3 0.7551165 5.419205381520946 10.738682271837389 8.153253411883549 0 0 0
393 38 5 0.0582835 2.5377900252710535 5.556877847970244 8.175659775474504 1 0 0
434 42 4 -0.5800835 6.379534289812119 9.99619767043628 7.925437547143723 0 0 0
465 44 5 0.0582835 5.5649535180333345 5.339429587673833 4.236248471072829 0 0 0
387 38 2 -0.3889835 2.2301019523697505 3.9204025911086537 7.051520741617423 1 0 0
685 63 3 0.7551165 2.9563975637337485 7.263843663228417 3.2640774328206112 0 0 0
384 38 2 -0.3889835 1.9392627259609059 2.11873413853331 5.772000915233764 1 0 0
388 38 1 0.1266165 1.7371137056947814 5.005854798879481 7.813702216020816 1 0 0
385 38 3 0.7551165 1.273482342123057 3.112539758791074 6.480171630962716 1 0 0
392 38 5 0.0582835 1.1508892551291625 4.634312229119517 8.7353775002816 1 0 0
459 44 2 -0.3889835 6.170409923183788 7.319791693192957 4.25247570141326 0 0 0
88 9 5 0.0798 4.641494079208267 3.5979945914284484 10.176832002625515 0 0 0
686 63 4 -0.5800835 2.655427677253679 7.431032161903802 4.483111327511639 0 0 0
383 38 1 0.1266165 1.0960106223752635 1.1205649586305513 5.059546326765937 1 0 0
687 63 2 -0.3889835 2.8962389964906397 6.099225664517572 2.469657704494649 0 0 0
700 64 1 0.1266165 4.9913519860969275 2.1471224984482187 3.9778067558443646 0 0 1
705 64 5 0.0582835 4.075941724651415 2.690956341673896 4.3310173752293215 0 0 1
688 63 1 0.1266165 2.391892247166884 4.964468880610382 3.205701257443578 0 0 0
693 63 5 0.0582835 3.0552094041831217 4.74472016375267 3.9923122166974707 0 0 0
689 63 5 0.0582835 4.2226357719704435 9.538698734742791 4.038016771222867 0 0 0
684 63 2 -0.3889835 3.441781170356179 8.288913204824182 2.4945245041247253 0 0 0
683 63 1 0.1266165 3.6053211257160647 9.580540438377207 3.0980311986818756 0 0 0
692 63 5 0.0582835 2.1720693347438544 4.071608498093376 2.605568055742216 0 0 0
691 63 5 0.0582835 2.591763056960269 9.983324260163883 3.3473019172500393 0 0 0
457 44 3 0.7551165 6.9464291446991036 8.333643900002182 4.778321547875996 0 0 0
456 44 2 -0.3889835 6.959426935343633 9.548398485319165 4.1699017828733504 0 0 0
819 74 2 -0.3889835 0.8418617003715598 2.4422357985863767 10.66156615904852 0 1 0
690 63 5 0.0582835 4.091670854968814 10.233510955746235 2.4072500895941578 0 0 0
466 44 5 0.0582835 7.186942788707929 5.617975348143188 4.8798055286503965 0 0 0
458 44 4 -0.5800835 7.648042595209798 8.137522711393386 5.762932907028958 0 0 0
928 83 1 0.1266165 18.95027642520217 9.440983779647583 10.924161247750261 0 0 0
135 14 4 -0.5484 3.789925975060521 2.5875052874666524 0.5647304597053325 1 0 1
355 35 5 0.0582835 5.735073270572362 6.397327565417237 1.7754628673478943 1 1 0
347 35 1 0.1266165 6.597888333738046 6.692367788139207 1.1551040587485382 1 1 0
349 35 3 0.7551165 7.49935882772939 4.49784162801065 0.8849313804388445 1 1 0
350 35 4 -0.5800835 7.5056422624492045 4.447264927943208 2.1293185620192574 1 1 0
1068 100 2 -0.58 5.855746551808533 8.610913213030983 10.691902618908275 0 0 0
89 9 5 0.0798 5.958406053580406 2.703071677197196 7.790665038202415 0 0 0
354 35 5 0.0582835 6.279263009943482 7.560748435907991 0.5303230174830601 1 1 0
87 9 5 0.0798 5.975907148125592 2.6258387094337423 10.149813904653834 0 0 0
694 63 5 0.0582835 1.3797598240874676 5.210043092196843 3.652606797107075 0 0 0
394 38 5 0.0582835 1.0732990441568615 5.662371979353044 7.2933683801267 1 0 0
1067 100 3 0.66 7.1882247580572844 8.327742765376083 10.889160064756698 0 0 0
386 38 4 -0.5800835 0.05065530965819908 3.276144126889277 6.584005640016509 1 0 0
348 35 2 -0.3889835 7.036123720993868 5.649509695181074 0.25525400242022867 1 1 0
1073 100 2 -0.58 4.047327309835473 7.001879357673792 10.650726287325629 0 0 0
816 74 2 -0.3889835 1.1253530612223013 0.7883446529237532 9.097088026722524 0 1 0
706 64 5 0.0582835 5.722998564766852 2.2981652472890577 4.786476509162682 0 0 1
1075 100 4 -0.58 1.7798591601118448 6.882381668880257 10.387648370193931 0 0 0
463 44 5 0.0582835 7.54137760775793 10.669869099643508 5.83123607055964 0 0 0
817 74 3 0.7551165 1.7301604701737356 1.5562944117851572 10.110459325541512 0 1 0
353 35 5 0.0582835 7.3880374473362505 7.077460418332771 1.75084268831358 1 1 0
818 74 4 -0.5800835 2.9034111256104134 1.4557042384430814 10.428451880731348 0 1 0
741 67 5 0.0582835 1.9351777460804387 10.81637624621592 1.2544947246999052 0 0 0
317 32 5 0.0582835 1.3171558622520374 5.833926512929049 0.5365097206226962 1 0 0
736 67 1 0.1266165 1.000107413257034 11.383432989795793 1.2512384544927966 0 0 0
885 79 5 0.0582835 12.039020033646459 0.2886432070957531 6.687394249382772 0 0 0
523 49 5 0.0582835 0.6000422387225691 10.12376520219897 9.71967330081351 1 0 0
824 74 5 0.0582835 1.9861311485696784 4.083420617991878 11.399854191010784 0 1 0
704 64 5 0.0582835 5.323670976625173 2.577152050627989 3.0245847628838973 0 0 1
798 72 5 0.0582835 15.47447978010628 11.179719690785454 8.607854823942796 0 0 0
742 67 5 0.0582835 0.5658514522044504 10.917676702753132 2.0501493528574026 0 0 0
1074 100 3 0.66 2.7367481476090183 7.375079748604104 10.930410139255663 0 0 0
455 44 1 0.1266165 7.788261266103542 10.513348997566082 4.7940242412216305 0 0 0
462 44 5 0.0582835 7.931958916601566 11.428340383505281 4.208837217394936 0 0 0
570 53 5 0.0582835 7.117018129943776 10.366869329401798 1.12139345819935 0 0 1
582 54 5 0.0582835 2.5011925745818924 11.3919825004708 5.329471890319186 1 -1 0
308 31 5 0.0798 12.900933194724423 11.025975621018851 9.900747477509274 -1 0 0
220 22 5 0.0798 0.01676799088695981 0.8103005082555661 2.019533467867742 0 1 0
894 80 5 0.0582835 5.7995558639578775 0.395443060136181 0.8626616629857985 0 0 1
314 32 4 -0.5800835 23.248854327137096 8.009532463154459 1.449097556250619 0 0 0
439 42 5 0.0582835 7.321144254310501 11.542267916600277 10.11631734070757 0 0 0
974 87 4 -0.5800835 16.145593374477006 7.304895581883274 10.7706504768206 0 0 0
391 38 5 0.0582835 0.5032191434216108 0.5260526948404357 5.751955934758574 1 0 0
68 7 5 0.0798 13.878999998306234 3.4027852497184767 -0.0579146187029453 0 0 0
136 14 2 -0.4048 1.6999518034413679 2.19361568999298 0.0019452376955447755 1 0 1
208 21 5 0.0798 12.456040654945545 9.918148585390387 6.277102387556383 0 0 0
356 35 5 0.0582835 7.670691304647019 1.733274796594876 1.333367485396605 1 1 0
569 53 5 0.0582835 8.228346964165608 10.147944583859925 0.006382907947808049 0 0 1
849 76 5 0.0582835 16.563891761889323 0.14255565671123582 7.580297437124803 0 0 0
69 7 5 0.0798 13.009168046140113 0.9713603470758787 0.8112952365143395 0 0 0
681 62 5 0.0582835 11.78181760871184 0.8247724268831407 9.711982934711024 0 1 0
839 76 1 0.1266165 18.14582892831838 5.4938191029140775 8.468274433430846 0 0 0
995 89 6 1 8.03630722357124 8.58320129264831 7.8944171158354095 0 0 0
202 21 1 0.0955 12.133268478047311 10.790333082246105 4.349812685019525 0 0 0
1066 100 4 -0.58 8.134607235875892 8.877676952064059 10.324591674284845 0 0 0
1056 99 7 1 15.284663739297693 7.535951767792108 0.16004247887558573 0 0 1
352 35 1 0.1266165 8.488029586324854 2.251748599770887 0.8854912150706775 1 1 0
563 53 1 0.1266165 8.169262753173285 10.322059050588152 1.0401874787934318 0 0 1
989 88 5 0.0582835 7.1234684158019235 0.002811478917090996 6.819122297835036 0 0 0
877 79 3 0.7551165 14.551477009577972 1.857181238407158 5.411184385906643 0 0 0
357 35 5 0.0582835 8.830212045812525 1.457628841774248 0.20799879682654843 1 1 0
70 7 5 0.0798 14.387488476851873 1.877725876070106 1.5130184383191174 0 0 0
358 35 5 0.0582835 9.304940181784128 2.5502751919139484 1.581333489425049 1 1 0
1065 99 2 -0.58 15.310083583480392 6.861346804231187 1.532954436495519 0 0 1
61 7 1 0.0955 13.062944773242227 3.0913098566653945 0.5158204530280632 0 0 0
461 44 5 0.0582835 8.793863339658278 10.189620512309501 4.742083960975801 0 0 0
305 31 4 -0.5484 9.262470077145839 10.42867881819734 7.737319026215865 -1 0 0
981 87 5 0.0582835 13.735221522054509 8.449798770958227 8.188724527765848 0 0 0
980 87 5 0.0582835 14.389690598557104 7.060607186381427 8.844329039195044 0 0 0
564 53 2 -0.3889835 8.717129713071381 9.2337940063477 1.8486801402638144 0 0 1
572 53 5 0.0582835 12.564622125252928 8.345127972801066 2.3779170126277327 0 0 1
730 66 5 0.0582835 9.783704494407473 6.666465352046891 10.561034497670727 0 0 0
573 53 5 0.0582835 12.223062153114672 6.590454233196869 2.692279384099144 0 0 1
63 7 2 -0.4048 12.717290490254943 2.201502373442895 2.646583448271419 0 0 0
942 84 5 0.0582835 8.748981711523108 3.162794531173619 4.254192792336242 0 0 0
943 84 5 0.0582835 10.151666242790927 2.433092203996205 5.0507656795209925 0 0 0
935 84 1 0.1266165 9.048345855120338 2.703766753559175 5.172623456394347 0 0 0
936 84 2 -0.3889835 8.844951788471489 3.6278529893695004 6.301176699286797 0 0 0
944 84 5 0.0582835 10.442759353152628 3.2415718769804096 9.89787229977109 0 0 0
945 84 5 0.0582835 9.031165728722511 4.358786002195675 10.598728409503432 0 0 0
938 84 4 -0.5800835 9.629342892616048 1.992342056584815 7.771165351438122 0 0 0
568 53 1 0.1266165 11.904318417303092 7.500626975284071 2.0918393775169535 0 0 1
727 66 5 0.0582835 9.565641100715883 6.533543587424289 5.757987454699453 0 0 0
940 84 1 0.1266165 9.32609220471397 3.5370224873882945 9.857514758840631 0 0 0
304 31 3 0.8478 10.06953898554615 10.901201563717391 8.491818867280633 -1 0 0
722 66 4 -0.5800835 9.626604221303397 7.555759879429751 8.23048932516063 0 0 0
723 66 2 -0.3889835 11.414195720620164 6.5829293506147 9.211740864317505 0 0 0
721 66 3 0.7551165 10.731670760906166 6.926543412050358 8.14284048431352 0 0 0
719 66 1 0.1266165 10.59372430788344 6.928318527000829 5.775443824605467 0 0 0
725 66 5 0.0582835 10.449406704923927 8.03658939851553 5.6814121253488 0 0 0
720 66 2 -0.3889835 11.304514491431888 6.547795162137501 6.948673374915117 0 0 0
726 66 5 0.0582835 11.08751236225823 6.524186087001662 4.926109081660222 0 0 0
15 2 4 -0.5484 15.262115155249381 9.220806339177374 5.535756912235792 0 0 0
13 2 2 -0.4048 14.284721208445522 7.386517041292458 4.671202068931163 0 0 0
14 2 3 0.8478 15.194632421823636 8.00660323326738 5.441783090757737 0 0 0
12 2 1 0.0955 14.452374459902533 5.960443405014364 4.803488399861852 0 0 0
946 84 5 0.0582835 8.771498219591273 2.673819394162537 10.155551129327288 0 0 0
937 84 3 0.7551165 9.179731455383886 3.1439198846079544 7.5151162390169075 0 0 0
939 84 2 -0.3889835 8.979919625130831 4.009743148643704 8.517911643533758 0 0 0
20 2 5 0.0798 13.652662616010144 5.608845583026928 5.334234361881794 0 0 0
574 53 5 0.0582835 12.066529023004183 7.192341255771791 1.0775599241315694 0 0 1
64 7 3 0.8478 12.17262502910272 3.4668095775887644 2.5689962281289853 0 0 0
65 7 4 -0.5484 11.649613601600564 3.9973759975334318 3.468923632702401 0 0 0
941 84 5 0.0582835 8.484494806963731 1.777642014478615 5.380976928743098 0 0 0
567 53 2 -0.3889835 10.522947168055634 7.839890467222944 2.386450020284131 0 0 1
724 66 1 0.1266165 10.796616375687295 6.993682018324312 10.496800343228747 0 0 0
565 53 3 0.7551165 9.99249335190533 8.841068954068051 1.6649910268791546 0 0 1
729 66 5 0.0582835 10.88821200106424 8.136751298805494 10.536720919086706 0 0 0
19 2 5 0.0798 14.527148896451694 5.382106880510049 3.868352362399673 0 0 0
566 53 4 -0.5800835 10.629329285061745 9.457744953515093 0.8014425610384199 0 0 1
306 31 2 -0.4048 11.168388637527004 10.205159401651796 8.989136480349655 -1 0 0
301 31 1 0.0955 11.853457357542375 11.110281903969248 9.906489572241385 -1 0 0
16 2 2 -0.4048 16.002389143841892 7.106621643388038 6.121729847568604 0 0 0
18 2 5 0.0798 15.393548697272808 5.094027562218501 6.566018540149891 0 0 0
11 2 1 0.0955 15.630439403986639 5.727031001654185 5.783890639966628 0 0 0
976 87 1 0.1266165 14.565652598366972 8.075118962586178 8.772452178870422 0 0 0
975 87 2 -0.3889835 14.493217185546163 8.723644439983481 10.112717062568224 0 0 0
66 7 2 -0.4048 12.335232847162414 4.0453915070449264 1.3357947666418621 0 0 0
62 7 1 0.0955 13.326074668837718 1.91356616637426 1.3451318766866645 0 0 0
307 31 5 0.0798 11.468160366933658 10.595887091868473 10.771080415124077 -1 0 0
728 66 5 0.0582835 11.35128466080503 6.524534462618941 11.307089662735828 0 0 0
351 35 2 -0.3889835 7.9704822487922415 3.4607888153548663 0.13891874620185718 1 1 0
210 21 5 0.0798 11.704138246943321 9.80223398127936 4.147800588423531 0 0 0
879 79 2 -0.3889835 13.859917624358706 0.78792696878538 5.833038314915594 0 0 0
878 79 4 -0.5800835 14.263972745970554 3.0152941506386473 5.547678036998574 0 0 0
882 79 5 0.0582835 17.46640882110271 2.3525854339220382 3.74621523239882 0 0 0
886 79 5 0.0582835 12.905168763098885 1.5686952696145273 7.473060669689069 0 0 0
880 79 1 0.1266165 12.65925166151 1.1208192757248645 6.524347950662494 0 0 0
884 79 5 0.0582835 12.05801340602482 1.7819870534756843 5.866930201294208 0 0 0
77 8 5 0.0798 15.00516588630347 5.317978046986779 10.767811489157365 0 0 0
71 8 1 0.0955 15.199684722804898 4.4737374922779605 11.430422169665032 0 0 0
45 5 4 -0.5484 21.042537947014107 5.169716458477631 6.699569874254226 0 0 0
1064 99 4 -0.58 16.87248193128598 6.1416845064348236 2.9888886673282036 0 0 1
76 8 2 -0.4048 14.591593443666515 3.227334516124362 11.085005021681352 0 0 0
209 21 5 0.0798 12.882521352006943 11.155039580320976 3.6414049847046734 0 0 0
75 8 4 -0.5484 15.317707946056363 1.073421381386816 11.380675403128475 0 0 0
74 8 3 0.8478 15.486141654860587 2.2573824821705375 11.493705432616373 0 0 0
699 64 2 -0.3889835 4.545931248881242 0.7022027077220586 3.9400150372942857 0 0 1
571 53 5 0.0582835 8.603925446070159 11.303416766883322 1.2903866011622538 0 0 1
1057 99 2 -0.58 14.367500787206996 8.676201947795077 -0.07131268907914995 0 0 1
389 38 5 0.0582835 0.4091112952682789 1.59956290567969 4.319139523590718 1 0 0
42 5 1 0.0955 22.42929008940308 8.055764965424641 5.3722143503734605 0 0 0
522 49 5 0.0582835 0.35018034571836054 8.59247637384904 8.754794107714563 1 0 0
124 13 3 0.8478 20.890834082791596 3.3524348811865874 3.70011610875142 0 1 0
515 49 1 0.1266165 23.200555854928385 9.52018830497121 9.136439086542795 0 0 0
996 90 6 1 20.96296814511033 3.1588184587426626 7.054458196008122 0 0 0
43 5 2 -0.4048 22.398434240999965 7.015126937781584 6.376912877043164 0 0 0
1063 99 3 0.66 16.571550354588048 6.665493890659761 1.9468969842943402 0 0 1
740 67 5 0.0582835 0.37563115373208605 11.175425991953146 0.382918074816546 0 0 0
1031 97 2 -0.58 13.63265332494539 11.346864977454688 1.0178875078482243 0 0 0
750 68 5 0.0582835 17.82857656738831 4.416459429247516 0.07218792370496886 0 1 0
576 54 2 -0.3889835 0.4843796112878783 11.283445655104595 4.683332904983922 1 -1 0
844 76 1 0.1266165 17.407332748614074 0.8602920497953256 7.517646486858275 0 0 0
201 21 1 0.0955 12.6842741562919 10.849462099407944 5.708950867628082 0 0 0
127 13 5 0.0798 22.336439890356814 5.324481416502973 1.9075143252389641 0 1 0
883 79 5 0.0582835 15.910427532518339 3.3515519447029694 3.673879799684202 0 0 0
876 79 2 -0.3889835 15.707219781912611 1.518117884805599 4.752617762515454 0 0 0
50 5 5 0.0798 22.334532410700316 9.086269977663457 5.720456738836307 0 0 0
843 76 2 -0.3889835 16.90631739475073 2.139966777873956 7.954254683297944 0 0 0
579 54 2 -0.3889835 21.584100920574013 11.417890029325772 3.957768556236491 0 -1 0
840 76 2 -0.3889835 17.228362742417353 4.4089533820309015 8.413540649523307 0 0 0
929 83 5 0.0582835 18.529645616198998 8.419738851520183 6.07511289890713 0 0 0
46 5 2 -0.4048 20.66923761416164 6.500337289264059 4.9018276306507325 0 0 0
48 5 5 0.0798 20.634099597816327 8.444786324250426 4.088857414982324 0 0 0
749 68 5 0.0582835 17.91308190312381 2.864453359895101 1.0713498282214706 0 1 0
926 83 4 -0.5800835 19.69683775003438 8.73636180045439 8.46581532031781 0 0 0
934 83 5 0.0582835 18.860712521439737 8.297034218587026 11.008510891776936 0 0 0
129 13 5 0.0798 20.15591435059485 5.179762082779148 1.340429721196185 0 1 0
47 5 5 0.0798 21.84677313229148 7.488133417703815 3.5140021635661176 0 0 0
116 12 2 -0.4048 18.520342578750007 0.5043381678172073 2.5140387169155756 0 0 1
925 83 3 0.7551165 18.688803417955203 9.496796524391666 8.480652577373219 0 0 0
123 13 2 -0.4048 19.919348660583754 3.636919711169171 2.7654088988155943 0 1 0
932 83 5 0.0582835 20.010760799279634 9.731376028330965 10.867762067995905 0 0 0
17 2 5 0.0798 16.546509343508976 5.360780434306266 5.310976123153488 0 0 0
321 32 5 0.0582835 20.18230370113104 9.820616994498696 0.26385506152889504 0 0 0
320 32 5 0.0582835 21.607241987841157 10.214133771413064 1.3280819399290449 0 0 0
982 87 5 0.0582835 15.525921654790297 8.214469864525686 8.306520138930276 0 0 0
587 55 1 0.1266165 20.75366166701746 1.730759750527445 10.698117670383262 0 0 0
881 79 5 0.0582835 16.891723373086947 3.156581657869099 5.193390102658321 0 0 0
875 79 1 0.1266165 16.516791726593116 2.640752851047726 4.276963375556283 0 0 0
1037 97 3 0.66 16.71404156233271 10.78721113520464 2.395885400782271 0 0 0
848 76 5 0.0582835 18.221510563464623 0.4631342031574997 8.08484269749368 0 0 0
746 68 4 -0.5800835 16.908535723085187 0.793494050294485 0.009620083906124954 0 1 0
130 13 5 0.0798 20.35424943735717 3.544773499668114 0.6979553600744036 0 1 0
128 13 5 0.0798 22.5346085500873 3.6593521706478427 1.1981876587055067 0 1 0
115 12 4 -0.5484 20.42393055316137 0.8180552274821707 1.4470178784944103 0 0 1
588 55 2 -0.3889835 21.01795304419742 3.0259246807068183 11.186437988936389 0 0 0
591 55 2 -0.3889835 21.63400308409839 5.164874028853656 10.85104452089113 0 0 0
931 83 5 0.0582835 19.490004087390805 9.95253172459762 5.808312079083018 0 0 0
841 76 3 0.7551165 17.790908576518525 3.2276488186032974 8.004047434840825 0 0 0
842 76 4 -0.5800835 18.95680048776001 3.1822717894639845 7.728848658130465 0 0 0
125 13 4 -0.5484 20.68095443237199 2.8675960229426156 4.820410744983564 0 1 0
316 32 1 0.1266165 20.988575084356114 9.42080704071218 0.820973994462997 0 0 0
122 13 1 0.0955 20.56637889640976 4.201157016870959 1.5645585161655686 0 1 0
322 32 5 0.0582835 20.60647728070187 8.822320391508319 1.663810589250599 0 0 0
927 83 2 -0.3889835 18.22614354955533 9.901949016883144 9.750998714296484 0 0 0
589 55 3 0.7551165 21.40582394265775 3.9688134923867704 10.252240109486285 0 0 0
35 4 4 -0.5484 21.164184996897244 1.0841042039668378 7.008142634605337 -1 0 0
924 83 2 -0.3889835 18.006327361364 9.995407208675383 7.414725051045546 0 0 0
1062 99 4 -0.58 18.68366993628284 7.21369234037224 0.8035799541659417 0 0 1
126 13 2 -0.4048 22.064671528091587 3.649969751058245 3.252157951120915 0 1 0
593 55 5 0.0582835 21.658946329278894 1.108389738470956 10.328359424337467 0 0 0
1061 99 3 0.66 17.470835787823077 7.1845182983803015 0.8759181241063464 0 0 1
49 5 5 0.0798 0.04552553997243791 7.873944774710352 4.880942631938466 1 0 0
597 55 5 0.0582835 22.991793303512736 5.914142360171955 9.511125319212224 0 0 0
847 76 5 0.0582835 18.756834040653825 5.362001116695666 9.341784404611808 0 0 0
121 13 1 0.0955 22.030703250664725 4.214315178810663 1.9233079537859947 0 1 0
930 83 5 0.0582835 17.813232232233677 9.959566772632357 5.393700492766508 0 0 0
850 76 5 0.0582835 17.84158126619193 1.158973023913275 6.518220507481914 0 0 0
596 55 5 0.0582835 22.248635321664015 7.085878656429563 10.61746870051647 0 0 0
44 5 3 0.8478 21.349774794017332 6.152640840607525 6.028343112425128 0 0 0
590 55 4 -0.5800835 21.527157086262186 3.6924524358791166 9.093953143262551 0 0 0
923 83 1 0.1266165 18.484699032390182 9.588675541476658 6.117368473931718 0 0 0
521 49 5 0.0582835 22.380842749502914 9.203186831944684 9.822306666809775 0 0 0
1039 97 2 -0.58 16.02471904622283 10.820826697203344 1.1933868393323532 0 0 0
846 76 5 0.0582835 17.65929945474569 6.442283448658539 8.59424728112261 0 0 0
592 55 1 0.1266165 22.027922514362725 6.144802116867209 9.99656281899248 0 0 0
1038 97 4 -0.58 17.67388569288565 10.09825524308431 2.6115692489313993 0 0 0
595 55 5 0.0582835 19.890025184425216 1.8281099398375826 10.046824237048332 0 0 0
598 55 5 0.0582835 21.258952490864544 6.282380006184658 9.181687337989594 0 0 0
845 76 5 0.0582835 18.71111150888697 5.512875536458281 7.523903384471602 0 0 0
516 49 2 -0.3889835 22.616333504030525 10.33088215267928 8.069682811374618 0 0 0
41 5 1 0.0955 21.326990648164287 7.687731160002407 4.4725338471737395 0 0 0
390 38 5 0.0582835 1.7627625641651474 0.5763544190122832 4.449467517030653 1 0 0
517 49 3 0.7551165 22.02241450752377 11.56911582100145 8.31015203434143 0 0 0
319 32 5 0.0582835 2.247858057674137 7.372950438253476 0.12642572976971825 1 0 0
823 74 5 0.0582835 2.951908601406558 0.33790447460717576 8.025393653919721 0 1 0
973 87 3 0.7551165 15.378546558589742 8.215424917184432 11.05727868160558 0 0 0
313 32 3 0.7551165 22.908840653320148 8.020264865541158 0.30087803864091456 0 0 0
114 12 3 0.8478 19.491036183892103 0.07346027735304698 1.7334928512950034 0 0 1
698 64 4 -0.5800835 6.760441992664037 -0.004474825490821892 3.7194186023724876 0 0 1
207 21 5 0.0798 13.749300588734409 11.103628596350148 5.701617840307655 0 0 0
751 68 5 0.0582835 16.390155825450464 3.391783082574621 0.2595157090539689 0 1 0
743 68 1 0.1266165 17.46378353369448 3.3629806383736156 0.1991674222554678 0 1 0
1069 100 7 1 4.949911166691292 7.793589679816742 11.506492855547553 0 0 0
219 22 5 0.0798 1.6326224276236863 0.06641670222766294 1.9673751182279193 0 1 0
79 8 5 0.0798 17.376033027409164 4.489537318065315 11.40046317563594 0 0 0
1077 100 4 -0.58 1.9172855106005973 9.031253634161688 12.605550425571863 0 0 0
221 23 1 0.0955 5.742802198221907 6.673735566211491 20.695640921375052 0 0 0
226 23 2 -0.4048 5.779631888002393 6.208895167583566 19.375747612436378 0 0 0
223 23 2 -0.4048 3.8061321238782284 5.378946946199496 20.294597580967984 0 0 0
224 23 3 0.8478 4.646242395147628 5.446114278455356 19.14319015909402 0 0 0
225 23 4 -0.5484 4.415997390605102 4.925118972102232 18.048664191630824 0 0 0
668 61 5 0.0582835 2.6275024972158074 3.3248729422081182 18.06417926091238 0 1 0
664 61 1 0.1266165 2.571822010449477 2.5437103819637055 17.285590613117133 0 1 0
670 61 5 0.0582835 3.5415199886697697 2.4867104513683813 16.742875925393065 0 1 0
141 15 1 0.0955 5.416579034783488 3.322244363280097 14.013754280330796 0 1 0
1078 100 2 -0.58 4.120397857093604 8.639120303731602 12.333274073646185 0 0 0
146 15 2 -0.4048 4.312248356330761 2.38886711979776 14.135990947527484 0 1 0
1070 100 2 -0.58 5.9571203417011525 6.96824869415215 12.247409552867843 0 0 0
143 15 2 -0.4048 5.671706173151543 1.5940052588418498 12.602874487765341 0 1 0
142 15 1 0.0955 6.334478323357548 2.7494536196547372 12.997797350752236 0 1 0
1076 100 3 0.66 2.788906012916466 8.42800654593868 12.027986098506359 0 0 0
853 77 3 0.7551165 2.8069103857124276 10.308272474441349 18.874952576340466 0 0 0
852 77 2 -0.3889835 1.6074559244610092 9.698651870363742 18.850587959612845 0 0 0
669 61 5 0.0582835 2.464721066416092 1.530530207882515 17.77291947400777 0 1 0
630 58 5 0.0582835 3.7208239608210354 8.339026529243439 16.964719738582097 0 1 -1
623 58 1 0.1266165 3.3002782745367645 7.651805645177978 16.140260197265054 0 1 -1
629 58 5 0.0582835 3.551800599618895 7.961185645535729 15.111044107757435 0 1 -1
624 58 2 -0.3889835 1.9001246417240194 7.421026373923128 16.323051783126655 0 1 -1
292 30 1 0.0955 5.69315027646408 1.7013754305933468 19.40376109630326 0 1 0
631 58 5 0.0582835 3.755626137508453 6.688121871470804 16.286013306209053 0 1 -1
625 58 3 0.7551165 1.325765726184936 6.583205340714422 15.421164827323803 0 1 -1
626 58 4 -0.5800835 1.8776819051316012 6.013341533211169 14.483263053136309 0 1 -1
663 61 2 -0.3889835 1.481504447724602 2.6515201122854033 16.3873419618921 0 1 0
851 77 1 0.1266165 1.5594399210598657 8.33199619603294 19.334481207383135 0 0 0
857 77 5 0.0582835 1.873849704022532 8.338072778415038 20.395957418491584 0 0 0
293 30 2 -0.4048 5.903365789536748 2.2477398172163148 18.143682360076795 0 1 0
854 77 4 -0.5800835 3.823391839100036 9.810883451577709 19.26508779252377 0 0 0
228 23 5 0.0798 5.874029344491831 7.691195766368885 20.87249879901816 0 0 0
147 15 5 0.0798 4.993983357701607 4.225540367712125 13.418509008456212 0 1 0
859 77 5 0.0582835 2.2912202734575704 7.762422921207393 18.7983425772783 0 0 0
144 15 3 0.8478 4.499969729388944 1.410319461925731 13.298373218201478 0 1 0
300 30 5 0.0798 4.855335149184415 2.1836464015997534 19.911307840823305 0 1 0
234 24 3 0.8478 7.331288612052512 8.496466653917334 16.290410060162404 0 0 0
298 30 5 0.0798 6.9106006060424745 2.5834932716938384 20.907906585697337 0 1 0
291 30 1 0.0955 7.074018478142054 1.9197904042045701 20.070798233454926 0 1 0
294 30 3 0.8478 7.1480760844313025 2.733272057915059 17.971930800854388 0 1 0
661 61 3 0.7551165 1.3063675314119836 1.6185304212011151 15.579037775015333 0 1 0
295 30 4 -0.5484 7.643669626985152 3.255592258997062 17.00923576412515 0 1 0
296 30 2 -0.4048 7.893294685347957 2.5615042867505036 19.114896903524304 0 1 0
235 24 4 -0.5484 6.925791974740164 9.650305436318435 16.16632004159605 0 0 0
236 24 2 -0.4048 6.693186370726804 7.422614696783674 15.745647502659324 0 0 0
231 24 1 0.0955 7.360323117621825 6.234483052859144 16.041794202309333 0 0 0
149 15 5 0.0798 6.510845790537109 3.4376833728671765 12.10790090117531 0 1 0
230 23 5 0.0798 3.8126253953019993 6.9501693040212515 21.46089290483264 0 0 0
108 11 5 0.0798 3.0172910870344705 10.91408063444509 14.404382476021773 0 0 0
222 23 1 0.0955 4.485646199054987 6.133669961367846 21.281022351808875 0 0 0
237 24 5 0.0798 6.699278885246192 5.477192417482654 16.559119044594542 0 0 0
227 23 5 0.0798 6.645222755619725 6.138955278651377 21.0165566438601 0 0 0
299 30 5 0.0798 5.492973929809879 0.639408882007712 19.27736414024354 0 1 0
148 15 5 0.0798 5.965612136395589 3.6227965986478248 14.887982676107333 0 1 0
667 61 5 0.0582835 1.0136262323174818 0.5533893717720519 13.217378577215724 0 1 0
485 46 5 0.0582835 7.259883348720812 9.935989680984324 20.68786206373976 0 0 0
855 77 2 -0.3889835 2.8387606035011403 11.607333835466985 18.366899062384455 0 0 0
139 14 5 0.0798 1.8167176789800146 2.3635779543153057 20.05287225730396 1 0 0
132 14 1 0.0955 1.8454311216155053 2.818259002147335 21.03134768478199 1 0 0
58 6 5 0.0798 11.001855067517976 11.349605228581332 16.629032907487773 0 0 0
67 7 5 0.0798 12.28797496502656 2.782277340738899 23.04008023491413 0 0 -1
200 20 5 0.0798 1.5969892814655071 9.762998312471954 15.059330071153543 0 0 0
145 15 4 -0.5484 3.704112567910834 0.48855429941111916 13.221017533349043 0 1 0
1071 100 3 0.66 7.230350165983328 7.201673945457622 11.934193158883655 0 0 0
229 23 5 0.0798 4.634227750367661 5.45156034407658 22.098675266645703 0 0 0
150 15 5 0.0798 7.251956293365216 2.515275397442246 13.530022465202649 0 1 0
297 30 5 0.0798 7.471889939174066 0.9352390773190983 20.4203759304173 0 1 0
763 69 5 0.0582835 14.978835217542576 10.934978129103241 17.94471630477445 0 0 0
662 61 4 -0.5800835 2.0239423961760963 0.6385300282973171 15.613299194940204 0 1 0
858 77 5 0.0582835 0.6132539107206137 7.8050790115369315 19.313315904642717 0 0 0
140 14 5 0.0798 1.4680012939965938 3.761788456414172 20.751694859389115 1 0 0
486 46 5 0.0582835 6.482121570973144 10.56710278370864 19.098138772720656 0 0 0
285 29 4 -0.5484 5.191206802226786 9.632565177113745 22.511728417624813 0 0 -1
192 20 1 0.0955 0.6198676405599931 10.373443430817343 15.032981717974652 0 0 0
660 61 2 -0.3889835 0.2927441930728027 1.730485377616476 14.714969644307864 0 1 0
659 61 1 0.1266165 0.06816538673407645 0.6419515223886306 13.797335826770519 0 1 0
51 6 1 0.0955 10.69862510682007 11.290314558076824 17.69907924966544 0 0 0
199 20 5 0.0798 0.3730225254594697 10.761754646688482 15.999995893591121 0 0 0
131 14 1 0.0955 0.9451778863040251 2.2818918495313283 22.126514591987892 1 0 0
133 14 2 -0.4048 3.072665551295406 2.9637473679370316 21.633590848448517 1 0 0
284 29 3 0.8478 4.974087235536606 10.81974988606146 22.50135397313704 0 0 -1
134 14 3 0.8478 2.937188263146104 2.5916220319275074 22.967380976912796 1 0 0
286 29 2 -0.4048 3.8153967799548685 11.353789029792212 22.037844317686496 0 0 -1
318 32 5 0.0582835 1.7595593916226024 6.104541775596284 22.30021108907074 1 0 -1
312 32 2 -0.3889835 0.27358608168720744 7.391759649423436 22.63476065709842 1 0 -1
311 32 1 0.1266165 1.4851069634775635 6.675153689010083 23.095736968239947 1 0 -1
137 14 5 0.0798 0.692832394088596 1.2723503179848423 22.013735221437308 1 0 0
193 20 2 -0.4048 0.7709593955264497 11.535804246684643 14.183574062136767 0 0 0
627 58 2 -0.3889835 -0.03154795276831282 6.388466457093392 15.57370224109715 0 1 -1
138 14 5 0.0798 23.25464229828866 2.7937661544161756 22.20454935755217 0 0 0
198 20 5 0.0798 23.20530270571269 8.550663272101165 14.110932877263732 -1 0 0
634 58 5 0.0582835 22.77603280745606 5.879416872622797 13.531448872302603 -1 1 -1
632 58 5 0.0582835 22.84254680596277 4.3905214960796055 14.713633846383635 -1 1 -1
820 74 1 0.1266165 1.3499984609377635 3.326118711363595 11.712526643323349 0 1 0
232 24 1 0.0955 8.527137032356435 6.698075564945455 16.898668217077315 0 0 0
233 24 2 -0.4048 8.463154373888862 8.147654693013948 17.007667728358935 0 0 0
239 24 5 0.0798 8.307242592640595 6.2778307082419404 17.908480997218078 0 0 0
479 46 1 0.1266165 7.374408677372948 10.552784314252644 19.779666100228496 0 0 0
238 24 5 0.0798 7.60977375487585 5.787824560121876 15.060870638125664 0 0 0
1060 99 2 -0.58 16.6714789233287 7.663567589158324 23.188019527434722 0 0 0
1020 96 4 -0.58 9.31135097602019 0.8674844874454996 11.963536890544397 0 1 0
1072 100 4 -0.58 8.183529571104476 6.633779309433933 12.413269590884973 0 0 0
557 52 5 0.0582835 13.52897954838085 0.8094989339327224 13.960483576781462 0 1 0
487 46 5 0.0582835 8.148919719902961 10.112845791980758 19.166070950774543 0 0 0
559 52 5 0.0582835 11.758890736602241 0.9294741834381821 13.833975286882 0 1 0
72 8 1 0.0955 16.558482206454805 4.196938667960298 12.073817910619383 0 0 0
558 52 5 0.0582835 12.808954979442335 0.9430895928014397 12.462938310739291 0 1 0
240 24 5 0.0798 9.50969048873165 6.274043182450308 16.663481139816778 0 0 0
57 6 5 0.0798 9.584360509053715 11.343309574310746 17.604312156838592 0 0 0
378 37 5 0.0582835 9.947272260004983 8.038755615328963 14.127413466532525 0 0 0
372 37 2 -0.3889835 8.978576230216872 9.854427007439366 13.686646621531454 0 0 0
52 6 1 0.0955 11.214665285733457 9.984594094732993 18.1839909626584 0 0 0
9 1 5 0.0798 10.076613789671855 4.563877844667728 22.655395848767608 0 0 0
478 45 5 0.0582835 15.172579355726054 4.02053759543718 15.466542451662914 -1 0 0
1018 96 2 -0.58 8.047797215421356 0.11981968681374577 13.796760412988418 0 1 0
379 37 5 0.0582835 10.918847946690448 9.089448045779866 13.197758324528905 0 0 0
245 25 4 -0.5484 10.308379188980268 2.053582940695942 21.25154498312697 0 0 -1
7 1 5 0.0798 8.942281211394965 4.650603389332021 20.77000521825993 0 0 0
59 6 5 0.0798 10.438587224481141 9.393949462534831 18.551458371729918 0 0 0
53 6 2 -0.4048 12.187500734762613 10.31406103081289 19.207364121203206 0 0 0
248 25 5 0.0798 12.187167315825718 0.7492361828294419 17.89110939038387 0 0 -1
246 25 2 -0.4048 11.189171449839703 2.0543794223116025 19.129412303309085 0 0 -1
377 37 5 0.0582835 10.713744630026504 9.472858897978018 14.858273684575733 0 0 0
5 1 4 -0.5484 9.93067539217935 8.435707941939267 21.021787072382335 0 0 0
6 1 2 -0.4048 9.657110741359345 6.43454465029941 20.18724662007124 0 0 0
4 1 3 0.8478 10.058794714561603 7.224632428838132 21.147285620761817 0 0 0
8 1 5 0.0798 10.378520537877167 4.419893624508948 19.874190400427928 0 0 0
474 45 5 0.0582835 9.328862595510232 4.606494104691524 14.398053826548171 -1 0 0
3 1 2 -0.4048 10.599402303142721 6.652346796943762 22.23016663210637 0 0 0
10 1 5 0.0798 11.639165616467432 4.8229214021853 21.97708330497783 0 0 0
2 1 1 0.0955 10.58356451781521 5.198807987568008 21.98951601621134 0 0 0
1 1 1 0.0955 9.92623611243305 5.076117940473977 20.595537245315217 0 0 0
468 45 2 -0.3889835 11.154982651648771 4.006019141666634 15.237067827951003 -1 0 0
999 93 6 1 10.901750853302389 10.315703698797508 22.338957751438894 0 0 0
467 45 1 0.1266165 10.354543790428197 4.3094940524897325 14.062580994152688 -1 0 0
162 17 1 0.0955 14.083066045853585 6.455323348771978 17.22450930962002 0 0 0
1055 99 2 -0.58 14.820574993544174 6.5930598202769 22.372459183318934 0 0 0
1053 99 4 -0.58 13.311583510215202 6.501162882053876 20.646523398169727 0 0 0
1054 99 3 0.66 13.802889988075728 7.13628803179232 21.59333890496567 0 0 0
161 17 1 0.0955 12.603766347091677 6.441669155789828 17.582398231972036 0 0 0
166 17 2 -0.4048 11.970121251149992 6.81944748532848 16.357049160674613 0 0 0
164 17 3 0.8478 12.868314063986933 7.035463259575224 15.35719792337763 0 0 0
165 17 4 -0.5484 12.585940805126057 7.354789448719605 14.207285246401735 0 0 0
167 17 5 0.0798 12.331687199911121 6.9819670599082455 18.550569435564967 0 0 0
163 17 2 -0.4048 14.1754197292666 6.81337030675918 15.904076819861892 0 0 0
469 45 3 0.7551165 12.442186278989615 3.760213821896409 14.976083825648065 -1 0 0
169 17 5 0.0798 14.394790593390416 7.331486279344757 17.74921091833214 0 0 0
1058 99 3 0.66 13.547844744111742 8.467224764184964 22.216476115768028 0 0 0
470 45 4 -0.5800835 13.003717062751655 3.787330076926942 13.846559617000985 -1 0 0
471 45 2 -0.3889835 13.184450157836482 3.4834288044673145 16.07658705417883 -1 0 0
475 45 5 0.0582835 10.8645879595586 5.081138417815729 13.395531081978362 -1 0 0
168 17 5 0.0798 12.235141775318176 5.400191762801454 17.64639161722658 0 0 0
170 17 5 0.0798 14.79292756304998 5.6843566761273365 17.54875322813689 0 0 0
472 45 1 0.1266165 14.664299819270942 3.2070911563205375 15.954423725476648 -1 0 0
371 37 1 0.1266165 10.209663524415621 9.13602901579468 13.972520972677366 0 0 0
244 25 3 0.8478 10.502714561449356 1.5408009812680221 20.16220552660537 0 0 -1
241 25 1 0.0955 11.17083243045151 1.100085318825225 18.06765324554882 0 0 -1
247 25 5 0.0798 10.790634496429943 1.4304493757537158 17.135018917174964 0 0 -1
1059 99 4 -0.58 12.676067479963589 9.259623838300223 21.828207345290398 0 0 0
473 45 5 0.0582835 10.294377052379176 3.4571115307037457 13.331569483890304 -1 0 0
477 45 5 0.0582835 14.917676399345712 2.2948647111625906 15.4009772689951 -1 0 0
710 65 4 -0.5800835 14.50033933823346 0.9104267160222487 19.58530811603601 0 0 0
60 6 5 0.0798 11.719811067517009 9.399265894172306 17.39637730390603 0 0 0
765 69 5 0.0582835 13.381773649725192 10.578787327031137 13.193085002537515 0 0 0
709 65 3 0.7551165 14.04018771672756 1.2962207804670067 20.642778711996208 0 0 0
826 74 5 0.0582835 2.021623236524987 2.771525025867003 12.432022365397863 0 1 0
243 25 2 -0.4048 10.02289884214103 0.29256139649671786 19.83799185544974 0 0 -1
711 65 2 -0.3889835 13.406721323712016 0.415113044351024 21.51979999897927 0 0 0
713 65 5 0.0582835 14.27698907795935 3.362436190446651 19.037203491668677 0 0 0
708 65 2 -0.3889835 14.151338775289936 2.6341921376995043 21.007489962890784 0 0 0
707 65 1 0.1266165 14.829321602769635 3.379858269816582 20.003658798565144 0 0 0
714 65 5 0.0582835 14.86330993934167 4.4228228121927335 20.306728269111293 0 0 0
373 37 3 0.7551165 9.19661132118265 11.171584862044615 13.344309370390466 0 0 0
551 52 1 0.1266165 12.637085373305696 0.47366426390986804 13.403059797984342 0 1 0
761 69 5 0.0582835 15.920626410384102 9.531367576827195 17.271753697209828 0 0 0
482 46 4 -0.5800835 9.559914204641442 11.323506884904033 21.228096706056604 0 0 0
755 69 1 0.1266165 15.860513788443937 10.618562158533509 17.38860093603965 0 0 0
758 69 4 -0.5800835 13.81637722673082 10.318165477691224 15.707868853854022 0 0 0
804 73 2 -0.3889835 21.774428679717907 11.579641673235212 21.699468524698656 -1 0 0
73 8 2 -0.4048 16.64583260872108 2.7372366657693368 12.076508392110984 0 0 0
80 8 5 0.0798 16.71336039820552 4.702741334501355 13.031543277553952 0 0 0
476 45 5 0.0582835 15.081674890472563 3.2159196449581646 16.93193177759487 -1 0 0
26 3 2 -0.4048 15.768496275019832 9.839372326784066 20.3013100312017 0 0 0
972 87 2 -0.3889835 15.287696370606177 8.799989836018044 12.296591777058962 0 0 0
715 65 5 0.0582835 15.87513997713208 3.04288737407359 19.93928142405309 0 0 0
757 69 3 0.7551165 14.724339254452046 11.063562856184943 15.312472648143153 0 0 0
550 51 5 0.0582835 15.167844723715188 0.4128175868959356 17.162640282141293 0 0 0
78 8 5 0.0798 14.586384333667059 4.768499829572764 12.266543368390455 0 0 0
756 69 2 -0.3889835 15.773456296295839 11.279631922879226 16.07756982540854 0 0 0
908 81 5 0.0582835 0.13238346712330298 0.28164358804563944 17.7200144962628 1 0 0
825 74 5 0.0582835 0.4862514326024586 3.8010030716755647 12.259135218581607 0 1 0
315 32 2 -0.3889835 21.810931060450987 8.677097891256343 23.147619390063586 0 0 -1
344 34 5 0.0582835 19.051392584411246 11.281343072267454 14.93164237229333 0 0 0
1001 95 4 -0.58 2.9724977441715477 0.19276440837931227 20.07841421630762 0 1 -1
949 85 3 0.7551165 20.321742992266454 10.860101880180668 17.709485542791352 -1 0 0
539 51 1 0.1266165 19.27919166361845 1.254714984209048 14.172894474612233 0 0 0
262 27 1 0.0955 19.957363276853513 7.078508509115878 20.635105716760698 -1 0 0
345 34 5 0.0582835 19.818205470087005 10.827560272362962 13.398521723208583 0 0 0
107 11 5 0.0798 4.734518970086822 11.238835594947314 14.652264914400824 0 0 0
25 3 4 -0.5484 16.71480936271033 7.950445281951429 19.275198986604302 0 0 0
978 87 5 0.0582835 16.148559684852078 8.755211087807252 14.278658453621643 0 0 0
747 68 2 -0.3889835 17.775835335632035 0.4781228067902733 21.322210601727463 0 1 -1
810 73 5 0.0582835 0.05680389772944883 10.863387567013358 20.60330517540984 0 0 0
21 3 1 0.0955 16.343528239123597 10.883838802093415 21.14134383388363 0 0 0
446 43 4 -0.5800835 17.17682308123807 4.6407064334929835 17.3744509342217 0 0 0
909 81 5 0.0582835 22.10131624141006 1.2727105532559573 17.02201040113004 0 0 0
955 85 5 0.0582835 21.589453372803046 8.808232703761918 19.035784871738244 -1 0 0
904 81 1 0.1266165 22.51630829825904 0.803888557240087 17.90995903511052 0 0 0
266 27 2 -0.4048 20.03659903620117 4.704675517651373 20.845726065618784 -1 0 0
267 27 5 0.0798 18.64824670497731 5.597777611578119 19.806282644652935 -1 0 0
762 69 5 0.0582835 16.712739885410432 10.945785012979545 17.943405236536513 0 0 0
28 3 5 0.0798 15.803860771861613 11.018618279425036 22.08321710475651 0 0 0
447 43 2 -0.3889835 18.915973044167462 5.972520775901031 16.565986941023215 0 0 0
744 68 2 -0.3889835 17.82784655115562 2.5531510439500806 22.344434857319246 0 1 -1
977 87 5 0.0582835 17.187129775443918 8.276022404711787 12.950752924890864 0 0 0
542 51 4 -0.5800835 16.66149846871429 0.570355504380715 14.732780272627004 0 0 0
666 61 5 0.0582835 22.475585468574145 0.749036452673096 13.180273498313726 -1 1 0
546 51 5 0.0582835 20.39793999685189 1.3186477756454495 14.139358474458515 0 0 0
30 3 5 0.0798 17.919891219709463 10.412371710006886 22.38258179493751 0 0 0
933 83 5 0.0582835 18.525607499869114 9.889879662213598 11.852132461394849 0 0 0
268 27 5 0.0798 18.382189260071396 5.927421603998727 21.605445846516655 -1 0 0
950 85 4 -0.5800835 19.456299924461902 10.443411289659277 18.467190753163734 -1 0 0
452 43 5 0.0582835 17.438060464802877 7.460988133324998 17.01487509740566 0 0 0
971 87 1 0.1266165 16.16831442502045 8.262085678799094 13.300793295452854 0 0 0
979 87 5 0.0582835 15.896472497085943 7.280019963742752 13.624266867795978 0 0 0
23 3 2 -0.4048 17.95518699271427 9.360812745171208 20.5675592701302 0 0 0
947 85 1 0.1266165 21.503370953332794 8.772594035972476 17.932848154760343 -1 0 0
265 27 4 -0.5484 22.291940509955378 4.581983616787963 20.674941661884624 -1 0 0
633 58 5 0.0582835 21.507973090826027 5.621231470930252 14.71763353925636 -1 1 -1
191 20 1 0.0955 22.834885020361217 9.556748552461906 14.473782361712747 -1 0 0
444 43 2 -0.3889835 19.360739995118294 3.9520790712481664 17.514694853627912 0 0 0
450 43 5 0.0582835 19.647547521893014 2.1030794453017485 18.40191184720336 0 0 0
24 3 3 0.8478 16.822770586992796 8.980688015751282 20.005633793090002 0 0 0
449 43 5 0.0582835 18.024513107582575 2.2595499720682986 17.52606155650227 0 0 0
453 43 5 0.0582835 18.530355116681402 7.783288714183123 15.580424182503267 0 0 0
910 81 5 0.0582835 22.79344032867781 1.5604567712032031 18.631986821987365 0 0 0
451 43 5 0.0582835 18.28115644485471 2.9720502657303376 19.05324783154539 0 0 0
197 20 5 0.0798 21.950882885786847 9.474771939953687 15.17864304320328 -1 0 0
445 43 3 0.7551165 18.394368441523323 4.87117462934858 17.15462109281011 0 0 0
261 27 1 0.0955 19.11405668411826 5.817957969018679 20.8033003404606 -1 0 0
269 27 5 0.0798 19.57610550264493 7.680198764211644 19.788053553665062 -1 0 0
196 20 2 -0.4048 22.386849830014146 10.216494484533321 13.364979776245702 -1 0 0
263 27 2 -0.4048 21.368617738752192 6.704323086066938 20.547698605064948 -1 0 0
541 51 3 0.7551165 17.546483440297187 0.3588826779521802 15.583873201059816 0 0 0
264 27 3 0.8478 21.287094879282932 5.272027127822963 20.67460970653832 -1 0 0
29 3 5 0.0798 18.31391843721881 11.37009808879569 20.911129335923707 0 0 0
454 43 5 0.0582835 17.255306820423304 6.472154821179873 15.425365237551237 0 0 0
948 85 2 -0.3889835 21.398907837980488 10.085409508844403 17.368929357107888 -1 0 0
547 51 5 0.0582835 19.04050916054993 0.5587093913704003 13.33026119410658 0 0 0
953 85 5 0.0582835 20.602916287202053 8.247791676321139 17.605757519037184 -1 0 0
628 58 1 0.1266165 22.612432537613703 5.473513400597734 14.565038283565666 -1 1 -1
270 27 5 0.0798 19.788131151036776 7.6807938835724325 21.51946804610124 -1 0 0
22 3 1 0.0955 17.74576520425143 10.559595937730991 21.30210577811857 0 0 0
954 85 5 0.0582835 22.430721488087826 8.272214473042187 17.58234013649928 -1 0 0
448 43 1 0.1266165 18.01201843937863 7.0006073913447935 16.156011137657643 0 0 0
443 43 1 0.1266165 18.822067913635536 2.7687091532999193 18.166669144483173 0 0 0
540 51 2 -0.3889835 18.90733085950517 0.63741343292584 15.433411813265712 0 0 0
745 68 3 0.7551165 17.49043660985467 1.2657422261183622 22.35823183753074 0 1 -1
545 51 5 0.0582835 18.82239000587347 2.1553147777932744 13.993594131362872 0 0 0
194 20 3 0.8478 23.110640229326926 11.356293499324824 13.206598431899554 -1 0 0
1019 96 3 0.66 8.851506783410713 -0.019088880421850973 12.66761117864806 0 1 0
594 55 5 0.0582835 20.455143548497777 1.177879822098949 11.566023878119957 0 0 0
495 47 2 -0.3889835 1.9514100474046918 19.22602527186114 5.201180493850572 0 -1 0
493 47 3 0.7551165 2.127406404995353 18.89384225229668 3.8336986533409387 0 -1 0
494 47 4 -0.5800835 1.7677555955047568 17.76833471182515 3.330468816524723 0 -1 0
491 47 1 0.1266165 2.8778806536533064 19.53583790319276 1.6683905375449766 0 -1 0
492 47 2 -0.3889835 2.731492857010062 19.902324839038602 3.0364671300668817 0 -1 0
497 47 5 0.0582835 1.9101526438670577 19.59983783658509 1.1836559350011169 0 -1 0
496 47 1 0.1266165 1.303748631866489 18.16012390732061 6.078335701913306 0 -1 0
502 47 5 0.0582835 1.8711367425735463 17.246120492297344 6.074052725141523 0 -1 0
152 16 1 0.0955 3.4934948165380977 14.98080599260798 2.679978505996627 0 0 0
159 16 5 0.0798 2.407935506264023 14.642919265896206 2.7059010652275686 0 0 0
499 47 5 0.0582835 3.2964666975738632 18.547419697220366 1.5470178915979995 0 -1 0
498 47 5 0.0582835 3.394994912907158 20.32214746657021 1.0404628847836705 0 -1 0
528 50 2 -0.3889835 5.568104967516952 17.989614326090354 6.389555954805157 0 0 0
529 50 3 0.7551165 6.01874350887575 16.745351113719106 6.8371140555288346 0 0 0
533 50 5 0.0582835 5.830370099125633 19.164668487883795 8.064773799382895 0 0 0
534 50 5 0.0582835 4.751913588587198 19.874550524957147 6.955162658285786 0 0 0
527 50 1 0.1266165 5.017447414913005 18.876263521010596 7.420042317077966 0 0 0
535 50 5 0.0582835 4.063568033748719 18.473450782979263 7.815686459026871 0 0 0
160 16 5 0.0798 3.417417399266674 15.884075474315994 2.051694441790713 0 0 0
156 16 2 -0.4048 4.774817807022682 14.092928577731026 4.477058849679545 0 0 0
500 47 5 0.0582835 1.215250326642697 18.530992354142597 7.120873397974914 0 -1 0
153 16 2 -0.4048 4.2493599868243095 13.846361759899299 2.19542950833206 0 0 0
154 16 3 0.8478 4.936492592333567 13.39869600777484 3.2796597218056296 0 0 0
157 16 5 0.0798 3.058414528128673 15.51955107021723 4.791581114987222 0 0 0
151 16 1 0.0955 3.8374108335964197 15.178586184387369 4.117175541361989 0 0 0
158 16 5 0.0798 4.478694137340584 16.07132829416333 4.079257744265907 0 0 0
785 71 5 0.0582835 1.582906931733356 14.79636712774705 8.396645708249553 0 0 0
779 71 1 0.1266165 2.5431016069014727 14.423783683065354 8.8486466508189 0 0 0
786 71 5 0.0582835 3.4388101706551395 14.481262441932722 8.247142862147028 0 0 0
696 64 2 -0.3889835 5.186650325925676 21.69117577810705 3.780712868981776 0 -1 1
501 47 5 0.0582835 0.3026728518924112 17.858478637315894 5.670884993625162 0 -1 0
787 71 5 0.0582835 2.4166227075598483 13.349835772405209 8.998505283965684 0 0 0
530 50 4 -0.5800835 5.949890696931855 16.460966133834347 8.030914163675508 0 0 0
780 71 2 -0.3889835 2.8106573370293098 15.095722434774437 10.064523981635116 0 0 0
532 50 1 0.1266165 6.955109564096916 14.673007053453624 6.397355383202679 0 0 0
536 50 5 0.0582835 6.09818134953038 14.081547647946746 6.847494210568108 0 0 0
735 67 2 -0.3889835 1.1760228864045406 12.792793619421962 1.5957904690756126 0 0 0
34 4 3 0.8478 20.91744663126923 23.235711771228175 6.672640236589133 -1 -1 0
987 88 2 -0.3889835 6.2633563626175075 22.24116540233738 10.496389921513758 0 -1 0
985 88 3 0.7551165 6.4161507071924015 22.279965798533482 9.117041799399283 0 -1 0
815 74 1 0.1266165 2.0535068862065717 23.16858514848585 8.455285438774354 0 0 0
821 74 5 0.0582835 2.4966212455664816 22.28515474854459 9.035300509684301 0 0 0
732 67 2 -0.3889835 0.2722996003775614 14.8343483586353 1.780102430024501 0 0 0
733 67 3 0.7551165 0.11248150353994349 13.557076113568296 1.468927289926122 0 0 0
822 74 5 0.0582835 1.4925983113518062 22.68743207449138 7.693073048023743 0 0 0
1051 98 4 -0.58 23.001029128313196 16.388247439912263 8.173823435253173 -1 0 0
893 80 5 0.0582835 6.974131086533262 22.383992155216426 0.7173267697149512 0 -1 1
438 42 5 0.0582835 7.001084893537543 13.286609948737075 9.78420118994301 0 0 0
583 54 5 0.0582835 1.9027803237476375 12.867869051171892 4.608666676817666 1 -1 0
432 42 2 -0.3889835 5.576840758027252 11.890966322105392 8.846781974550128 0 0 0
538 50 5 0.0582835 7.676195636871917 14.714169521933542 7.198635122557881 0 0 0
988 88 1 0.1266165 4.930854411689606 21.97090657356518 10.97770154399836 0 -1 0
274 28 3 0.8478 6.903266225024184 18.588953700142586 10.993464817174708 0 0 0
585 54 5 0.0582835 19.660335401535804 11.72677524680978 3.2069906933621373 0 -1 0
531 50 2 -0.3889835 6.509861535060365 15.918891748197602 5.882075512801016 0 0 0
279 28 5 0.0798 4.454706173064093 16.78988771427267 10.514921342412586 0 0 0
212 22 1 0.0955 0.5587011213569978 23.204063175302224 1.8841651457590998 0 0 0
607 56 5 0.0582835 10.879983779364348 21.704724905895013 3.901137984949829 0 -1 1
702 64 5 0.0582835 5.882042457328698 19.697891507888876 3.786578428417243 0 -1 1
537 50 5 0.0582835 7.364772596089443 14.096941700834806 5.545138597392985 0 0 0
360 36 2 -0.3889835 6.071023922098464 16.72516245235691 1.2676942274456067 0 0 0
359 36 1 0.1266165 5.948443417726173 17.34485861908489 -0.03754563297652494 0 0 0
155 16 4 -0.5484 5.66738645337552 12.398978563081496 3.1470838160545793 0 0 0
361 36 3 0.7551165 7.094589936072091 15.877076800422357 1.5170230959484543 0 0 0
575 54 1 0.1266165 1.6624807573091112 12.000669252307636 5.278056420508023 1 -1 0
701 64 5 0.0582835 6.916037805801336 20.76168100155647 4.5420900489741225 0 -1 1
695 64 1 0.1266165 6.2134569363441905 20.681191776060825 3.6436201243366013 0 -1 1
275 28 4 -0.5484 7.794821442570616 19.376780362240954 10.671553432863787 0 0 0
703 64 5 0.0582835 6.7821706985748555 20.76625280824011 2.726925100245196 0 -1 1
273 28 2 -0.4048 5.677047189040884 18.545558374057656 10.642880228647622 0 0 0
272 28 1 0.0955 4.947921662358224 17.490383894895846 11.233832664584122 0 0 0
992 88 5 0.0582835 4.504414923116756 21.02323676442369 10.528983935003124 0 -1 0
781 71 3 0.7551165 1.836884672605109 14.980819995886465 11.01483214431236 0 0 0
580 54 1 0.1266165 20.419732808326547 12.241910558763292 3.7705719077329514 0 -1 0
986 88 4 -0.5800835 5.420197669281468 22.102410218150837 8.390582506198323 0 -1 0
203 21 2 -0.4048 11.112442267096359 11.833345768465088 4.330963721074861 0 0 0
211 22 1 0.0955 0.014685698711530627 22.556189548557008 0.5519744417092991 0 0 0
290 29 5 0.0798 5.564665812963319 13.904158549646345 0.10291852579694157 0 0 0
216 22 2 -0.4048 22.541232285028197 21.46247095866025 0.9234244896153763 -1 0 0
213 22 2 -0.4048 0.006378956478886014 22.34713389945967 2.9034420565600993 0 0 0
437 42 5 0.0582835 7.649940308853544 12.267654723196353 8.506054256713325 0 0 0
887 80 1 0.1266165 6.004383139893274 22.68218870085029 0.4911868488093497 0 -1 1
895 80 5 0.0582835 5.163097899813775 22.110832350375684 0.968707458136493 0 -1 1
343 34 5 0.0582835 19.13522040368987 15.519955767660669 10.640678724572398 0 0 0
918 82 5 0.0582835 1.532384171833925 21.07103396269197 10.760428682301336 0 0 0
697 64 3 0.7551165 5.602494033934843 23.03143950977753 3.802918222734492 0 -1 1
173 18 2 -0.4048 13.479796947626141 19.46952701836767 0.3970324645887058 0 0 1
782 71 4 -0.5800835 0.8086319593156459 14.314394788236784 10.737385432606612 0 0 0
33 4 2 -0.4048 19.801301473842198 22.874884954439793 5.9394055691473895 -1 -1 0
118 12 5 0.0798 16.597441586440617 23.09006607434656 2.274354145760409 0 -1 1
994 88 5 0.0582835 4.385113320816598 22.83344757978513 10.589556648549973 0 -1 0
362 36 4 -0.5800835 7.905590843674945 15.658879776434965 0.605579099366992 0 0 0
1032 97 3 0.66 12.968756668992285 12.071662273279559 0.15406176163965002 0 0 0
112 12 1 0.0955 18.09858695223717 21.598260768724792 1.9496354560679576 0 -1 1
1045 98 3 0.66 19.959967135894424 20.63182247960158 10.073343387134292 -1 0 0
991 88 5 0.0582835 7.666913511651721 21.572481416442855 6.764879412014144 0 -1 0
188 19 5 0.0798 14.430357522521016 21.0015283476218 11.454378957402652 0 -1 0
870 78 5 0.0582835 20.31922881955943 19.58077862490447 0.8901995673741542 0 0 0
871 78 5 0.0582835 20.66086954107241 18.632321322661983 2.291268882492992 0 0 0
602 56 4 -0.5800835 10.368729426803046 20.576530943607445 1.422325924456884 0 -1 1
302 31 1 0.0955 11.118332114388684 12.35961921385807 9.924536516051683 -1 0 0
303 31 2 -0.4048 9.983901583090217 12.169129244761208 9.004839160902698 -1 0 0
369 36 5 0.0582835 8.433414967222205 13.577372799221022 1.9969104280261845 0 0 0
771 70 2 -0.3889835 10.708345823100569 16.220546499147904 0.42891031606066 0 0 0
363 36 2 -0.3889835 7.214726016034715 15.262700758290444 2.7956885495996526 0 0 0
613 57 3 0.7551165 10.039342792825003 16.77031936407152 11.15642758602582 0 0 0
795 72 2 -0.3889835 13.668787103021515 14.571510164691317 10.807485478273605 0 0 0
680 62 5 0.0582835 11.682095872266368 22.80474953941254 10.93766714592466 0 0 0
117 12 5 0.0798 17.355427584463385 22.510346490054665 3.7955224679066437 0 -1 1
676 62 1 0.1266165 11.633676517191427 23.059238753958226 9.865928595041884 0 0 0
605 56 5 0.0582835 12.500618343370613 21.136806123272223 3.265617766440185 0 -1 1
792 72 2 -0.3889835 14.523616168151674 12.768015081361579 9.60899032416718 0 0 0
606 56 5 0.0582835 12.276729304295287 22.83834685588469 3.875892694910831 0 -1 1
368 36 5 0.0582835 8.49529073873538 13.85455272595344 3.8062484284166764 0 0 0
364 36 1 0.1266165 8.424170897571745 14.333127526759489 2.8718787337182126 0 0 0
1034 97 2 -0.58 15.048686485673777 12.302786845855897 2.7147638800474616 0 0 0
678 62 5 0.0582835 14.13343223915194 18.367744199729554 7.7393935673680145 0 0 0
778 70 5 0.0582835 9.76251950911546 17.999226378850157 0.8890475701052895 0 0 0
600 56 2 -0.3889835 11.308350693646748 22.565398417209376 2.0271584723078826 0 -1 1
679 62 5 0.0582835 13.032325048698226 18.32072634877238 9.162782695745125 0 0 0
370 36 5 0.0582835 9.365867544724402 14.986498270259823 2.7970298178049617 0 0 0
310 31 5 0.0798 11.631299086334556 13.111735330120235 9.317872704085769 -1 0 0
794 72 4 -0.5800835 15.199740951166577 14.896462011771666 9.169942253953367 0 0 0
793 72 3 0.7551165 14.502413722306146 14.117086625540285 9.8065202683988 0 0 0
671 62 1 0.1266165 13.236772549431077 18.79084056337432 8.19015910978734 0 0 0
677 62 5 0.0582835 12.383822272908024 18.68431240811583 7.502406690414052 0 0 0
984 88 2 -0.3889835 7.705130384885195 22.52144381477785 8.616992260346338 0 -1 0
775 70 5 0.0582835 13.570791919756502 14.902088587914024 3.057461663613902 0 0 0
767 70 1 0.1266165 12.626989175688736 14.4128259724453 3.108007248669649 0 0 0
768 70 2 -0.3889835 11.795927774408648 14.629528346454775 1.8451336579251925 0 0 0
260 26 5 0.0798 8.851743813930327 18.755110853471116 4.039027392787158 0 -1 0
204 21 3 0.8478 11.132048479530967 12.464588820853654 5.593444215140905 0 0 0
259 26 5 0.0798 10.624236696475329 19.20305004421059 4.0483994034487605 0 -1 0
252 26 1 0.0955 9.741332948598169 18.862282661213023 4.680642377687988 0 -1 0
258 26 5 0.0798 9.568597823336193 16.707435122120046 5.039963443952219 0 -1 0
257 26 5 0.0798 11.113083604831056 17.307780113890914 5.501844677999702 0 -1 0
617 57 5 0.0582835 10.695982223084378 16.407354347975843 8.625349731094152 0 0 0
251 26 1 0.0955 10.048954560604178 17.55784915637247 5.426219908019295 0 -1 0
256 26 2 -0.4048 9.754043747120718 17.94770661645134 6.742797272764124 0 -1 0
253 26 2 -0.4048 9.383523572826382 19.813820720863912 5.629880641254547 0 -1 0
255 26 4 -0.5484 9.122114682344167 19.737658408302746 7.890016615267147 0 -1 0
673 62 3 0.7551165 12.435177553072013 20.909261675108112 8.996387484626812 0 0 0
674 62 4 -0.5800835 11.46768735187852 20.279033702265448 9.447187612378475 0 0 0
1000 94 6 1 9.619976617287763 19.961433058575523 10.105574931727954 0 0 0
254 26 3 0.8478 9.39489575706618 19.24660482548415 6.800280461257721 0 -1 0
672 62 2 -0.3889835 13.414452879705744 20.22773748652433 8.324879345001952 0 0 0
619 57 5 0.0582835 8.882091255969295 16.20570760466369 8.601135055328626 0 0 0
611 57 1 0.1266165 9.823129929605102 15.835178242215452 8.922629326285364 0 0 0
618 57 5 0.0582835 9.974205758404189 14.828253737673668 8.610924817066108 0 0 0
769 70 3 0.7551165 11.46501584550463 15.949276219476545 1.5724005358421185 0 0 0
675 62 2 -0.3889835 12.63753166925883 22.266788202821523 9.142393489632038 0 0 0
205 21 4 -0.5484 10.382416932606795 13.379492701703008 5.854835261065055 0 0 0
770 70 4 -0.5800835 11.829596368595398 16.933047456270014 2.2709112791158423 0 0 0
773 70 5 0.0582835 12.185753931989336 14.70136574224748 4.009601328420293 0 0 0
774 70 5 0.0582835 12.882876859679907 13.37908881336211 3.2741338667243878 0 0 0
612 57 2 -0.3889835 9.844489837302035 15.65763544161355 10.364937359447994 0 0 0
614 57 4 -0.5800835 10.196536754730383 17.85877889088982 10.658085217593769 0 0 0
873 78 5 0.0582835 15.146851142617713 15.898661204129503 2.1837184182445215 0 0 0
962 86 4 -0.5800835 14.612817261571927 17.525351595615433 5.433109824890517 0 -1 0
599 56 1 0.1266165 11.794108444923488 22.007091624704632 3.3041814695633005 0 -1 1
970 86 5 0.0582835 14.496110244577489 19.67514400668613 3.9511943285100712 0 -1 0
990 88 5 0.0582835 8.854595835162336 22.830868780441378 6.930129390127834 0 -1 0
175 18 4 -0.5484 14.296299367150958 21.367247140818044 1.2053294407160131 0 0 1
682 62 5 0.0582835 10.643665097375345 22.866885219261718 9.485903045260867 0 0 0
206 21 2 -0.4048 12.014532660955254 11.925417218608947 6.408244793662099 0 0 0
174 18 3 0.8478 14.394841169262833 20.397044277058082 0.5303801166717282 0 0 1
968 86 5 0.0582835 14.859380409417952 20.33608927262412 5.506847961268985 0 -1 0
964 86 1 0.1266165 15.329613903455467 19.9658546323024 4.57299139699806 0 -1 0
309 31 5 0.0798 10.874282068388938 12.879247514386817 10.889647563067687 -1 0 0
983 88 1 0.1266165 7.816757865771439 22.563234219769225 7.200004725994053 0 -1 0
1029 97 2 -0.58 14.981483430447131 13.00303408695746 0.5027161040237031 0 0 0
969 86 5 0.0582835 15.788932550777547 20.90346890306079 4.118310089912961 0 -1 0
601 56 3 0.7551165 10.607683190538078 21.757332020606743 1.149378181390049 0 -1 1
431 42 1 0.1266165 6.9245750797924055 12.25602053964329 9.355891130810397 0 0 0
1030 97 7 1 14.945404546574098 11.777554128990365 1.3612045321905066 0 0 0
1040 98 4 -0.58 21.59014149717065 22.06248985270299 11.280515256590043 -1 0 0
866 78 4 -0.5800835 18.992770231578724 16.152596361198203 2.126592441162341 0 0 0
603 56 2 -0.3889835 10.145194121469126 22.34483641402801 -0.034807794930664666 0 -1 1
772 70 1 0.1266165 10.381434878375416 17.65669149510304 0.11266973862182401 0 0 0
796 72 1 0.1266165 13.59553730089925 16.008343905548127 11.055739070309594 0 0 0
800 72 5 0.0582835 13.090573226196389 16.45404328723985 10.160943137289086 0 0 0
738 67 5 0.0582835 22.602385681462366 16.697850275208783 1.8113773113804588 -1 0 0
731 67 1 0.1266165 22.368451780458955 15.686436931066345 1.6115205471518201 -1 0 0
581 54 5 0.0582835 1.4351187390798639 12.331391325093385 6.317978949373259 1 -1 0
737 67 5 0.0582835 21.526630321729307 15.407961646296078 2.2550709496428465 -1 0 0
638 59 4 -0.5800835 19.149061910368005 16.33740930478052 7.222813455654632 -1 -1 0
1043 98 7 1 21.441021419179958 18.79197865888427 10.111572755822273 -1 0 0
120 12 5 0.0798 17.41393605563163 21.164236015478455 1.2444573634619895 0 -1 1
791 72 1 0.1266165 15.426958772320171 12.28590054240515 8.571995358698151 0 0 0
874 78 5 0.0582835 16.40876116600673 14.977999450472733 1.3364937751877202 0 0 0
799 72 5 0.0582835 15.214026037409859 12.683477903217986 7.596227486180919 0 0 0
519 49 2 -0.3889835 21.55527512912042 12.157136284491715 7.238607411432522 0 0 0
1035 97 3 0.66 16.076683823039943 11.732886742604464 3.3566131806094437 0 0 0
813 73 5 0.0582835 18.22470412917492 13.211126123713298 0.7569609306390982 -1 0 1
1047 98 2 -0.58 21.158072254521148 17.623259735332237 10.858197783960076 -1 0 0
814 73 5 0.0582835 19.400252172212312 14.400097148680347 0.2618829742393871 -1 0 1
520 49 1 0.1266165 20.92480216639132 13.447696022204001 7.514031505132265 0 0 0
739 67 5 0.0582835 22.02379468648368 15.738412988923427 0.5838401835865054 -1 0 0
1046 98 4 -0.58 18.9355634626646 21.2979631172566 9.857407515231412 -1 0 0
214 22 3 0.8478 22.538940948662145 21.345072603247225 2.304203865188553 -1 0 0
31 4 1 0.0955 21.1363003577771 20.971421631481867 6.460095440207799 -1 -1 0
641 59 5 0.0582835 20.186824319940055 15.974806113151306 4.630597406040778 -1 -1 0
639 59 2 -0.3889835 18.445486527350038 18.476674946218658 7.258050128661932 -1 -1 0
797 72 5 0.0582835 16.379858833774016 12.692910121594618 8.871785485607537 0 0 0
640 59 1 0.1266165 17.61208139814877 18.142410445383586 8.406445961968652 -1 -1 0
643 59 5 0.0582835 21.48939447537623 16.306763520693487 5.832892742482028 -1 -1 0
965 86 5 0.0582835 15.653623584519922 14.872503704737802 5.248655915636294 0 -1 0
967 86 5 0.0582835 15.70819059346519 15.484093470738236 6.802726137959305 0 -1 0
1049 98 4 -0.58 21.608404433591858 15.320009598493838 10.678324570430014 -1 0 0
961 86 3 0.7551165 15.784136928642997 17.73550848497373 5.20637178505504 0 -1 0
186 19 2 -0.4048 15.950078020117205 19.746220603072207 10.846505609075159 0 -1 0
963 86 2 -0.3889835 16.288804039454725 18.86895151044308 4.7859135894312566 0 -1 0
869 78 5 0.0582835 20.658421068812647 17.75487138295743 0.7780103975375583 0 0 0
37 4 5 0.0798 21.868208066276228 20.586997524882552 5.701398766205388 -1 -1 0
215 22 4 -0.5484 21.9806865065988 20.535503888198768 3.0036669838512746 -1 0 0
1048 98 3 0.66 21.68578937228528 16.506119437070193 10.272079589016991 -1 0 0
584 54 5 0.0582835 20.694107114218323 13.111160252933404 3.2482698538431256 0 -1 0
864 78 2 -0.3889835 18.67440787902178 18.33941981246009 1.3523840187807987 0 0 0
32 4 1 0.0955 19.84339494945597 21.51926840544605 5.780122347645417 -1 -1 0
959 86 1 0.1266165 16.2984735970601 15.45504736059529 5.857650991070679 0 -1 0
635 59 1 0.1266165 20.781873131434395 16.71596023186186 5.117025797229061 -1 -1 0
1036 97 4 -0.58 16.383322360744835 12.0116224328998 4.53226515175455 0 0 0
181 19 1 0.0955 15.494677329131783 21.07853398789544 11.246448220484426 0 -1 0
39 4 5 0.0798 19.65990224718884 21.170362124052662 4.726828485340152 -1 -1 0
863 78 1 0.1266165 20.118783749043217 18.61580830990534 1.3298039381929312 0 0 0
525 49 5 0.0582835 20.588414381483414 13.982219038782718 6.603655650720598 0 0 0
342 34 5 0.0582835 17.471088394556915 15.762173464164675 10.402349136796788 0 0 0
734 67 4 -0.5800835 22.33457381024156 13.140235628723875 1.1021560129041923 -1 0 0
997 91 6 1 22.17964804640066 13.351977771969029 10.999574823323732 0 0 0
40 4 5 0.0798 18.957897918696382 21.21850581705102 6.339187862538814 -1 -1 0
1052 98 2 -0.58 22.241454353897755 18.34854188681662 8.94246822226468 -1 0 0
637 59 3 0.7551165 19.174412409593817 17.450645108196404 6.7428881576488555 -1 -1 0
1050 98 3 0.66 22.359579071237217 17.015903700617 9.049902187896453 -1 0 0
586 54 5 0.0582835 20.07579428164164 12.543928965990514 4.782820615875472 0 -1 0
966 86 5 0.0582835 17.14541625809562 14.778374502938707 5.866539520013013 0 -1 0
868 78 1 0.1266165 16.229182896665858 15.777307112355835 2.0596329477631614 0 0 0
518 49 4 -0.5800835 21.93045315594641 12.097272778130373 9.44194570743656 0 0 0
335 34 1 0.1266165 18.158932867483657 14.929914511825483 10.571590453180711 0 0 0
867 78 2 -0.3889835 16.84903497295667 17.07399514752014 1.6674048893722737 0 0 0
38 4 5 0.0798 21.049445813831667 20.173477951230353 7.2184571738220615 -1 -1 0
578 54 4 -0.5800835 22.62796345168698 13.205407971598147 4.821542046794357 0 -1 0
644 59 5 0.0582835 18.268930158330345 17.960072508761293 9.255778366088396 -1 -1 0
645 59 5 0.0582835 17.070583538619008 19.053718896784087 8.764239407242295 -1 -1 0
642 59 5 0.0582835 21.383918173708697 17.203373605387632 4.358515615534739 -1 -1 0
341 34 5 0.0582835 18.147821072372867 14.29243787456334 9.663203639265664 0 0 0
872 78 5 0.0582835 16.64600615678404 15.450457900122489 3.054476927316987 0 0 0
1042 98 2 -0.58 22.04690094898694 19.99914562978159 10.791906795452695 -1 0 0
526 49 5 0.0582835 20.08459006823246 13.476601329923229 8.229186470011026 0 0 0
36 4 2 -0.4048 21.7209978783945 22.171198259615675 7.001592300642563 -1 -1 0
577 54 3 0.7551165 22.651595384145942 12.030691990920607 4.50157947272316 0 -1 0
1044 98 2 -0.58 20.18283942714267 19.316984797121094 9.717481662264722 -1 0 0
524 49 5 0.0582835 21.648763211281047 14.138527503881523 8.029541138141392 0 0 0
187 19 5 0.0798 15.745475384766381 21.822639774419763 10.452709944113938 0 -1 0
865 78 3 0.7551165 18.270829470241768 17.106575518718763 1.7624133858958533 0 0 0
1041 98 3 0.66 21.2372719194811 21.025308132360067 10.762753404190045 -1 0 0
636 59 2 -0.3889835 19.94956113028619 17.75655535007906 5.677757674488819 -1 -1 0
960 86 2 -0.3889835 16.756679228758497 16.793913286328294 5.365285372708382 0 -1 0
111 12 1 0.0955 17.55102589979861 22.792112408072295 2.733253138010405 0 -1 1
119 12 5 0.0798 18.45567286424898 20.916468386910356 2.720478354082902 0 -1 1
646 59 5 0.0582835 16.97303361114816 17.310546026185097 8.222760781140051 -1 -1 0
113 12 2 -0.4048 19.310395213846117 22.058933278412077 1.3430073676988725 0 -1 1
802 72 5 0.0582835 14.573824135672758 16.444520607330652 11.122358756624267 0 0 0
776 70 5 0.0582835 11.256069446374475 18.31128980764201 0.12095151228212586 0 0 0
217 22 5 0.0798 0.9054190811639409 22.171860122948814 0.0930684434361595 0 0 0
366 36 5 0.0582835 5.084047527345052 17.980269501372515 -0.05194112505973436 0 0 0
913 82 3 0.7551165 2.496837734663121 19.79766101154314 13.684180136534044 0 0 0
914 82 4 -0.5800835 2.340356515422697 20.806622480225247 14.363281950323955 0 0 0
915 82 2 -0.3889835 2.9002468987586036 18.592806635479857 14.20734746669667 0 0 0
916 82 1 0.1266165 3.144221542521872 18.559168784258734 15.621054114331745 0 0 0
920 82 5 0.0582835 2.223776003668228 18.8719740413202 16.149571529982577 0 0 0
1025 96 4 -0.58 4.570756435085633 21.958266639899943 16.05036102875008 0 0 0
912 82 2 -0.3889835 2.246576019305332 19.81097559040319 12.376005948600264 0 0 0
1007 95 4 -0.58 2.0788066310913984 21.717250068244972 17.674108797006447 0 0 -1
1006 95 3 0.66 2.1359372108829153 21.53789299208425 18.849664585501607 0 0 -1
1005 95 2 -0.58 1.788078806924939 20.34337546165312 19.30605688081251 0 0 -1
921 82 5 0.0582835 3.3042920019592907 17.52235319978243 15.949530073777055 0 0 0
922 82 5 0.0582835 3.9681109732782676 19.18121636625207 16.0363005966878 0 0 0
1004 95 7 1 1.8901793019428847 20.254667278786226 20.739695869823578 0 0 -1
1008 95 2 -0.58 0.5579885607479358 19.999183709728978 21.175344916746898 0 0 -1
1003 95 2 -0.58 2.3988986663832885 21.570573289939293 21.172652157659915 0 0 -1
1013 95 2 -0.58 2.7334243895331056 19.240948061931665 21.313479680036686 0 0 -1
1024 96 3 0.66 5.792612178781126 22.02969259592008 15.742091032850114 0 0 0
1026 96 2 -0.58 6.224328456035672 22.04132528725771 14.462974479196436 0 0 0
919 82 5 0.0582835 0.8637104186996264 21.49188331447706 12.33924935356079 0 0 0
784 71 1 0.1266165 1.0240240611757352 15.480842478438896 13.168738875344586 0 0 0
789 71 5 0.0582835 1.52711407393911 15.813261134248265 14.097785445853992 0 0 0
412 40 1 0.1266165 7.524725347128468 16.061965183922663 20.099071798206932 0 0 0
410 40 4 -0.5800835 5.108073776564892 15.095684522729162 19.911745311376706 0 0 0
409 40 3 0.7551165 5.1863501153243226 16.304280773506346 19.674726464360813 0 0 0
411 40 2 -0.3889835 6.372077224902585 16.91499358964158 19.731399073208745 0 0 0
408 40 2 -0.3889835 4.126987470463226 17.07188268736104 19.333445989960552 0 0 0
413 40 5 0.0582835 2.6624499439608784 15.846352414544253 20.18416349364901 0 0 0
415 40 5 0.0582835 2.852835288109854 15.697350527208496 18.353776250458093 0 0 0
407 40 1 0.1266165 2.882667812742955 16.38459975325171 19.2363434049279 0 0 0
417 40 5 0.0582835 7.478264858397944 15.757175253581554 21.134767570567206 0 0 0
788 71 5 0.0582835 0.727678540548037 14.46546301314451 13.392688000042364 0 0 0
105 11 4 -0.5484 4.06048300497958 15.080384501152889 14.663608215155872 0 0 0
1002 95 3 0.66 2.57594483764835 22.37174192490823 20.06416674067894 0 0 -1
890 80 4 -0.5800835 6.1128292448564645 20.318186767691508 22.408413816704236 0 -1 0
104 11 3 0.8478 4.0099748006098155 13.938117215402773 14.362910759231822 0 0 0
1009 95 3 0.66 0.5496160416394417 18.84264824716818 21.989708929701766 0 0 -1
891 80 2 -0.3889835 5.589284685847452 21.288070159635787 20.41378620425929 0 -1 0
889 80 3 0.7551165 5.831614984835558 21.335044106037312 21.772271392649465 0 -1 0
898 80 5 0.0582835 6.62092907907863 19.430439874835717 20.052731791781657 0 -1 0
892 80 1 0.1266165 5.690348179488488 19.918077459364486 19.79589279329848 0 -1 0
1011 95 3 0.66 1.9991092574319094 18.380386533084696 22.056802199463018 0 0 -1
1012 95 4 -0.58 2.358262341895279 17.40970247311464 22.6794318428563 0 0 -1
896 80 5 0.0582835 4.895684564025419 19.331630262639763 20.226376819472556 0 -1 0
897 80 5 0.0582835 5.482805967320475 19.98194755971322 18.639471636758355 0 -1 0
911 82 1 0.1266165 1.73854801555393 21.12815444053369 11.820168809631495 0 0 0
427 41 5 0.0582835 6.526316827880399 13.078572084689856 15.934395511527093 0 0 -1
414 40 5 0.0582835 2.033459920116639 16.99278079106918 18.96671705089426 0 0 0
419 41 1 0.1266165 7.153800220342718 13.397163413642302 16.782248515070343 0 0 -1
917 82 5 0.0582835 2.5541332534858316 21.93625122644471 11.884684410281515 0 0 0
426 41 5 0.0582835 7.050149587143987 12.655521131993503 17.650867838992962 0 0 -1
110 11 5 0.0798 3.24997579735663 11.792165067659985 12.277550005811195 0 0 0
283 29 2 -0.4048 5.911758736232391 11.768294146572849 22.946928974016867 0 0 -1
998 92 6 1 2.5295005895255565 22.06485835472279 15.795605153893113 0 0 0
421 41 3 0.7551165 6.870765109895343 15.74193549434571 16.33023323323882 0 0 -1
888 80 2 -0.3889835 5.731229775597891 22.566029884034347 22.27790367074819 0 -1 0
422 41 4 -0.5800835 7.330441682196476 15.474179582131685 15.22040286377428 0 0 -1
103 11 2 -0.4048 4.169365242614539 13.595768446561182 13.040833649269539 0 0 0
993 88 5 0.0582835 4.808031389507355 22.001662987786123 11.974657375366517 0 -1 0
287 29 5 0.0798 3.63929377825363 13.552724972330346 21.500850545764415 0 0 -1
1022 96 3 0.66 7.02094307267038 22.094368675916147 16.676548334523957 0 0 0
106 11 2 -0.4048 3.7874925636489576 12.916169221741475 15.212502830950529 0 0 0
1010 95 4 -0.58 22.835609219004603 18.378610180529495 22.515103913260898 -1 0 -1
281 29 1 0.0955 3.963705526471538 12.79864863831868 22.220545805054343 0 0 -1
760 69 1 0.1266165 13.680555837485684 11.653641104534373 13.27512227875781 0 0 0
289 29 5 0.0798 5.858647307521415 13.237147460484296 21.930571100913784 0 0 -1
102 11 1 0.0955 4.053741240927875 12.116901490589365 12.941632544879774 0 0 0
428 41 5 0.0582835 6.084914217721329 17.812664544263164 14.78978890422986 0 0 -1
381 37 5 0.0582835 7.281321839976748 13.738883703043715 12.568319760743593 0 0 0
861 77 5 0.0582835 3.8781499082496356 13.288437926007282 17.87489897899564 0 0 0
282 29 1 0.0955 5.358864348170066 13.05087789916763 22.777959597163026 0 0 -1
811 73 5 0.0582835 22.41264324940175 12.186509762751045 19.73122338413436 -1 0 0
665 61 5 0.0582835 0.1209553667545471 22.973251407133414 14.363002107886787 0 0 0
271 28 1 0.0955 5.901393505347452 16.78750004824744 12.067602599148342 0 0 0
418 40 5 0.0582835 7.598187739622826 15.194347919975401 19.409949692012933 0 0 0
416 40 5 0.0582835 8.38904621935787 16.61265275831317 19.894495296112556 0 0 0
1023 96 4 -0.58 7.128722962282332 22.097513733740072 17.92323997534692 0 0 0
288 29 5 0.0798 3.31079112788714 13.05602099874573 23.022037139310523 0 0 -1
1017 96 7 1 7.671899874433581 22.16549110144356 14.385094616328571 0 0 0
1028 97 3 0.66 13.802805214423673 13.191392577410195 23.085263730297523 0 0 -1
803 73 1 0.1266165 22.846966394054906 11.854218183875266 20.731571764514396 -1 0 0
336 34 2 -0.3889835 17.899665539013245 14.16158847409936 11.834389366676541 0 0 0
856 77 1 0.1266165 4.102386564109626 12.27187563405591 18.345210759733856 0 0 0
278 28 5 0.0798 5.625375561837764 16.757714126003798 13.085853507155914 0 0 0
790 71 5 0.0582835 0.11924075142135848 16.00515049208549 12.936661285955338 0 0 0
332 33 5 0.0582835 0.728852924451406 13.198537680544959 17.37815691644914 1 0 0
764 69 5 0.0582835 13.78076728406385 12.199206789545455 12.286103166232243 0 0 0
420 41 2 -0.3889835 6.746771734670487 14.723791188191308 17.21447534671043 0 0 -1
425 41 5 0.0582835 8.222917528155472 13.454754170099186 16.475086464399684 0 0 -1
423 41 2 -0.3889835 6.53658095401156 16.958703469139888 16.675039991603008 0 0 -1
424 41 1 0.1266165 6.712392943568351 17.999660998372708 15.654989281119063 0 0 -1
429 41 5 0.0582835 6.276473733487456 18.840451639465794 16.15802689008177 0 0 -1
101 11 1 0.0955 3.811505251948942 11.698533727611522 14.359841330117924 0 0 0
1014 96 4 -0.58 9.681991956147588 21.135261800648266 11.679405970077832 0 0 0
610 56 5 0.0582835 10.082069452144388 20.60330003265807 22.197667083925225 0 -1 0
430 41 5 0.0582835 7.806550916078027 18.305151874518383 15.487743556004784 0 0 -1
718 65 5 0.0582835 12.866745860474929 22.27677467743678 20.053440213512115 0 -1 0
171 18 1 0.0955 15.368436072694596 18.871693450462846 22.380339071549198 0 0 0
180 18 5 0.0798 13.858056905249132 17.413871974874773 22.976269999648107 0 0 0
609 56 5 0.0582835 8.981985372429696 21.85866220239145 21.538391978625047 0 -1 0
712 65 1 0.1266165 13.34251392604786 22.26716832427869 21.069332713172816 0 -1 0
172 18 1 0.0955 14.011739125943384 18.444619270527014 22.76503570777013 0 0 0
56 6 2 -0.4048 11.398444689894411 12.271802796632842 18.45136393637386 0 0 0
766 69 5 0.0582835 12.839940799715121 12.110088658825827 13.789511801719476 0 0 0
382 37 5 0.0582835 8.804988751802261 13.839629503753725 13.512311375490878 0 0 0
376 37 1 0.1266165 8.258446109243579 13.25628069937976 12.714246107045634 0 0 0
615 57 2 -0.3889835 10.043288019137828 16.586760094794485 12.49537244882048 0 0 0
553 52 3 0.7551165 12.383179784681968 21.714809741741394 14.528291650716268 0 0 0
801 72 5 0.0582835 13.046216950696692 16.222140527611707 11.9270442980425 0 0 0
655 60 5 0.0582835 10.226929020964278 20.227674670010558 18.326297472936698 0 0 -1
481 46 3 0.7551165 8.802388837067362 12.206650702807437 20.75894605593162 0 0 0
483 46 2 -0.3889835 9.009737029048818 13.523799512971125 20.952921559720053 0 0 0
398 39 4 -0.5800835 13.95744461720888 14.575363377824985 16.00841449003896 0 0 0
1021 96 2 -0.58 8.077121514363665 22.160631457456944 15.829168888887649 0 0 0
653 60 5 0.0582835 8.66332540844725 19.354480029657562 18.173234475097086 0 0 -1
1016 96 2 -0.58 8.342002980238725 21.246561423612135 13.544635143096656 0 0 0
651 60 2 -0.3889835 11.215283352508852 16.699188617954615 19.624535253521593 0 0 -1
650 60 4 -0.5800835 10.809801200437223 17.833808451878113 17.703534795708865 0 0 -1
488 46 5 0.0582835 11.102083039217757 13.610763881616181 21.357060260868188 0 0 0
616 57 1 0.1266165 10.25942699614118 17.80505393804978 13.318980511852512 0 0 0
621 57 5 0.0582835 10.332737691615515 17.490101381244294 14.328697447309585 0 0 0
648 60 2 -0.3889835 9.934662202571058 18.650993063370823 19.582959333269756 0 0 -1
649 60 3 0.7551165 10.674142243242509 17.700268643690322 18.903869869643945 0 0 -1
620 57 5 0.0582835 9.510839446716359 18.619012272851517 13.144566209463017 0 0 0
647 60 1 0.1266165 9.377488966897536 19.74725228006841 18.837705218621952 0 0 -1
556 52 1 0.1266165 12.07172602956942 19.78652589132319 15.79042737938323 0 0 0
561 52 5 0.0582835 12.024090566838463 18.682696468618015 15.692938803686868 0 0 0
562 52 5 0.0582835 12.966197268893945 19.973839562613733 16.385054713192428 0 0 0
1015 96 3 0.66 9.046040554263623 21.824176794757186 12.516024114405097 0 0 0
622 57 5 0.0582835 11.207964710450588 18.231352563370116 13.209377043261 0 0 0
560 52 5 0.0582835 11.202816095689116 20.27684678842874 16.277039159290005 0 0 0
397 39 3 0.7551165 13.919868940153153 14.856282163367053 14.82673584793427 0 0 0
555 52 2 -0.3889835 12.212535817451622 20.439207127802675 14.468950717922873 0 0 0
654 60 5 0.0582835 8.867072363303002 20.453734374291265 19.44896507282817 0 0 -1
395 39 1 0.1266165 11.49166408410374 14.984414134604265 15.079680638115835 0 0 0
396 39 2 -0.3889835 12.680110490975846 15.098032806911595 14.210201120627625 0 0 0
401 39 5 0.0582835 11.523996980484949 15.684093171521972 15.894949002136595 0 0 0
403 39 5 0.0582835 11.514070663510667 13.970287175474427 15.486132015482768 0 0 0
402 39 5 0.0582835 10.600063477044666 15.067145819957044 14.50968365621868 0 0 0
652 60 1 0.1266165 12.008702025766116 15.73864414555458 18.776044310832404 0 0 -1
656 60 5 0.0582835 12.841381149995554 16.248220274127178 18.28210528651497 0 0 -1
657 60 5 0.0582835 12.413840498017226 14.975825030970919 19.457040578947993 0 0 -1
658 60 5 0.0582835 11.33557114823267 15.245048631342737 18.058173956996253 0 0 -1
399 39 2 -0.3889835 15.025578217168668 14.9886058632495 13.966406493808133 0 0 0
1027 97 4 -0.58 13.633305064088955 14.126886451111508 22.305702455570465 0 0 -1
717 65 5 0.0582835 12.790790913351323 21.621359216070147 21.785935989687804 0 -1 0
716 65 5 0.0582835 14.319315327112871 21.789221126450997 20.9083496815699 0 -1 0
902 81 4 -0.5800835 22.62169755366039 23.16760911474023 20.428149783104598 0 -1 0
484 46 1 0.1266165 10.139193650602271 13.977264132058899 21.73319880447754 0 0 0
604 56 1 0.1266165 9.38013252992244 21.38620457744332 22.448914520645864 0 -1 0
903 81 2 -0.3889835 21.53535108189932 23.1576149449118 18.483086216005916 0 -1 0
554 52 4 -0.5800835 12.390605756278795 22.362423522567088 15.568208425626835 0 0 0
490 46 5 0.0582835 10.049107745629156 13.655232193146876 22.745444329030327 0 0 0
552 52 2 -0.3889835 12.506528002377575 22.307673556172652 13.343940416831208 0 0 0
179 18 5 0.0798 13.272092598574256 18.58851151675519 21.879420070244283 0 0 0
512 48 5 0.0582835 21.495653582074393 20.515023626033955 13.580693675839349 0 0 0
834 75 5 0.0582835 14.868005706289615 14.134216110041363 19.389175265579443 0 0 0
95 10 4 -0.5484 14.110343411882003 19.000223394976636 18.972420432892857 0 0 -1
375 37 2 -0.3889835 8.084915275200638 11.845394299770966 13.081092234085641 0 0 0
338 34 4 -0.5800835 19.959815786718753 13.15967430713467 11.675329637853354 0 0 0
177 18 5 0.0798 15.630585438247897 18.82600841720597 21.31573613719132 0 0 0
489 46 5 0.0582835 10.070218206177518 15.112108107411721 21.753520711916217 0 0 0
55 6 4 -0.5484 12.929491702621878 12.290999632924825 20.049556378647523 0 0 0
480 46 2 -0.3889835 7.766888551740037 11.955671585334485 20.079669634618224 0 0 0
548 51 5 0.0582835 15.381591354005364 22.16350637736259 16.21613738209425 0 -1 0
190 19 5 0.0798 15.483579927475569 21.519121405139757 13.334453463053284 0 -1 0
862 77 5 0.0582835 4.463161978199705 12.382547467146743 19.390126041373374 0 0 0
835 75 5 0.0582835 15.419794033997091 15.447857517201879 18.229348672389378 0 0 0
777 70 5 0.0582835 9.824637229339737 17.69037926707023 22.499882767315565 0 0 -1
276 28 2 -0.4048 7.093648817469474 17.545585280420212 11.856972621535586 0 0 0
250 25 5 0.0798 11.055868048684662 22.373544659830088 18.627044515811164 0 -1 -1
833 75 5 0.0582835 16.037711870918592 13.833377405279043 18.12090063964288 0 0 0
176 18 2 -0.4048 15.573876531630926 20.146851954413776 23.093590643665134 0 0 0
509 48 5 0.0582835 22.47326391760659 20.603589906772694 18.710781726861963 0 0 0
812 73 5 0.0582835 18.231821707480922 13.782946264480746 22.370704950405486 -1 0 0
511 48 5 0.0582835 22.957951830787575 18.82775789763169 18.087218416310815 0 0 0
337 34 3 0.7551165 18.924854891099606 13.283234404447388 12.28383063711756 0 0 0
807 73 2 -0.3889835 19.83579962915486 12.357339339356987 22.902674128766638 -1 0 0
503 48 1 0.1266165 22.181514075199775 19.555014978613773 18.446228659094242 0 0 0
809 73 5 0.0582835 0.17300284664734278 12.60014523329906 21.24697647241049 0 0 0
752 68 5 0.0582835 16.307120305224494 22.35045806753541 21.56860726873981 0 0 -1
185 19 4 -0.5484 17.406458625628535 18.27806621185789 11.615332911246847 0 -1 0
748 68 1 0.1266165 17.373495873335575 22.429693075642156 21.37962656898452 0 0 -1
184 19 3 0.8478 16.864722587582907 19.349674840913963 11.721763349848436 0 -1 0
405 39 5 0.0582835 16.452917696534175 15.34470630319281 15.594995041271659 0 0 0
400 39 1 0.1266165 16.31025415274218 14.76093546613284 14.6848017439462 0 0 0
340 34 1 0.1266165 19.537577165450752 11.665823311456554 14.03949686143156 0 0 0
808 73 1 0.1266165 18.877901654691858 13.468600782756344 23.207835646312823 -1 0 0
99 10 5 0.0798 17.70678789412801 18.49321532476752 17.227185894068356 0 0 -1
543 51 2 -0.3889835 17.159456316415643 23.109875856931193 16.80398001135095 0 -1 0
753 68 5 0.0582835 17.623389056083717 21.995407465549228 20.335914162095275 0 0 -1
182 19 1 0.0955 16.290874296850173 21.41408749300037 12.528788014216843 0 -1 0
907 81 5 0.0582835 21.738986594081272 20.775275379607862 21.65890103709037 0 -1 0
183 19 2 -0.4048 17.08597350319134 20.242955006069955 12.681002910510118 0 -1 0
838 75 5 0.0582835 20.518080287111008 15.874042015515588 18.85183872746534 0 0 0
806 73 4 -0.5800835 20.952934613769802 13.707457185479976 21.412033837950826 -1 0 0
508 48 1 0.1266165 20.613438656190183 20.912730404277056 14.117085239179312 0 0 0
544 51 1 0.1266165 15.753558114910781 22.80639728213215 16.96147192362172 0 -1 0
754 68 5 0.0582835 18.05215146303089 22.01119571654869 22.156033532006962 0 0 -1
514 48 5 0.0582835 20.79635961289381 21.934617655890342 14.344675390680747 0 0 0
549 51 5 0.0582835 15.654150442573698 22.30549245747987 17.932387130318517 0 -1 0
829 75 3 0.7551165 17.881903842545135 15.541103428221042 19.307362006489452 0 0 0
951 85 2 -0.3889835 20.32717082179542 12.055686833461701 17.12211213547207 -1 0 0
327 33 2 -0.3889835 22.514366608192145 14.165669728793942 16.369313100942513 0 0 0
831 75 2 -0.3889835 18.808360871057566 15.893817179205671 20.175328854970672 0 0 0
91 10 1 0.0955 15.986395450158648 18.58202231961597 16.02020228994959 0 0 -1
94 10 3 0.8478 14.939157162864845 18.969501429304206 18.08515477756144 0 0 -1
827 75 1 0.1266165 15.70944066259443 14.581817924886268 18.81694588006291 0 0 0
334 33 5 0.0582835 0.5554696310685047 15.059389687171159 17.785565404699152 1 0 0
323 33 1 0.1266165 20.402241851214985 16.78945704844064 14.686086245510024 0 0 0
957 85 5 0.0582835 19.375388688975416 13.933604405254224 16.955446866178004 -1 0 0
905 81 5 0.0582835 21.00364215465258 22.244296837322143 22.31265106010532 0 -1 0
406 39 5 0.0582835 16.444926209589614 13.728430457101776 15.019367182212617 0 0 0
324 33 2 -0.3889835 20.811303956614353 15.43732385008646 15.24060553453255 0 0 0
404 39 5 0.0582835 17.147915693256987 15.059736435678838 14.074948326013086 0 0 0
178 18 5 0.0798 16.079388935356814 18.201209640388793 22.881103695260755 0 0 0
96 10 2 -0.4048 14.77124144785082 18.414026630231728 16.792569385943885 0 0 -1
189 19 5 0.0798 16.84383538225784 22.29864528155854 12.409721089492972 0 -1 0
328 33 1 0.1266165 0.5825077368489255 14.258434896851458 17.001592818104836 1 0 0
836 75 5 0.0582835 19.7798678737155 17.379172626500107 19.021661520981255 0 0 0
510 48 5 0.0582835 21.896315554513468 19.05102602324108 19.368767755283844 0 0 0
901 81 3 0.7551165 21.72018780315446 22.786143913014637 19.73911563536737 0 -1 0
326 33 4 -0.5800835 22.78681913275535 16.387772851249924 15.907353386190614 0 0 0
900 81 2 -0.3889835 20.76740620594311 21.874740656801983 20.197063899427807 0 -1 0
100 10 5 0.0798 17.662139343715413 20.002768501480563 16.50322989174982 0 0 -1
952 85 1 0.1266165 19.253099105851373 12.943347702902347 17.381517093268055 -1 0 0
956 85 5 0.0582835 19.063554811648526 13.046658945048996 18.477792899611707 -1 0 0
504 48 2 -0.3889835 21.09338464751017 19.549579104198273 17.43040563900827 0 0 0
958 85 5 0.0582835 18.431788037766367 12.492547281064036 16.933495335304276 -1 0 0
109 11 5 0.0798 4.928438467337686 11.724334793602683 12.395666634583554 0 0 0
27 3 5 0.0798 16.284296802244448 11.886938955380563 20.673249285467683 0 0 0
333 33 5 0.0582835 1.2871062097558286 14.510595576402787 16.217402186538045 1 0 0
331 33 5 0.0582835 20.131488621764465 17.38168952932491 15.537439824395765 0 0 0
805 73 3 0.7551165 20.86655779386387 12.63162093289211 21.952694527505756 -1 0 0
93 10 2 -0.4048 16.236234797185684 19.47481292419111 18.172584617192488 0 0 -1
828 75 2 -0.3889835 16.747703440449406 14.957389292184631 19.766424698399046 0 0 0
783 71 2 -0.3889835 2.0234590477441263 15.605808495902354 12.211294536307891 0 0 0
906 81 5 0.0582835 19.984911265841745 20.838634408608353 21.93083085652958 0 -1 0
505 48 3 0.7551165 21.346288938435123 20.23909223487805 16.274841122540497 0 0 0
325 33 3 0.7551165 22.07213931619433 15.338188260664156 15.851650578462449 0 0 0
92 10 1 0.0955 16.983254003653407 19.260179776505975 16.917584389983155 0 0 -1
330 33 5 0.0582835 19.550285212653968 16.64699005072164 13.989251211864334 0 0 0
837 75 5 0.0582835 20.724513819832065 16.81481595705869 20.418630350147765 0 0 0
899 81 1 0.1266165 20.887705201587327 21.42670557293213 21.562251821971355 0 -1 0
832 75 1 0.1266165 20.00058208041313 16.496615302184534 19.649424509094235 0 0 0
346 34 5 0.0582835 20.398550248953786 12.229934062521798 14.41764843454264 0 0 0
195 20 4 -0.5484 22.919996422649533 12.164276831777668 12.272664745288731 -1 0 0
97 10 5 0.0798 16.37648695477422 17.765051037442856 15.460808163339 0 0 -1
329 33 5 0.0582835 21.244067967875218 17.186639926472452 14.161361784871948 0 0 0
513 48 5 0.0582835 19.737512865620474 20.972635687693465 13.408043905770414 0 0 0
830 75 4 -0.5800835 18.027166618279804 15.723009111219282 18.12999506140439 0 0 0
506 48 4 -0.5800835 22.421699567216876 20.832001311288717 16.084037428039945 0 0 0
98 10 5 0.0798 15.680519473321064 19.33983474944932 15.198304637455442 0 0 -1
339 34 2 -0.3889835 18.658193941196163 12.632322630333638 13.399214495496178 0 0 0
507 48 2 -0.3889835 20.32117820769183 20.20740871890663 15.351558907616273 0 0 0
367 36 5 0.0582835 6.836321828136191 17.900745393607778 23.086483246784777 0 0 -1
277 28 5 0.0798 6.103121907539275 15.804204715469798 11.743875170771972 0 0 0
365 36 5 0.0582835 5.826783132260951 16.524910263942896 22.535342406316282 0 0 -1
380 37 5 0.0582835 8.688303177150381 13.329467647970224 11.704853568285301 0 0 0
374 37 4 -0.5800835 10.296651651701335 11.730934026320597 13.28733351956464 0 0 0
54 6 3 0.8478 12.225490167082228 11.645285963162149 19.29714480575367 0 0 0
759 69 2 -0.3889835 14.770668321921345 11.795193187619814 14.139632743483999 0 0 0
242 25 1 0.0955 10.391215676714191 23.24158343301811 18.532417987789927 0 -1 -1
860 77 5 0.0582835 4.9242971547321694 11.84980521199688 17.66981075451031 0 0 0
249 25 5 0.0798 9.509214094260615 23.100114940447174 17.8868050674558 0 -1 -1
608 56 5 0.0582835 8.536423721952898 20.921886087450932 22.953368180735325 0 -1 0
218 22 5 0.0798 22.833390236123797 23.19752625152675 23.13916041232742 -1 0 -1
1033 97 4 -0.58 11.837291719295697 11.784285832144766 23.09519030432621 0 0 -1
280 28 5 0.0798 4.175223288483171 17.868991809204573 11.862492661828737 0 0 0

Velocities

83 -0.0028682449412714933 -1.6348450974385128e-05 -0.002218855919514335
84 -0.008418528743552511 0.0037669035647511363 -0.006722925987782001
85 0.0017713919707989041 0.004540241638407873 0.008984933738216185
86 -0.0019640976238622853 -0.0001472683913423063 -0.0014768871041735162
460 0.006013387133373669 0.0007724161579158498 -0.010352278198927206
82 -0.004855291797401583 -0.0020866116408168644 0.004050138786085479
464 -0.012159511904237709 0.00954754642901487 -0.021755444392901536
81 -0.0031392492303705245 -0.00039447604986288264 0.0032828177146291826
440 -0.0173386853755728 0.010477911874739239 0.009325887431589384
90 -0.006968753173685569 0.006329010496493058 0.006740720177956641
442 -7.08913650929884e-05 0.012492707459207568 0.007316927939145717
436 0.008133242910441839 -0.0009876897317680948 -0.0038810426032731293
435 -0.005008497117943797 -0.006407429981539195 0.00022082128111921905
441 -0.002696614386484569 -0.013010762263770521 -0.009099511381628988
433 -0.012975803703472486 0.0031739403286104597 0.0004895885745826701
393 0.02545828884214966 -0.002748410896966161 -0.0035372453268215937
434 0.0017631415441968785 0.0019295875128085371 4.79045575356248e-05
465 -0.010753204099768635 0.01526263294146425 -0.003501233572638364
387 -0.007162895673547991 -0.0075132916967850455 0.0012366944522625122
685 0.013725819050134851 0.004745750921964079 -0.0013415996896751056
384 0.002214401285076281 0.001898387909279016 -0.00152454394272715
388 -0.003024341626866333 -0.00450474295664658 -0.005703149260002538
385 0.005814420525924562 -0.0008123989057495984 0.0050359299031228
392 0.02139214078032498 0.0017018694765339566 -0.007014801951662952
459 -4.382292994491968e-05 0.002428429805509699 0.0034733943386216553
88 -0.011160554657232388 0.008835107587222217 0.015787876127148243
686 -0.005044839045345917 0.0005581831859980077 0.0039329804935440745
383 0.0008148376208561723 0.007133798345817655 0.0011310134593407628
687 -0.0015405362604457152 -0.0006708358208202209 0.0032020287111020804
700 0.002259226826878284 0.000505720995628259 -0.0011765075856796136
705 0.024033483230738412 -0.018117962896337117 0.017575861126154897
688 0.00013255089534642466 0.01077990747401984 0.0006669933779341521
693 -0.015025157463588026 0.008729905082451412 0.002917759045401032
689 -0.0018233806710747898 0.011187839410836417 -0.028033731401002016
684 -0.001499186508558473 0.005627720272620423 -0.0007304626598674238
683 -0.005719439900093605 -0.0017820478983836593 0.00684685576267554
692 -0.0054915912570630025 0.01151493365682819 0.018232794366316887
691 -0.011767687249045825 0.02065157663545533 -0.011431694692102867
457 0.0037981105788915262 0.0026851097673473512 0.004707137616025304
456 -0.005970802387096021 0.004257284085606529 -0.002522437354987436
819 0.0004582969922150748 -0.0002330151601978717 -0.0013131653911848274
690 -0.012698719455330538 0.005283091188916395 -0.005596229603901546
466 0.007562782250773536 0.0009154670104216966 -0.02525156469969526
458 0.0008091433690967064 -0.003369900763891209 0.002105351336387936
928 0.0011035401419055228 0.009233550888754893 0.002002742190331732
135 -0.0039129614542939535 0.004635748563792849 0.002790252579632336
355 -0.008942183715008696 0.0067762064248972805 0.011438325703837866
347 -0.008439671115624353 0.004731356822342166 -0.00523652245946572
349 -0.004056286194352421 0.006408857809152207 -0.0047573357592507175
350 0.004272050998601363 0.0031633873572402163 -0.004675427397527646
1068 -0.002098200777792347 -0.0044111734397376924 -0.004008755419389301
89 -0.0047181350688201605 0.017182276347868498 0.0044738721428746065
354 -0.01038429339985188 0.009421649394358328 -0.009010474272937106
87 -0.005123259503595707 0.007118110030255492 -0.0012361952659750877
694 -0.005867940326235271 0.008932762450058704 0.009712565166834615
394 -0.015262515473272916 -0.008724604759229421 -0.008478006252454689
1067 0.001594891729574941 -0.007506611796925373 0.0006257411497656215
386 0.0033376611601964 0.004711568132526215 0.00037797352392822484
348 -0.004946245350093092 -0.0004406858663493706 -0.005023431252242606
1073 0.0026357995308712457 -0.006252776447284119 -0.0019850682664552355
816 0.0023845308906911646 0.000356412304668823 0.001998386329955652
706 0.005344768599520794 0.00720832377764981 -0.007977809373545234
1075 -0.0015806136594708764 0.003135285124062141 -0.0003320686090098684
463 -0.013445862953213771 0.012651092068633796 0.02112911006552222
817 -0.0029532508042688674 -0.0033566011351942593 -0.0012109735618142457
353 -0.014687999353240125 -0.019146689724457922 0.006629583849182001
818 0.0048340546484991415 0.00283206794921502 0.002335352766003141
741 0.03212065071368584 0.025762882230947443 -0.009486131363413336
317 0.014022137915361913 -0.008869156911171143 0.010525632570019382
736 -0.005055168564058824 0.011401939566144789 0.002703783331748485
885 -0.014721359448572342 0.008781632196095093 -0.00047266619875047274
523 0.015506989724292429 0.028936402499330906 -0.00048327498053365124
824 -0.012027222769624509 0.01479737126604132 0.012031879894642376
704 -0.00022161127465150903 0.008601674055702075 0.027245594199167462
798 -0.014328767065198648 -0.001901881286453225 0.019222892920287348
742 0.032985409540542965 0.01842523432664915 0.003010710142565207
1074 -0.0008537609438984061 -0.0004638876576464135 -0.00636030860555082
455 0.006752044973065206 2.780570665000203e-06 -0.0019901024651212645
462 0.00040297449427352094 -0.010344217779255219 0.015714276176368825
570 0.01011676429085726 -0.04013656213330402 0.013360683362352334
582 -0.01590710991240381 -0.0011379518215761542 -0.009094022145402458
308 0.012995661420386204 0.004097312451382576 0.006022870774524814
220 -0.00821604745702342 -0.012924819275757855 -0.000997274417674514
894 0.041179227338222775 -0.028208259296941193 0.004122657265335415
314 -0.009214418896499982 0.002622406017873876 0.0020684304522754146
439 0.005965476476947389 0.019250386765056957 -0.005358287711085097
974 -0.006205229084512858 -0.004446060976155687 -0.006545695186728784
391 0.004457610582627197 0.016384917180572577 -0.004537382451654906
68 -0.0085658180408545 -0.010950738581045314 0.042472105430389755
136 0.001209136348642429 -0.002702693387635052 -0.0006724947842879211
208 -0.0013250203983168414 -0.015676056434961803 0.006673832415560619
356 0.0048804752299313695 0.0024398502080477547 -0.002623494988721352
569 0.014090169497733085 0.012005088284331738 -0.01554184642181447
849 0.000652289947436273 -0.022079129240933772 0.02049555116576592
69 0.004654536657993915 0.018292139828164074 -0.010754544078297876
681 0.005457227855454162 0.021644465098279456 0.014798259792152912
839 -0.004040797212339387 0.008177864239934668 -0.0009274860906522981
995 0.004153005511975623 0.0008085398432553398 -0.0019541434690855046
202 0.001186043523643713 -0.0006635874936710411 -0.006522035620870734
1066 0.00713849089142135 -0.005976953613938084 0.000690428335081902
1056 0.0018096849074953638 2.6934579373729273e-06 -0.0024693679328786316
352 0.001925601015047476 -0.011458110822577116 -0.0013743243290730536
563 0.0025620775142922176 0.0033772273607024328 0.0032374796017355504
989 -0.012762914639424663 -0.008901018115761517 -0.02752882675221252
877 0.0002104416334901541 -0.0013058185061783343 0.001473621177237851
357 0.009960381415736328 -0.0031486592576705653 0.00036559419639838975
70 -0.029538163235889783 -0.00024126761632469834 0.003194104736482661
358 -0.002924055090240446 0.012907466799674265 0.01951336647085826
1065 -0.0011981732592731185 -0.0014433796928790717 -0.007785678060400866
61 0.002419647133616706 -0.0042588063014745514 -0.003422005641699324
461 -0.004754030682636259 -0.021193523588677914 0.02913431647095832
305 -0.0028803080756804127 0.0009790021801333107 0.0006479124382936712
981 -0.016445590003017978 -0.00014820188062238376 -0.015609070356550115
980 0.01326087251321163 -0.012073346647174464 0.010174414964621185
564 -0.0021710793924292265 0.0021883575081031613 6.542411862195638e-05
572 0.0003724051089603255 0.016553753778239026 -0.0005208473871004678
730 0.023376730792251766 0.003189582645987312 -0.009764856135184739
573 0.005609361832886698 -0.009303277101151957 -0.01900365482415208
63 -0.0010166132068432669 -0.004101255796624957 0.006041205055292119
942 -0.0034833040849819906 0.034073906093489315 -0.004560153484986677
943 0.04077729655627202 0.004225943663868791 -0.019407451120414997
935 -0.0035072263308818636 0.0004713236435645011 -0.00017420922577935998
936 -0.0005654689789351498 -0.004209256242694083 -0.004387828851853596
944 -0.01108631735650159 -0.0005532201106373132 -0.03277076551884749
945 -0.003994349531640377 -0.013566807815970904 -0.000561236725029046
938 -0.002549613527290421 0.0012592777622426757 0.0050294013113924676
568 0.0008802825331203229 0.0012882154223761626 0.003079735266051195
727 0.02738460024944527 0.006556027163900202 -0.009561674247288062
940 0.00287071436809561 0.0019022094664289172 -0.002979447860303022
304 0.0009023698921137213 -0.0002427164217600926 0.001327204784815357
722 0.00025257846745955657 0.0006808450202534788 0.002983433778219827
723 -0.0022192695921426126 -0.0008921869393851599 0.000594767535094387
721 -0.003496803141707197 -0.006085425394834525 0.0032662052329732734
719 -0.005642615835866895 0.0017808946470356767 0.0012351661244246017
725 -0.01115253740839415 -0.008749073079631155 0.02132810040346729
720 0.0020949662970594714 -0.007328524097028885 -0.0002028449796019339
726 -0.007480261979145142 -0.03248050710313164 0.016145334138162937
15 0.0019031207367730613 0.005241545854837568 -0.006934624208953091
13 -0.00029094554367633586 0.005809623881785427 -0.00397369319887476
14 0.005021140762245074 0.0042993248286799 -0.004787339618577547
12 0.005194770463488324 1.4349481641710389e-05 0.0019792138103189995
946 0.017985712988454614 0.002343269424318432 -0.0010900255400827057
937 -0.006434722034343554 0.003002915574796037 -0.007524368161881816
939 -0.004818762194794084 0.005045941039340222 -0.002504970832301219
20 -0.008989961588356167 -0.02170537391654664 -0.010335052520985478
574 -0.01644651539073155 -0.012197240433185576 0.009720185225775606
64 0.00040131916191199274 0.007522480357333573 -0.005063928943027674
65 -0.004424270145582863 0.0018603830528980464 -0.004902819468964512
941 0.02100217798232456 -0.010992809648021334 0.005799274800187781
567 -0.0016954769992785195 0.002003003802966665 0.004110069768738966
724 -0.001987722151892753 0.004266808528961891 2.897399550044115e-05
565 0.00362838276199705 0.002987966888377941 0.009720168151173885
729 0.004809453609529992 0.00340632310495686 -0.012554214833334819
19 0.0009293696450943903 -0.015695603950920678 -0.011175089556521136
566 -0.001056271034166942 -0.0013080374756951254 -0.005213397977695481
306 0.0073754799531393 0.004523403916201048 -0.002827024906283922
301 -0.002456385615130295 0.0007639308214387255 -0.0018533939750647976
16 0.0009047280289744882 0.004376919436686796 0.002413288141044412
18 -0.009523673744583142 0.027772300720858744 -0.010460547361344587
11 -0.004774096193162183 -0.005437175783847791 -0.00744946155454131
976 0.004077084129830956 0.0022636378783580623 -0.0003066358821846725
975 -0.0011591347537400838 -0.0019606927970275694 0.0033139283599138867
66 0.010099151378178649 0.00762872578946454 -0.004030288342145698
62 0.0014690295780868618 -0.006839034786467795 -0.006672092488500441
307 -0.022213727534434444 -0.002840076937485972 -0.0014611603672057697
728 -0.00982890775906825 -0.01227162576203256 -0.025559437288645
351 0.005703043864643295 0.0002143972086282887 -0.007143508080321283
210 -0.02517531383652884 -0.0006986762219791108 0.013458654666592332
879 -0.007816803597920407 -0.0007548795107550423 0.012941974877021546
878 0.002528006400403787 -0.005224209990626891 0.008083821611535908
882 -0.004736375797870406 0.015082128839164363 -0.010266061166742214
886 -0.0003777453768937229 -0.014014381490177396 -0.017057305287041788
880 0.005865722151576239 0.00024972149857316914 0.0035074892438486773
884 0.0007036038972910353 0.009591761086519412 0.0112199852069752
77 0.005887741998480012 0.0030594324276934635 0.012064252555629719
71 -0.001265064597465791 0.007604091285026499 -7.908411654148034e-05
45 -0.00832692356607499 -0.0038075045946907053 0.00502674194800526
1064 -0.004021185716685422 -0.002031857410525862 0.0031740113694394513
76 0.005235799059362804 -0.007238635384386357 0.0036919071846256354
209 -0.004205276703802556 -0.005527316603251365 -0.0003892317260842169
75 0.00024234148097898234 -0.002206586793192861 -0.004444611657657431
74 0.0046885985271229195 9.125459769880774e-05 0.0026775869099447923
699 0.0022781114540157393 0.004763896189062962 0.0016302415909743098
571 -0.010036665031961057 0.026889669658367404 0.009625576813314126
1057 0.006643740794456703 -0.0017165770667731566 0.0029315827802472703
389 0.01722102067767182 -0.00044123296353414175 -0.021305982810228826
42 -0.0007671615688767089 0.006143457264277522 -0.0008517992417942559
522 0.003912100084724037 0.04274056773274107 -0.004919338914183411
124 -0.007910548396955819 0.005712980646264663 0.002637236742312024
515 -0.0075570159183471625 0.004943187661687851 0.0010653954488798727
996 0.003010214670008853 1.864531728912648e-05 0.001974025220453364
43 -0.0024932762237376955 0.0015536108167142552 -0.0036331824705034166
1063 0.005237414933392274 0.004829700148249044 -0.0002567622928658583
740 0.02852856811940719 0.0023987230031349968 0.008331659276367524
1031 -0.0010829560828993388 -0.006823227143638171 0.0014125267801584878
750 0.025546762229696703 -0.010590524607459637 -0.02059476599749904
576 0.004546080642789684 0.0013927920210231616 0.0029061956027957316
844 0.001047717217132757 -0.0002804744866121608 0.0006585128943939272
201 0.009518366056092766 -0.004978393713926064 0.0027270278385269535
127 -0.017867898325382995 -0.005222543493018119 0.007654098670516276
883 -0.035780641473795234 0.009765101602424664 -0.009646426400385284
876 -0.005740561709531826 -0.002162438249369028 -0.0024922162590667605
50 0.010518209152683236 0.0034918557102687274 -0.01157796028167393
843 0.00021405699539019996 0.000883526372869605 0.001850714990622642
579 -0.001256564090842905 0.0041250614130781 0.005353396877294395
840 -0.004753286803859126 -0.00493219650548279 -0.003983850625193353
929 -0.009958426546547798 -0.005071074855130716 0.011088879519642825
46 -0.0031907287267307458 -0.000692789636342464 -0.0013202815840098745
48 0.04155528944978719 0.019211870594000754 -0.004414182816355264
749 0.005424738502439057 -0.024922049061029218 -0.006125062388731559
926 0.003127133595836575 0.001403733360896922 0.0002623749205289176
934 0.016529382817417268 0.007377919574476168 0.014788012272822485
129 0.0038985155906330468 -0.02737026083056175 0.03490075453915155
47 0.018687650983195785 0.008564158861063697 -0.031312726001392184
116 -0.003325426773589849 -0.00448134384502344 0.0023538802381576174
925 -0.002054627485949384 0.010808635172766631 -0.006797047952644055
123 0.0019745335783443695 -0.004472889736959229 0.0005683535789590339
932 0.0033795197980981974 0.030564636318920164 -0.01455542121438117
17 -0.01888876347537841 0.0038910224165722906 -0.006925627474612657
321 3.947101123106915e-05 0.009428550308241562 -0.016868251248027544
320 -0.00965064929584261 -0.019317553680790262 -0.01366614782648511
982 -0.005223189285285208 0.03407518122927188 0.0038872672670270158
587 -0.005589153844301726 0.003862519534723708 0.0019976471448639086
881 -0.0037071821647357197 -0.020306066230717835 0.01564191335545181
875 -0.0040057882112559656 0.0011148502292668704 0.0029754434556075724
1037 0.00023512345965074396 0.005216526326750272 0.010298958810503913
848 0.0162149892478926 0.006101588475873945 0.0011884749212282275
746 0.0014145849007810589 -0.0010254267364602835 0.0026093863737452
130 -0.004619214567750082 -6.483059576918972e-06 0.004588437346089031
128 -0.008563281533694992 -0.004659237494647812 -0.009867679405006519
115 -0.002376102629219197 0.010536690016838962 0.0017370713063539732
588 -0.0037853940356113868 -0.007162218611051144 0.0026286618087524105
591 0.006124905841730513 -0.0007650276554421565 0.003952984432804254
931 -0.0007647233019701539 -0.00036547888075279516 -0.0010443583924629575
841 0.001164608321428878 0.005092253911655436 -0.0012825025856578911
842 0.003761218401976057 -0.0035846474449846544 -0.0037853241578641008
125 0.0015514179889264438 -0.0010141910245605574 -0.002689805423865861
316 0.004163773945432077 0.003921666849331958 0.005573254407922986
122 -0.004821828924598289 0.006489170831540286 -0.006815232317141616
322 0.03196787707547024 0.001924054378873384 -0.01442197215054995
927 0.0038347181137043523 0.0016108182418584469 -0.006881762940582326
589 0.003094708747634396 0.0008242149851226737 0.0012629981540721136
35 0.0012714214155686951 -0.0007479922979778598 -0.00014657700071706058
924 -0.005184979449971027 -0.00019948394716914398 -0.0019140263181564002
1062 0.0013380940637655533 -0.0006276143973857243 -0.003885776962828859
126 -0.0035155587794575 -0.002193412349422839 8.67095167058898e-05
593 -0.004735358725708418 -0.02537745240230093 0.025313587698672507
1061 0.0009883151796732975 0.004901252890088537 0.001237900925334114
49 0.005569852963589993 -0.011702815955189544 -0.013119173381967827
597 -0.013016952967780224 -0.001481259458929081 -0.0022417112476921424
847 0.0060955175105794545 0.022973732109907694 -0.011801376320254827
121 0.00681718820410596 -0.007258292318023091 -0.0007552428971911006
930 -0.010370523961071996 0.044451275009979155 0.00015986554537501807
850 0.010423135330675667 0.025265496343065748 -0.016231953539979097
596 -0.010070509967842076 0.010095165010726095 0.019896776027026622
44 0.0021482218792623024 0.0008080951118818679 0.002597544560389378
590 0.004130985428666328 0.0002465783201839084 -0.0012919553997328653
923 0.002462806795552705 0.008080806515594306 -0.0045405909006985745
521 0.012182132702580124 -0.002117222963697221 -0.02828103834777165
1039 -0.006608321377087665 0.002777999054005904 -0.0016542990612425374
846 0.009650102551811705 0.03187360309225773 -0.003957231758454344
592 0.0065044743460676525 0.00429913566017212 0.008900800660363199
1038 0.001766894492299814 0.0034934709655904833 -0.0024631000518184976
595 0.004111321507014596 0.011775059108831407 -0.0011679800630721576
598 0.015276180168545254 -0.008353709321099887 -0.016033350903742506
845 0.02208290638659135 0.012969644406702327 -0.0037136068813906596
516 0.004494711392915257 0.0028327797148326767 0.007223490273288348
41 0.005830617331881984 0.0009435170953418354 -0.0002498242271755753
390 -0.008473480834682431 0.02767535594109131 0.005298770671378041
517 0.0044118449736110215 -0.01023131021280478 -0.0027251127209069314
319 0.009671901701661826 -0.009561042142146035 -0.00044902640534248586
823 -0.005258128082234555 -0.008591428340759754 0.008719378547427877
973 -4.572104926552767e-05 0.0021490357368569336 -0.008836947398856761
313 0.0025190212024440483 -0.0043795716227382955 0.0011453055679961032
114 -0.0023029981999021626 -0.0005136971544290022 0.0015102131507553629
698 0.001587449556218673 -0.0006343670506712631 -0.0009154470374833296
207 -0.019692980927600717 -0.012264257563142672 0.01855211200671821
751 -0.006350664467401485 0.009293392904785034 -0.016467112226896688
743 0.0050286001541984355 -0.005551898591592056 0.00540733251466091
1069 0.002388945405678887 -0.0006140111582208173 0.0019216773371609397
219 -0.011309191573562591 -0.02414425682534314 0.014483776948926387
79 0.0013894022124234517 -0.007275987185536889 -0.013451135049941486
1077 -0.004028378147007558 -0.001362249800548454 0.003887966493378854
221 -0.008186002493357688 0.007668358166951746 -0.0028974813857298195
226 0.00253452952668748 0.003497892801054546 0.004595311493258397
223 -0.0004984804453580072 0.0011085101685441774 1.8600525838195867e-05
224 0.0005065881258990482 0.004405018730655079 0.0026456707657231348
225 -0.0016673183742956883 -0.0017868425653996462 -0.0076487009889097644
668 -0.017532198264719422 -0.013985986821999655 -0.023111684949061354
664 -0.00450335865241518 0.0005433713095061778 0.0013015329385402835
670 -0.0019089870255376003 -0.0007112776295818783 0.011266050714967503
141 0.004220487217485791 0.0023605969978033126 0.004082911612915133
1078 0.0024871062074254364 -0.009193524921449918 -0.0007390466429961675
146 -0.0029354501606046416 0.0026352393320124927 0.002808666429906166
1070 -0.0058510565800301215 0.00044316816339644456 0.000174193734880146
143 0.0036428584212426186 -0.008500741117007894 0.003915553780661913
142 -0.005692290863185988 9.34287043039962e-05 0.0009005817510302034
1076 0.0013182542734921391 -0.007230650174661696 3.1230841960653904e-05
853 -0.006299039082437821 0.007886849007492074 -0.0018693505626974842
852 -0.0004093700020027344 0.008098756649249533 0.007540945036320347
669 -0.008285460350954968 -0.006500872391450022 0.017312411113932207
630 -0.008468055944629694 0.02456399376652237 0.0035405149930322864
623 -0.0036965238676382626 -0.0016921588639873678 0.0022699932900014635
629 0.012964091237411022 -0.012184547029346682 0.039878169262621055
624 -0.0011697264221005666 0.004234960476156384 -0.00172773491310751
292 0.0007002421805918363 0.006526768320201987 -0.00033122471746319375
631 0.0221253625367236 0.004138424060846294 0.011113297635005905
625 -0.0058159197918006295 -0.003288732232484215 -0.0013337693934426997
626 -0.010903142640343927 -0.004336537584260019 -0.00012200549756931486
663 -0.0004030494766602585 -0.00023816642334723807 0.0009288235175978335
851 0.0034768344270654015 -0.005787832565698546 0.0015599573035785992
857 -0.001010446376495447 0.004913448451357532 -0.0032535364286767864
293 0.0021342329262966507 -0.0032656979295005873 0.01034874646365805
854 -0.0031720273236551934 0.0027229556133187617 0.003881673207702817
228 -0.00039141262951370207 0.010626917105820255 -0.009039612363882512
147 0.010401634166506945 -0.011800248086744639 -0.007587035690581334
859 -0.01187658914900621 0.009410155063339594 -0.0015574990030014404
144 0.004086281225929462 -0.00399916564888138 -0.0017035100912506118
300 -0.0002489639769279608 0.0030181582905445294 -0.015984425310463082
234 -0.001522827639770755 -0.00407391256471179 -0.00026197710922263705
298 0.004847886920775089 -0.009679137943013639 0.009384823506793464
291 -0.002059450119222724 -0.005940401784079557 -0.005076305693063215
294 -0.009660417972596539 -0.0008015998442264606 -0.004259992751471634
661 0.0022154914655845787 -0.0008850023421948874 -0.0036504174390573217
295 -0.0008474054151993536 0.0011386967366945125 -0.009946523139282825
296 -0.006298172330639699 0.00016862661577691872 -0.0036449278707165783
235 0.0013229142560429073 -0.0008757241841192863 0.006103898471094941
236 0.00702660790099758 0.0005447850305914454 0.0005136435384447867
231 0.0025868815475646265 0.003641689202121841 -0.007394113046416733
149 -0.011496456341001575 -0.0204326283357268 -0.009666178843162985
230 -0.00934697460398646 0.011260104219363767 -0.0009755665603044662
108 -0.005257397449523912 -0.0006223144221832507 -0.02001038685223703
222 -0.0010015736456174488 -0.0037423841215259894 -0.0006396963361898788
237 -0.017609384026427314 -0.002451474019669336 -0.040031372255007934
227 0.02150925477447565 0.006859664014024631 -0.016444174836000757
299 -0.004323003387067158 0.000456469469082289 -0.005146322459963184
148 0.005335068045687138 0.01750600394437404 0.012579750028104403
667 0.015716724315548117 -0.023146006589201656 -0.026177675252840937
485 -0.004102609270315152 -0.018099902741309792 -0.02439014534065986
855 0.002984845197410218 -0.0007683299259291351 0.0011114823289264748
139 -0.008328436584919262 0.0068259406134345306 0.010385330858925049
132 -0.0006440840885760677 0.005657645645569916 -0.002559503357015141
58 1.9916632233572167e-06 0.0035190871453088914 0.004028865318157367
67 0.00968436216884801 -0.025555436497401617 0.03085013828287682
200 0.015871106471443817 0.00047107959299931166 -0.025409545902627676
145 0.0018561435041341127 0.004089797665715399 0.0001350265078815375
1071 0.004754815133583948 -0.002824340662229507 0.008573777079521804
229 0.027451639918511718 -0.016645530523008666 -0.028243304874600125
150 -0.0028870997178042403 0.0076543215829264055 -0.0035515075961128862
297 -0.006107654643959077 -0.014905809049102551 0.021959546751559034
763 -0.0016521794597843618 -0.0056004990506280565 -0.004958350491097802
662 -0.0062207037651526315 0.003997239637982672 -0.0005835521633579765
858 -0.0039556390572970624 -0.016042569957104187 -0.005215918775942319
140 0.001444682361265586 0.022289238104510327 -0.006453035805251325
486 0.011400447350287089 -0.01221128748693577 0.00310768577702514
285 -0.005560388967663196 0.0010416583118731137 -0.002581529555856132
192 0.0031928732549875833 0.0003180498895173061 0.0006860814085048098
660 0.000960754303753466 -0.0040852459050125115 -0.001833462080858134
659 0.004157626394705842 -0.0007036611333295155 0.0035696074307770055
51 -0.0008181418794611872 -0.0028454820600676087 -0.01085274050632624
199 -0.005358225841758818 -0.0005886200711133336 0.03165402597591775
131 0.005098385399759974 -0.003025672229923044 0.005748900269601795
133 -0.0025206921522078632 0.0008159632763451353 0.002792811797672082
284 0.0007171019853575687 -0.01310444952726001 0.005422808844145406
134 0.001197715374594856 -0.001797480622704181 0.0011628320571870332
286 0.0015658570064713741 0.0028331712554464502 0.0020891902061008225
318 0.0010558924331392876 0.0013398710927482096 -0.005745444972816528
312 0.0013476291917985327 0.004472972669506999 -0.0014920689232120396
311 0.0034033240808339126 0.003955350155583315 0.002289501929206847
137 0.008135083827924557 -0.003951654862618686 -0.0004102427214350609
193 -0.0008122126003036468 0.001905672196297072 -0.0011705316446994436
627 -0.0010880733218080576 0.0016628106833019793 0.006888279199284597
138 0.004417574860288239 -0.013616785077092906 0.0048604120649679014
198 0.03665168686134264 0.002475143080201605 0.010812017255647802
634 -0.007700961647677859 -0.004151176158736291 -0.007671100782991968
632 -0.011251931708949878 0.012713095060173946 0.007252270992533422
820 0.009294409297604618 0.004417101290549217 0.002990812489398829
232 -0.0011140369108547008 -0.00535416317302923 -0.0014755017046564204
233 0.004771654469777696 -0.0003588919855846048 -0.003893651057050617
239 -0.0009110103824676851 -0.002360728081698034 -0.014950159316948462
479 0.002540807202509907 -0.0009010831510794829 -0.004096162737559249
238 -0.008097390195478355 -0.003682094714929465 0.012367798279011123
1060 -0.005054263648801797 -0.0033194087667861505 -0.0029143002867697684
1020 -0.00050650023257213 -0.0033781809169326094 -0.006104828094769393
1072 0.0021955550016976386 0.000939868414827619 0.0017921143399588215
557 -0.006049642245188232 0.01567368385927144 -0.014721534887103987
487 -0.02843622990985985 0.023234229240095935 -0.01402392996359888
559 -0.0005937016010242784 -0.011081486188108907 -0.018629041877188793
72 0.0014857969346182595 0.0011379105141536652 -0.008305662803582728
558 -0.013081808916299441 0.01464110498437361 -0.020812041108490532
240 0.032684816141477044 -0.005955360118325362 -2.535975068162664e-05
57 0.004550317143904383 -0.013704191316638895 -0.005516513379262893
378 0.0029677901162348773 0.002996109993165885 0.011889115327601974
372 -0.0049004292665604495 0.004848157895615969 0.0019910492666093114
52 0.0017526288488329952 -0.0005037369172899789 -0.0027958873654957066
9 -0.009018942003204133 -0.011782345500438364 -0.015471546891835837
478 -0.0241495317954676 -0.007528307626115511 -0.006474535459307861
1018 0.0018166707023253047 0.004366892268596668 -0.0008343214470455127
379 0.005895251167065638 -0.017863768485100302 -0.010364987231408215
245 -0.004964564556971083 0.005818802077082822 0.008504683262698466
7 0.020576287597245956 0.005389989834185429 0.02546020020918343
59 0.010328376030149617 0.0002704619875842024 0.015838693840601988
53 -0.0002957471108645061 -0.00028088283051784946 0.003497255203917892
248 0.004351690804662734 0.03377372102946135 0.005230507175443102
246 -0.0037717036624076257 -0.0015320428770187096 0.0015429818901729383
377 -0.04114570012147159 0.013754666991201855 -0.007382854735998255
5 0.0005990408340838698 -0.004698148103780303 -0.006962194671607824
6 0.0013184050336335882 -0.004238887590558131 -0.004381192537505272
4 -0.010878146667012674 0.0014396675525797237 0.0028261243261383773
8 0.001185619515343891 0.0019179877960588487 -0.0006799019946482432
474 -0.018313091380033036 0.017793799283589352 -0.01926748203505044
3 -0.002109149087321008 -3.224453287329666e-05 -0.0007789446826584075
10 -0.0211990529345367 -0.01448685674554142 0.017613179444871646
2 -0.0008613982336698085 0.003005935240836046 0.003905344512186708
1 0.002560014916426584 -0.0032055816419178157 0.0014850323973185223
468 0.00010703709436061192 0.0015856324964818066 0.0030147787804927764
999 -0.00027200352627843494 0.010157253299066173 -0.00482005017860939
467 0.005342764953343437 0.007659470425757293 0.004196180738897421
162 0.006793416022808107 0.003149084525119457 0.00662126907983141
1055 0.0008848826114337982 -0.004742974013536827 0.006211652911720351
1053 0.003488221100365049 -0.0025839693942055165 0.007665804287734198
1054 0.002693723092054948 -0.004273756890881948 -0.00048752130535313827
161 -0.0037452994966945563 -0.00480847796858438 -0.0035363610134307734
166 -0.0025129286047521444 -0.005248286289486766 -0.00436526647624905
164 0.005201022141917299 0.00767669200475264 -0.004051776082938139
165 -0.002867402757211691 -0.0002281995786004198 -0.0057176260352443595
167 0.01697609402076136 0.012333498993068749 0.007800161979269311
163 0.0023775931340698176 0.0007324687610497916 -0.0014074507583885555
469 0.000566318339338091 0.0013661795774262476 0.008150842166470001
169 0.014976695635049705 0.0055757902742411426 0.003679638632711927
1058 -0.000434464495890965 -0.00013840490985432105 -0.004359538430131546
470 0.009462806112552588 -0.00013107703503471737 -0.0018143356254990267
471 0.00201105880766063 0.0035104045191509427 -0.0011706262998259507
475 -0.0008452352581712202 -0.014951036396890419 0.01141976455348145
168 0.0035481092193330416 -0.0019572204417922377 0.02517880274126781
170 -0.03902950264280313 0.0006059330474854833 -0.01822860468699071
472 -0.0032825776873087794 0.0034681509018022515 -0.00703841896347973
371 -0.002820233459794198 0.0003114900180769915 0.007707392954836344
244 -0.007502498927321792 -0.004538277654303186 -0.005096365104769517
241 -0.003012934157447064 0.0011832742620098145 0.00046355911775283325
247 -0.027350626736092884 -0.013542993829648766 -0.010280164008774764
1059 0.0023583834707619163 -0.0017805747040051212 0.0007952421427616688
473 0.021073289910917156 -0.01774876552882992 -0.0312248610584276
477 -0.009087451512436222 -0.021740983258759394 0.004746804670280848
710 0.00022918021413592064 0.0002460297301177807 0.0022451820425024166
60 -0.005733041542337442 -0.006612775200499239 -0.0019055733031305834
765 -0.002386151114702244 0.015527106441129992 -0.004173449028875396
709 0.0011923309196445863 -0.0028155634401440003 0.003625527772954303
826 0.007851226588319507 -0.0020053313742483887 0.010583315060591098
243 -0.00410472405716456 -0.002275347347817325 -0.006267088111748491
711 0.00422655629306103 -0.0025788312041065864 -0.0001929879565481177
713 -0.018656321348148628 -0.007899421153716231 0.010261569177863838
708 0.0013319332368764512 0.001097623965251522 0.0010383696852394324
707 0.008752378672851835 0.005105209662131641 -0.00015833304128945507
714 -0.005365662715224223 0.04716895167057194 8.868009398980801e-05
373 0.006644793262679703 -0.0032050827021040122 -0.004823761202970792
551 -0.0018529210816471068 -0.004186807166482919 0.0007434770891342653
761 0.001046639786389817 -0.005986461958292115 0.028907502369264478
482 -0.002810074546241247 0.004423556431763875 0.00480836659178677
755 0.002802596683145739 -0.0035554079935774374 0.001640864629882217
758 0.0005915986794028374 0.0015978253656106108 0.00349943440547988
804 -0.0013238074903841339 -0.007386869579489028 -0.0029570428347856104
73 0.0038415581468911105 -0.0002650874204968456 -0.0008755872724484939
80 0.021400354554557615 0.02644695161608159 -0.006710347293454072
476 0.005200571280977125 0.002910241406131721 0.0013295377637704336
26 -0.003862346738246715 -0.0028643067945049996 -0.002037712293443737
972 0.0018979647532666013 0.0018040389278537986 -0.002561326430886029
715 0.026318989912868046 0.021228535912206206 -0.023686938433015968
757 0.002461710436789794 -0.00725282559987626 -0.0003593827027610595
550 -0.0402647031933504 -0.0051652221865381215 -0.017738448288495443
78 -0.02075194566045921 -0.009216170137468055 0.028029830228649518
756 -0.0027504968234317827 0.001318688623955692 0.0012050302587623442
908 0.0036607255890473487 0.017568799184153137 0.004557308744048514
825 -0.004011294645402421 0.03008912141611316 -0.01909535282479788
315 -0.0073209584071128805 -0.005585652895080256 0.003763716718632806
344 0.0014348787541879208 0.010144988896085467 -0.0003349979088092415
1001 0.007159191380343569 0.0010108087737815106 0.0020194846883967426
949 0.00897715259663448 -0.00115129638008555 -0.007315489735923818
539 4.385534967809744e-05 0.003263584234104874 -0.002595717162482297
262 0.006582676036948027 -0.002969394379802387 -0.0008685056249775481
345 0.0052332635639478296 0.03322667111924098 -0.0054690185255493575
107 -0.0022962979591712395 -0.005507128675745199 -0.0017280209416280674
25 0.002173837508654648 -0.00978961031223243 -0.0019459211139788378
978 0.02051134739473922 0.006753850252337167 0.00776546379886294
747 -0.007196916375777202 -0.0021047772222556964 -0.0017165598766411849
810 -0.008967677704091534 -0.006782625370704394 0.0009813077983653778
21 0.0007402622285445737 0.0022401802735436092 -7.152288345742719e-05
446 -0.005132039777336765 -0.00018137601860894557 -0.004717842162147322
909 -0.013206617675912885 -0.0071544070909034425 0.034112507502643316
955 -0.03517822732399784 0.016404831260676378 0.02466091294850949
904 0.0018436299444679867 -0.008376808249639899 0.0011232209530091073
266 0.0014868230433348225 -0.0020802159512602375 -0.005866662071423593
267 0.004753505258426883 -0.008684592468772118 -0.022404164846591884
762 -0.016136191701502975 0.02019801825792999 -0.012460752006811708
28 0.018191551406457254 0.009259629272495332 0.000425592530180824
447 -0.003498365765804831 -0.005396092831122119 7.555072492050423e-05
744 0.0004811166005539813 -0.00012027941746026736 -0.0014903378938221764
977 -0.027470876318282555 -0.006439302590280741 0.0017593730659912978
542 0.001247086018525715 -0.0007807784774714411 0.00040895970019215596
666 -0.023270565145159548 -0.00995440516732165 -0.021837218084554796
546 0.020857573795273514 -0.02610498723929662 -0.01550707098488384
30 0.009455575795943132 -0.00036117973410279244 0.007801465454016543
933 0.005624161745774428 0.01060206543074156 -0.012920693526252303
268 0.017381119609074444 -0.005133973903982372 0.0016180837560770094
950 -0.0020826336981948014 -5.2285858700271864e-05 0.006614196686116057
452 0.005027539038776959 -0.021035971319197724 -0.007685846707562942
971 0.01225225698533568 -0.01736385729471788 -0.0072634532189289535
979 0.0009124658616881216 -0.023974246830690868 -0.0311711723479152
23 -0.003137577435746856 0.008496835886002186 0.0002047388756165371
947 -0.0026376265370969356 -0.005306762601642742 0.0048372473319746
265 -0.0022821721157960336 -0.0009844525300628621 -0.0004937105711683425
633 -0.028404683972236843 -0.017432719613032804 0.01570743162970822
191 -0.004294754289934193 0.0007707718496378979 0.004703091323526607
444 0.0003854407720585918 0.0017463917036302577 -0.0023414910786658852
450 0.002629591346308561 -0.008409410450229958 0.0025232536507694783
24 0.0017640154544317555 -0.0030835324744262656 -0.000543435495326756
449 0.0001733278976252875 -0.016545379364057568 0.002006740330205976
453 0.004484853618903414 0.00371061315980598 -0.003995413741965187
910 0.013610224448217462 0.01756018230240481 -0.007432539419110245
451 -0.016097746582022322 0.007686640916004861 -0.0038908267182059166
197 -0.026552074266380975 -0.0236275359415275 0.02130110277455729
445 0.00020169932279227214 -0.005020584079124004 0.0018445804736960543
261 0.00683728540288271 0.003953677466820251 -0.004661479842343977
269 -0.02617321763215717 0.010642874387976854 -0.0017252161661308319
196 -0.0001420006874278948 0.0006091316625752186 0.0007426944845851796
263 -0.004590103634543663 -0.006130897926067344 -0.001674372314372397
541 -0.002286898593971572 -0.0005212246527460301 -0.003230240843420885
264 -0.005844807000623335 0.004959601937318143 0.0017229282519536618
29 -0.00710327930518369 -0.009026681292334214 0.046218282656446556
454 -0.0006513954432955139 -0.0034515265448433283 -0.021030836420716403
948 -0.0061400402947682665 0.004203476784178267 -0.0018073655195747062
547 -0.011869732654765883 0.02340176388995989 -0.05567888488497977
953 0.004300745940071995 -0.007949218028535841 -0.013373827957066774
628 0.006161009424909224 0.0038230720130013407 -0.001124268723064644
270 0.018937010244520394 0.0056964441459682325 -0.033775376639165244
22 0.009852410772557031 -0.002127114596356936 -0.0010578398575229948
954 -0.018725706622230102 -0.010901616828507453 -0.030060826672767736
448 0.0012897172686216986 -0.0006945467228390663 -0.0017467346292657962
443 -0.001892591215645245 0.0019798853644540197 0.00577608405896554
540 -0.0035141208958806187 -0.0035161447328199173 0.0007272536787508065
745 0.007391302519389914 0.005446750925604673 0.009458529672508717
545 0.02688244695380481 0.007637099130783013 -0.011819443669652225
194 0.002509839601684672 0.0020484012771846503 0.0037612288897783414
1019 0.001972901396298347 0.0016177677507935497 0.0029871303039461007
594 -0.00792890540622938 0.020673792957800377 -0.0012768930989865595
495 -0.0013653519682523148 -0.007735322045193609 -0.00024436613511475157
493 0.0008280237381646377 -0.002755523402787032 0.006843486344792053
494 0.0026544428358087208 -0.0032299362913952995 -0.0016599488448320984
491 -0.0007865979341263296 0.004426416580200822 0.003639007310717786
492 -0.0034704818827172765 0.007626461934748583 0.0019444521376786037
497 -0.021268089104695465 -0.012990651021779712 0.02327918059254824
496 -0.008876672535240465 0.0021484969006695747 -0.0012970884030420557
502 -0.010085865284511114 -0.0057104266907089096 0.0027452066094101656
152 -0.0010650190565001294 0.002085582201041698 0.004504853026987549
159 0.015216976484792437 -0.005281342188358058 -0.009768274457141549
499 0.004010885446826646 -0.02747942202209907 -2.090080347404513e-05
498 0.009670405230296147 -0.0033725953406408327 0.0048935795203825915
528 0.0032109039692289846 0.003876090851508306 0.0022762825157297403
529 0.0051443454268733585 -0.0016562345236119948 0.002005492478976749
533 -0.03836566473524844 -0.0005043648778558004 0.015793595321826084
534 0.021200179386448338 0.003099178019104312 -0.02277648489503031
527 0.0008370387561414658 0.004295435704975913 -0.008558326758129104
535 0.011413663525164595 0.0027086383739349197 -0.008935329565197174
160 -0.01721189127472185 -0.008534229717453035 0.010924198096623814
156 -0.0003424190396460452 0.008612992373956766 0.0023659758502962347
500 -0.010958097573615417 -0.009678525195524663 0.0008016573029665844
153 0.0011496941927079444 -0.008492467485248064 -0.0031600011182628136
154 0.0003172540614347542 -0.0009073748938388528 0.0036573844825163117
157 0.03608098258710845 -0.010731432192584886 -0.012394993360867222
151 0.0026345417040203184 -0.004947696887301449 0.005233312789410964
158 0.019554159459184022 0.031804690905970295 0.018880199774046914
785 -0.0232860808279454 0.020378959132921207 -0.007409860627035909
779 0.0034128964923655384 0.0022610089781422847 -0.0008163126039891128
786 -0.003252523740571306 -0.010518715090202314 0.04195614448055577
696 0.0075888230732341815 0.0013592854284393803 0.000982593486687958
501 -0.015086819327039752 -0.009036930035347356 -0.02110878870089981
787 0.020628213793986314 0.02366432156851963 -0.023117466574280966
530 -0.003682308608850731 0.002747489595057348 -0.0035450899807729177
780 0.005390218795651767 0.0005897156088687677 0.002555248202334634
532 -0.001349691580527396 -0.0023700477840045294 -0.009263052199720673
536 -0.01332716451078631 -0.015367811762538982 0.013334483009802146
735 -0.0031951521377439123 -0.005303679078759488 -0.0024062514535011046
34 0.001266776850688878 0.005134034629818064 0.006618162297340837
987 -1.960693171476212e-05 -0.005278006649817367 -0.0016507951297111527
985 0.007141644555868309 -0.002180120404808019 -0.00418001502849238
815 -0.0033531968948999286 0.00979084692182489 0.0030540228738532406
821 -0.0052018870573478935 0.00829079963926386 -0.007041561350051358
732 -0.003101884931944681 -3.432372256756931e-06 -0.0037800670056051555
733 -0.0011375901725104978 0.004295825969221575 -0.002075393908402282
822 0.01066660295156083 -0.029844449670787684 0.002505832638453982
1051 -0.0031364513986462347 0.0025432041455466345 -0.002064514449323757
893 -0.047250446375156074 0.008783346642047038 -0.002243491412666601
438 -0.011681699213084713 0.020397690037808645 0.0077212688296070826
583 -0.009758057321347692 -0.02575095935099914 0.006591913965329184
432 0.0008305890370274044 0.003869781291801216 -0.005566804383747468
538 0.011214285317210648 0.019218542493895246 0.006497697485499842
988 0.0021330234441434294 0.0011525545099806264 0.002953322765623132
274 -0.004839765173708488 -0.0003173701419398133 0.0040054089985463075
585 0.018360765033311785 0.002621454578756668 0.001525055971322145
531 0.00439367211454704 0.00013498736339098808 0.001535835516954518
279 -0.007202219302002133 0.014216663547903328 0.014441743516473805
212 -0.006010585631773758 0.0011824583282740216 -0.004871379004853122
607 -0.013500068854540156 0.01611920367358985 -0.001994898698438205
702 0.0016177806950772085 -0.01291222540901334 0.010893960063558986
537 -0.00599310275142392 0.0024923419749541707 -0.005452740711400369
360 -0.0029337284406246167 -0.0006934404952374956 0.005966524853233367
359 0.0017826577245104646 -0.002505167665157091 0.003930149770912967
155 -0.004633350252180784 0.004832323311741364 0.000926434013613841
361 -0.0024413649424697703 -0.0002558943662996977 -0.0012455588473513663
575 0.0030440618395291483 -0.003076717965018512 -0.0003235740389753054
701 0.013631140408345286 -0.02792620860510484 0.007744357286269933
695 -0.0021773129685031724 0.005246727297919733 0.0020870290872569697
275 -0.0012343781056069578 0.0004048293231748219 -0.007318385174582596
703 -0.018119202709637485 -0.02077522818934198 -0.029654206833901724
273 -0.005185712487262547 0.007382840923081396 0.00512062956264133
272 -0.0008547399969943527 -0.0036167101699576014 -0.002099845990443429
992 -0.008803420324154498 -0.020131007522520922 0.024231544824626434
781 0.0006742157217696099 0.0030343062741254537 0.009707883511648053
580 0.0023746667608239777 0.0024966906216123143 0.004411241645140408
986 0.006078256293827062 -0.0003631210740882875 -0.002290604848651373
203 0.000847361561642036 0.0019132944635032074 -0.005429090486876385
211 0.009295600818537595 -0.005399014881009623 0.00343451218409491
290 0.004193357989274645 0.006780822549544282 -0.011582605886427786
216 -0.00591350568870505 0.001535009963234979 9.436550966396582e-05
213 0.0023504180153774115 -0.002513397085775637 0.0033295477339084197
437 0.0018105861921345274 0.0017876358219440754 0.0021328445630078873
887 0.0017748098332141691 -0.0011220760718961126 0.002501443930036303
895 -0.0003916629152426014 0.003504572013820252 -0.038673723887309795
343 -0.0026690338399015514 -0.008548452571606139 -0.015180806080808261
918 0.016694467306404344 0.02157631957914422 0.0025886131491360915
697 0.008468559512073998 0.00023758295211419436 -0.0003875997171525061
173 0.004924436274712785 0.003319536105174466 -0.0010491432923180315
782 -0.00396293832176469 -0.003597633287485805 0.002502314357931747
33 0.0007684369866218677 -0.002485517313274796 0.0022045888043149735
118 -0.008498023848838942 -0.015902900767719195 0.01398267274042388
994 -0.016451729877748286 -0.020182281980524998 -0.009047139511044253
362 0.004458916456482869 0.00032700503948227894 9.9538310656998e-05
1032 -0.0012482673464107815 0.003287834543828734 -0.012662771288319035
112 0.003542623258491204 0.008890783903814797 -0.0025354314685881404
1045 0.004219532826354464 0.0009784504493480987 0.000762039597787851
991 -0.003484068053996747 -0.012876876766047674 0.020163438940651618
188 0.01643895774036176 -0.03050015554179973 -0.048115657568788085
870 -0.007662884435416341 -0.007116460814994473 -0.005035812838734667
871 -0.012725024843443749 -0.00211893125843177 0.002522521821945303
602 0.0026178293277614286 -0.0017041719605491432 0.0011155220117329005
302 -0.0025284016353117403 -0.008303434909453115 0.006192780896174267
303 -0.007790051077612224 -0.002426584452014105 -0.007715087187945838
369 0.002011328534734658 -0.0005904717795999848 0.010069323582769081
771 0.0020302025171226585 0.006157465184090282 -0.002444582439812779
363 -0.0005279902317572652 0.008389691327940705 -0.0022746127117801917
613 -0.0018751452506097545 -0.0009469868152375247 -0.00044891690719437024
795 0.0016384562255656373 0.002641432311313447 -0.0037408072571906924
680 0.01587335943367204 -0.0125373066093313 0.00031088350703750733
117 0.01204462430599303 -0.0016506482766158645 -0.00743998723252429
676 0.0024061298078289946 0.006997790253556181 0.006473119643349665
605 -0.021106958232026955 0.006322295372885783 0.0221975885854427
792 0.0008242392013601053 0.0005395210236407395 -0.004690242194059062
606 0.0024740400031788056 -0.0028570531656209727 0.009968439492603766
368 -0.01784399318903177 -0.038655969556731146 0.016897610306435287
364 -0.000842015194861492 0.008125679312133132 -0.0012414379627087256
1034 0.003181066875146872 0.0009165815216634547 0.0027153593006083946
678 0.0003707069551901979 -0.0261857754313876 -0.012469856909995782
778 0.008085869283526864 -0.0194674358248816 0.01736989544126284
600 0.0015613590656545296 -0.0005016394900172142 0.0034980545589764255
679 0.019858033986458256 -0.01097142039201633 0.019195486602127755
370 -0.0006518261496327501 -0.0197626248399751 -0.010371183712250067
310 0.008926549978007039 -0.030712107983915993 -0.019820593009041175
794 -0.003114534521160812 -0.006149093856719939 -0.0005275853127168501
793 0.002974162528486042 0.0030318065172828946 -0.0022380252904004635
671 -0.0032499448808109097 -0.006001521599414532 0.004797695370809229
677 0.03354901421785096 0.0010958675782138205 0.0023587128354859094
984 -0.007050991390462688 0.0020574163449099785 0.007895619066716488
775 -0.016663338726583283 0.014610928225705014 -0.024639179482454622
767 0.0004017675094352183 0.00459339025695273 0.005313094542762381
768 -0.0009775950233360028 -0.005904589026985951 0.004512043541578032
260 -0.017478372176883923 -0.006010381974999568 0.0189973078422952
204 -0.0016735859558873877 0.001889843526178944 -0.003073974023160895
259 0.010835558867421508 0.01999216418859877 -0.015908049758457013
252 -0.004001136916667636 -0.0008789409294479973 -0.0012134481139256686
258 0.016507451910813695 -0.004673775239866128 -0.012855191688996612
257 -0.00297459316013967 0.01074824304995973 0.023010002017601203
617 -0.0002989556468852471 0.008997405607373412 0.01317059466200082
251 -0.003917672023972573 -0.005088574033904366 0.0011180803456011402
256 -0.0007133805102147422 -0.0038570477918114126 -0.0038431655862145764
253 -0.005470638283253125 0.0009338458108406531 -0.0048469261545590146
255 -0.005733582352065973 -0.0052811346281370795 0.0026420486669892465
673 0.006551462775006582 -2.6886179253468568e-05 -0.008739804555620744
674 -0.0006261744191627305 0.0012691661093034606 0.0006761161337696369
1000 0.004362417776077407 -0.0019447336540249533 -0.0018597430831676178
254 -0.010050928125899028 -0.006838394666076612 0.001715821812891268
672 -0.006744193089914732 -0.0013118166795549173 -0.0067005240395579275
619 0.007241498596435287 -0.01953136256055182 -0.007992832879633247
611 0.0018701977588890392 0.004083610758326707 0.003786733853206918
618 -0.017016950595906 0.003847925094032068 -0.003624922649582133
769 -0.0024234608992226344 -0.005059959221493139 -0.006385329570550392
675 0.0023476821488085378 -0.009173105590286616 -0.0025597383640992987
205 0.003240704306090701 0.0018487503955481373 -0.0008224863260007263
770 -0.003125521611916731 -0.0034862685841503265 0.001096106112070786
773 0.02273729704151122 -0.0064559205561403425 0.012098177032666052
774 0.0155918857337898 0.008569146266559797 -0.008011423503587209
612 0.003925916417301546 0.00020669943976084766 0.003868079925991229
614 0.002812378505869335 -0.0013558175920424425 -0.00633190033955147
873 0.0007131990950431305 -0.015924005478879726 0.024520559453831026
962 0.008456064879158474 -0.0019723157783663684 0.0009415141654833214
599 0.0011146593683450644 0.007484416443533728 -2.850303444888345e-05
970 0.01013858991355695 -0.004019480475105253 0.007602214689781393
990 0.007182393145974635 -0.0013792881375762794 0.026321576392539892
175 -0.0006541316690906772 -0.00013810957198066767 0.00614267179722224
682 0.00467458439976247 -0.0036998828696111676 0.003982798106072831
206 -0.005693281651602199 0.003627606412815963 0.0011438759668743043
174 0.0045423359374728535 0.005795045270021586 0.0032438159481958852
968 0.003455198100108792 -0.032689969152024434 -0.011815866373224567
964 0.0032991260744331557 -0.003589049531147495 0.004664793472932455
309 0.016332148769243788 0.029032304597693147 -0.02374663332689569
983 0.00031598650693508894 0.0008878575377421389 -0.003538865787031406
1029 -0.0013461574867092926 -0.005266154109847483 0.0010456044668842872
969 -0.0009680119768460123 0.006372728369413728 -0.029504556785758057
601 0.005299453676063787 -0.0028500722998960216 -0.010528698974162073
431 -0.005148769832297874 0.0021039710537688735 -0.00042430409726395863
1030 -0.005039615463145287 0.005315197569281386 -0.003368829498303739
1040 -0.0054558271744942636 -0.0004450716835122374 -0.0010880093179423218
866 0.007993361177095214 -0.006981703609296204 0.0013079407611932621
603 0.0001646123079677 -0.002456061998864764 -0.009408340845589084
772 0.005831937345185004 0.0012088328209379987 0.007204653007833596
796 -0.0020537396441487055 0.002149743216097071 -0.0035527786727367018
800 -0.012481748169866852 0.0017398193976544138 -0.0035389203488422425
738 0.018583706029159416 0.02563156755959784 0.03089231611534414
731 0.006782532174425196 0.008741870109243124 0.005849728400911399
581 -0.01138092929838966 0.00165564502366477 -0.00037821817314386257
737 -0.012683492446618252 0.016777913726625043 -0.019281289345274406
638 -0.0018591335992409082 0.00573858703261887 0.00024940911228277853
1043 -0.0005497686224043409 -0.00045896174788810596 0.004123091480354956
120 -0.01629677347611454 -0.012031675986259533 -0.01689744426745367
791 0.0019263230276218265 -0.0025249128649949154 0.0014929113256295398
874 -0.017555512784756207 -0.021820335008238503 0.03457904184736023
799 -0.0017245578946346552 -0.02748283481906432 0.03152864610810083
519 -0.004143287630536027 -0.005083534064656065 -0.0014608773922600753
1035 0.0015267565585527498 0.008050627085064847 0.0016585501264304323
813 0.02279378902429115 0.01688682149769247 -0.004703860082721278
1047 -0.003006816599680643 -0.0014120291824230445 -6.095567326595185e-05
814 -0.028554338756100285 -0.01781897616978783 0.003171613658172616
520 -0.005615186605517897 -0.0019170833728884538 0.0033137356686698863
739 -0.015061963345292133 -0.015246116285750384 -9.308975176442564e-05
1046 -0.0029461583668820026 -1.6643303358613352e-05 -0.006485670411828697
214 0.004731871567306956 0.007032971046795251 -0.0016559674072813572
31 0.0002946023181629795 -0.0024838864376172504 0.005431414962632182
641 0.01804580125392738 -0.008521620825832363 0.001391349571807243
639 -0.0036072668274050967 -0.0004891425987921401 0.0021306335524860012
797 -0.0102810434001172 0.010155240968859003 -0.043218819392957845
640 0.007851847506534936 0.0029892857140930377 0.003933919815676942
643 0.013652431551353745 0.025343699183414548 -0.021808498105953096
965 -0.018414575551392955 0.017257307485720484 0.011541660326707549
967 -0.0002828653381635243 -0.009069068934139182 0.023983080722801375
1049 -0.0072434595607857285 7.60871422771689e-05 -0.004100577423849216
961 0.002487776524754728 -0.001512890736103261 0.002466891290616864
186 0.003325590252854761 -0.0024850532836725664 0.0018232008516807963
963 -0.01034179245898046 -0.0017216302755050155 -0.0007262344685881946
869 0.016173371283633973 -0.029246365198578442 -0.0013411052730749275
37 0.006176659595913348 0.0030688184902005165 0.007950097586318445
215 -0.005479120289755 -0.001079930891888602 -0.002571867747012265
1048 -0.004826213581974828 -0.006505347768060028 -0.0006679303990434279
584 -0.0016810409319093496 0.002007225626572134 -0.006610556481172227
864 0.004640675740359577 -0.005887993217102365 -0.002747472386672508
32 -0.001975281266370875 -0.0005942020640542476 -0.003906600397905911
959 0.0017554014367100429 0.006998794219720109 0.00013701449725813343
635 -0.002139447573727725 -0.002729136433191434 0.0047620649844413495
1036 0.005580219740715139 0.0019310206416974648 -0.0028256881688656114
181 0.0010245743279809361 0.005061506433285299 -0.003958351331461552
39 -0.018353417265797183 0.0025325961317720098 0.011444594871317621
863 0.0001184173428699605 0.0005428593017638483 0.003015453822311148
525 0.009775122511032982 -0.03356758208922645 -0.014581729028380919
342 0.008837206251875455 -0.0011001272729673627 -0.027658972890286817
734 -0.0005323768483066954 -0.0008821405628362471 0.0025760887601181393
997 0.009223268493518103 -0.0045814791216283995 -0.006571951426447709
40 0.010721720338376964 -0.0006817726720020549 0.019722508007606793
1052 -0.00017394448151784587 -0.00047251593703942664 -0.0028224723684514065
637 0.003353869365304899 -0.007144461213788277 0.0051909555596478365
1050 -0.00014416843129726317 -0.0050509172578404055 0.012965566428587925
586 -0.015635954889589944 -0.0010592441585507374 -0.001446229387333596
966 0.006723699812744609 -0.0008077346419544867 0.026600047067450967
868 0.0005222366419782285 -0.0004975870724900855 0.00462855924570168
518 0.00015537875550663912 -0.010406773723719724 -0.003917777930981728
335 0.00891427134591047 -0.005474187926116627 0.001289390038575908
867 0.0065129553160273084 0.002070798958078445 -0.001072776134882825
38 0.019088582216022557 0.015302703795552843 -0.013864983646367023
578 -0.0023593062425536345 0.003099840615812463 -0.0077217121324208516
644 -0.01905915865639743 0.010260961781845547 -0.009779015001415042
645 -0.03037253433328381 0.009729294304590795 -0.0009807034521687103
642 -0.002797533876092195 0.002408691787148102 -0.002872091420212366
341 -0.0036469984337219796 0.0034302548998915963 -0.007021643839331043
872 0.0052869003956129805 -0.005109810872147278 -0.0019221520367933556
1042 -0.0012386419899818556 -0.004949433673167367 -0.0007934139550886624
526 -0.010290751952850499 -0.021264327559488042 -0.04142704574012131
36 -0.0015165664568819182 -0.0043460152617825504 0.004604432145395069
577 -0.004061531676107718 0.008608993504750544 -0.0009831211774946102
1044 -0.0036965657008685964 -0.004397996174290436 -3.369544756118075e-05
524 0.009721477169884576 0.0002077164871113718 0.0038147346687059146
187 0.019663939390600606 -0.008708067066666027 0.003978758535095789
865 -0.007153345895981883 0.006019687647956265 0.006110054850976773
1041 -0.0020674921912828556 -0.00598485182511581 -0.0010518170205924774
636 -0.002987196084532736 0.0009846069765288336 -0.005356699037482081
960 -0.004950188666884496 0.0010250633861119901 -4.270227263111098e-05
111 -0.0016519512721601204 -0.004324634469071573 -0.002261018028664446
119 -0.010403609674331207 -0.012838716978899926 3.044897556807465e-05
646 0.02227990178692448 -0.00274050224082117 -0.007988228175241375
113 -0.0013831445868224875 0.0018359678374130545 0.006523704892514605
802 -0.017486428647763726 0.027269196033628037 -0.005314976293429835
776 0.0053992189359102155 0.006359799835772152 -0.0024890594048341246
217 0.006862606087314581 -0.029908312419021702 0.04029414100082615
366 -0.006008691221872845 -0.006467606547155128 -0.004908768997409206
913 0.005098601241879471 0.0014162677424174896 0.003939305696916985
914 0.0022326681437681932 -0.0030926174152446813 -0.002124968818189336
915 -0.005099313107945685 0.001170580478829246 0.0031447449767714234
916 0.0025299965526623144 -0.007874706179499884 -0.004258258946202764
920 -0.010756930901917644 0.020993574027492544 0.01941535035051867
1025 0.0037763060753684594 -0.005191294181886454 0.0038815481872611283
912 0.004211370681325934 0.005306027273353337 -5.3810323678733096e-05
1007 0.003315520308828221 -0.002950291008939806 -7.871090551252169e-05
1006 -0.0002598333879955464 0.0022121170401997784 -0.0012949110814865707
1005 -0.0011061438094809935 0.005400658737181985 -0.0069543881510380386
921 -0.015520955457654181 -0.015179045339334278 -0.029576184155516508
922 -0.01060599138624723 0.023673964769212585 0.0006689462129211192
1004 -0.0020585971125229186 -0.007668466565850774 -0.003510562354691936
1008 -0.000632684243824729 -0.0061133065779747945 -0.0025048274477272037
1003 0.003091198017089051 0.0014882547734560631 -0.0029712347139570897
1013 -0.0009056277810764934 -0.002060709562656035 0.0022213362126845115
1024 0.0030825753193343118 -0.00586849414780045 0.002402457407095727
1026 -0.0049619076490536665 -0.00045494240461193343 -0.004501122572996978
919 0.019925485889005095 -0.00191050721361599 0.0003644869099843521
784 0.004750785090172355 -0.007248593354189152 -0.0011738792285085962
789 0.00896232466759701 -0.004699071134312215 -0.019222887466243677
412 -0.003939728479701884 -0.005166425489955849 -0.003909587382575256
410 0.0007777428770285194 -0.00539823713830995 0.0026197073207331564
409 -0.00231820356552564 0.0008308855261771771 0.002339640858388601
411 0.0013840422404189099 0.005967005440154842 -0.002949500895126412
408 -0.002228562925864648 0.0012424216132800806 0.0027966225721688803
413 -0.002664545042029222 -0.018804410641586913 -0.009706287870413836
415 0.0060616218639946125 -0.002703513190412895 0.01253307020197898
407 -0.0020964365127778954 -0.0022862540366287883 -0.00604563550136793
417 -0.009685064065563706 -0.014405837580862476 -0.006555922719260493
788 0.009759540596421578 -0.0032335843294044844 0.006142398812373015
105 0.0011708115544182352 0.00028382010386859694 -0.0022552985842174533
1002 0.00675662994097531 0.0026934905845910845 0.006858935854786625
890 -0.004472292232022894 0.0028374895856061733 0.0015658097454678836
104 -0.0027569656569266373 0.00041324939738051985 0.0035938437430496155
1009 -0.0008706390893749808 0.001075715943334394 0.0017906011015211645
891 0.0030311194376717505 0.002880687808680814 -0.0018400207092096632
889 -0.0028969206151732985 -0.002078195147989946 -0.008698169290746132
898 5.203494215936036e-08 0.005368522562807286 -0.03079005110094424
892 -0.00021623495858967345 -0.0017362492300050116 0.0026806756423440542
1011 0.0015180993709974135 0.005617718819776759 -0.0015104613070207437
1012 -0.0027950713943151262 -0.011007958256777245 -0.0020991995960153555
896 -0.00019850240155632392 0.0024106914014491066 0.007494118967797653
897 -0.024171802196608437 0.01614941073596562 0.03959272923887122
911 -0.002419638817222397 -0.001856799917130909 0.003077470018890835
427 -0.018916203188392225 0.031203977133581893 -0.0074295808967082995
414 0.014299115733712961 0.022635715911142565 0.00775795876570824
419 0.0025900901242730217 0.002111658523374166 -0.002620882032322208
917 -0.025020066857332737 0.02942378061856681 0.00559604334327429
426 0.0028648350990536768 0.011882015733445606 0.009982349857815922
110 -0.022382756884486966 0.02293851728125212 -0.007269834050201382
283 -0.0021354054371627864 -0.0057939946756754065 0.004722811918141857
998 0.005681651423164639 0.010287846565333065 -0.0018207016833488134
421 -0.00045021996159969394 5.124974359372984e-05 -0.002392694588386918
888 0.002777637439607382 0.003183132973935676 0.00427698752401075
422 -0.0033851359167090065 0.0094485049947034 0.0018416270588452245
103 0.0014721887251585215 0.005340749129269979 0.003482193107954513
993 0.0016624160446475082 0.02012039839994731 0.011578631736611316
287 0.02881406872926238 -0.016299192205401433 -0.00921287619726904
1022 0.0023733595711238785 0.0032304563689718926 0.0022657946836865737
106 -0.0025188856630242976 0.0029181448616972475 0.003862750031714314
1010 -0.002622253018931216 -0.00035306609495881693 -0.0016389268733759783
281 -0.0022656602246154383 -0.0002926113437117337 0.007428834665305305
760 0.003427839469468795 0.0026034342076847075 0.0023419806328679946
289 0.01428282195418427 -0.015198699769943529 0.008033729837224014
102 0.006581734567781473 0.0003054405467960002 0.010713885833863466
428 0.02058131474576888 -0.0010941026223876258 -0.03670937367463284
381 0.0040436428973390824 0.004525809192945689 0.027671652230243666
861 0.03483620997300825 -0.03823453799094377 -0.0057932930019340785
282 -0.004531420011525617 0.003274250550862242 -0.006744038737453273
811 0.02191213158536504 0.0310617950501804 -0.018922844242862953
665 -0.008514441657052974 0.01279564470604235 -0.006560064440915964
271 0.0015476247618703533 -0.004965754971663292 0.0013077430855229673
418 0.031899088090432626 0.02673057976579817 -0.01834789924949037
416 -0.02108995876587061 0.018550916178176845 0.0003844137805219731
1023 -0.0012819324440587851 -0.002864934094848272 0.002541192587897107
288 -0.00835753104397361 0.015018449990503682 0.026754323104995602
1017 0.005295712673956068 -0.001683316343169699 -0.002031925696217601
1028 -0.0028828818252529696 -0.007881125774857244 0.005139610582539165
803 0.002328978945411087 -0.005069107533615714 0.003198745343573431
336 0.006328757324416345 0.0030379736812833572 -0.0003520578923568196
856 0.00023432829918774973 0.004999581971792102 -0.002744626037105619
278 -0.014501569995687465 -0.024301500715764136 0.0020069687878984995
790 0.010456930868481033 0.04344656028461359 -0.01932808275135111
332 -0.0033627308523602397 -0.004572072639086936 0.007256956426755002
764 -0.003091796346389371 0.010531376789605511 -0.006908871213164217
420 -0.0055530936863076 0.0049504975210771015 0.008117698622208524
425 0.009304392572155568 0.029918518651344952 0.010548832619155138
423 -0.0024348005728124364 -0.0013590741046101411 -0.0016719794902849091
424 0.00447035271063323 0.006119096099489219 0.007006448729879645
429 -0.025088671392443723 0.00801702370163302 0.008549173801239578
101 0.0018761604041458058 -0.005966620111654728 -0.0040380701474918125
1014 0.00603443745293079 -0.002236597583198445 0.0031139972332610826
610 0.013182647918571077 0.011931615922960026 -0.0029501978849607916
430 -0.015730832853358787 0.02449705123450125 0.012236496859567344
718 0.011717742851038188 0.012321578602162275 0.05325717088505942
171 -0.005628540938505287 0.00037213946387323904 0.005044531776171813
180 0.00017484106582794397 -0.015536187857084802 -0.024440042601498218
609 0.003686301710091382 0.002048568388148431 -0.012149687741507301
712 -0.002950213105485517 -0.0005181989071441338 0.0007681429846836752
172 0.002288408898981799 -0.005999119009090285 0.0014538188181283502
56 0.009096982062396085 -0.011579580949869581 0.0003785567508367949
766 -0.02372317718824198 -0.017197377865253886 -0.00687535565181541
382 -0.005840470629263525 -0.02998412883001087 0.010654877949507159
376 -0.0051587203191926145 -0.006102677445296752 -0.0030967831889637952
615 -1.938142335461239e-05 0.006871843041894091 -0.010439718305256437
553 -0.003098098162819698 -0.005318337599410597 0.0007263629364589819
801 0.007196233771198698 0.008854484715716945 -0.012700475356543343
655 -0.0044908090755324155 0.011873936515162655 -0.006861990285279829
481 0.0035658369796710493 -1.7869571540963212e-05 -0.004903387766561105
483 0.005630353299820349 -0.0019652752414518184 0.0005036886811797896
398 -0.0011941422550640342 0.01207676708729821 -0.009567939315151285
1021 0.0018081995883807358 0.002816037058474796 -0.005067336810110335
653 -0.01902570650087488 0.011848919208243195 -0.018215943140636903
1016 0.009639691672987479 0.005142902901644842 -0.0005461768733517514
651 -0.0033924774909901106 0.0016038394708354432 -0.0020896041131179413
650 0.0013288666972102788 0.0014631003259004726 -0.0030705866699028738
488 0.0026624673054305506 0.009562529267949243 0.022958803599745458
616 0.0006551144783410611 0.0021985878243109664 0.00021605378593476696
621 0.00038925291194165075 0.010506426039151553 0.004023675706340592
648 -0.005277728441290603 -0.005936182306451109 0.002296697462703042
649 0.00723369514801804 0.002475497936614424 0.0010453628562169088
620 0.006290523529683198 -0.002355633735709837 0.019177795212459506
647 -0.0031359355590389157 0.0032565482207178825 0.002639774893008276
556 0.00533681641580333 -0.0010107756561115683 -0.001863956091705404
561 0.015127359015837012 0.022773335239361998 0.0009617387613680296
562 0.014909992723918538 -0.013289273837680523 -0.01352029874967529
1015 -0.0035388912876631873 0.001959947519916418 0.0009282909065800031
622 0.026554532902943302 0.0182188605129829 0.011399527964778857
560 -0.01610767321158495 0.0322971213754351 -0.018913646022823773
397 0.005009535880041865 0.0034500787262723626 -0.008735647149240973
555 -0.00582172951765491 -0.002108952523368085 -0.004895408116740654
654 -0.01213317910776655 0.014671502581558566 -0.023014816522665484
395 -0.006119416764892399 -0.0011146836755448293 0.0007881745603341348
396 0.00030457490735565025 -0.0027882338702632423 0.008255976493118017
401 0.03898790679308645 -0.01422771660423589 -0.008219813751103594
403 -0.011392627402424152 -0.008225151181388921 -0.01896603096100182
402 -0.00550240896963939 -0.001255750425675676 -0.01325545358558021
652 0.006917013753497236 0.007637657812858054 0.0025865204871121164
656 0.016707218138069056 -0.018316676071602526 0.007007861331296454
657 0.011959973304318496 -0.004485614728395988 -0.023483919722191982
658 0.004478558726212413 -0.023536988313430592 -0.003951769002386478
399 -0.004343032942634288 0.0048170849984045545 0.00586410795124709
1027 0.0019108283336997643 0.0018098373242281078 0.0019000713696927737
717 -0.018645619520317288 0.003958876884651179 -0.01676209832089016
716 -0.0041693371301270085 -0.016012917422846863 -0.004300989004710487
902 0.003706000616354678 0.00035728084011280915 -0.0016048424812949778
484 0.00079226041505543 -0.002864443431924932 -0.006912391862903834
604 0.0065964235449395715 -0.0021881999543267826 -0.00040488062345148286
903 -0.0001415744321730899 0.002540862881799534 0.001229856324423429
554 0.0044512967893083144 -0.0031446028054152152 0.0021060664650816366
490 -0.021427911195387735 -0.02647641557100851 -0.019597391091251103
552 0.004453980963237779 0.004916346148054918 -0.004202159592399075
179 -0.011767980981741937 -0.008917121705589936 -0.01392017463659927
512 0.010889688461281343 0.021376729149532505 0.010401804210088168
834 -0.030262421622128274 0.0014259874009282668 0.0030468120882124194
95 0.001285191234724334 0.007061516249205262 0.0012846339373112775
375 0.002010815243198366 0.0024704947606040196 -0.00021746490968323586
338 8.240383036066178e-05 0.007065732169035825 0.0019491401807763258
177 -0.02083909804929866 -0.012302391759121368 0.017960449446442133
489 0.002124097234437309 -0.014700377155151097 -0.01743789834628715
55 0.003551340766636376 -0.00039523638335191074 -0.003980284271076642
480 -0.0015890371889703768 -0.006448022652036393 -0.005169752035381196
548 -0.0057811334244357495 0.016906439129916243 0.001172710191041689
190 0.011453615269296256 -0.0043224755741176615 0.01847978417851418
862 -0.0076880463408190575 0.0048771790943137605 0.012011033431271188
835 -0.004551683578149813 0.0005608740118597398 0.006092999423948008
777 0.015237763791599702 -0.024386528715724907 0.009570177009322103
276 0.008219843626748368 -0.006350305072405094 0.0007947361057823873
250 0.00909788900033002 0.029635778722345702 0.0020479445264124613
833 0.010148540014158079 -0.00848201370223545 0.01748169904867793
176 0.003977282163979338 -0.002921307714210276 0.00029012005261442654
509 0.006136966930442376 -0.014192459896764587 0.023887005031598733
812 -0.024076658864826732 0.016370353706884166 0.01688864251704113
511 -0.02013549000907162 -0.020299156809694782 -0.026881604207186386
337 0.000450169627864209 -0.0004871108387168562 0.009199316583555587
807 0.00512930738221401 0.0037156112276328047 -0.004876375085722635
503 0.0001553286952191472 0.006485893861650103 -0.01096460168344181
809 -0.011467978034861038 -0.010152949310523948 0.02145670031855898
752 -0.012157368237253979 0.009452969044969443 0.011008306094598783
185 0.0037044960717468353 -0.004604437729309625 -0.00116635460488416
748 -0.004577489086384612 0.006944648214456162 0.0024741965839767217
184 0.001004614165883391 -0.0005389667107833706 -0.00255580545071452
405 0.014279671205896847 -0.004147229273570212 0.0029248135932187936
400 -0.005233253374376727 0.00013726935760838299 0.0009293037263618202
340 -0.006159903422749473 -0.005414059626659018 0.0058599412217794355
808 -0.00032590171114707777 -0.00010322840216174718 -0.003414691628451031
99 0.008677115255829213 -0.009401391946145556 0.007776037439312639
543 -0.00431262704464399 0.0006144236050155117 0.0018692629854806932
753 -0.019933644856543767 -0.014665292774648954 -0.005041483775023085
182 0.006677738839879856 -0.004348728943553125 0.01118994329982236
907 -0.042824646302879736 -0.013065157311922856 -0.021927035900392043
183 0.002307873454376961 -0.0008251820105858944 0.00354895475255658
838 0.01847129486866464 0.004389540470615819 0.00481889611499098
806 0.006303037907970628 0.006083133183581114 0.007562511196510126
508 -0.006021658688158781 -0.0039048093836124703 0.003043199830513635
544 0.0015297299914592876 -0.003915489085649782 0.001326768582717776
754 -0.0012960081329411854 0.021131670589683255 -0.01673249784142358
514 0.01231186587656282 0.006994772606249337 -0.000531476819306582
549 -0.0043150326310153605 0.027012303210637027 0.0007687040752204655
829 -0.002515858736441553 0.00743452310272461 0.00010066980925385968
951 0.00014809173741751826 -0.005883584853356296 0.00330599880829398
327 0.002170594828934582 -0.00517006038622439 -0.001997202870496271
831 0.006725031631341737 -0.0009651814563026009 0.004681044972314839
91 -0.000535985905855669 0.0065236737946359905 -0.005887171636851561
94 0.008492474938155525 -0.0019594751159092622 -0.0015737796364697207
827 -0.001172024467977562 0.007147340467684972 0.0030111007287914973
334 0.015216456588288926 0.0031095490354103514 -0.008298407414834822
323 -0.001831621486897662 0.0032136494653911235 0.005074325395836671
957 0.016836489909959985 0.011092329779104603 0.017086625520062643
905 0.005558149210805727 -0.016273298501236044 -0.04847830997118734
406 0.0012339671971285902 0.029002676454256072 0.01415552129556803
324 -0.0024916671386687643 0.007283614478772968 0.00717613942928447
404 -0.0026114836123821697 -0.01833567018841476 0.013151098217913004
178 0.0059790729748033945 0.002047683973807725 0.019206404081469574
96 -0.0040755026666894345 -0.0006764143552092686 0.004885536311113755
189 0.0024003691660823036 -0.04115596144213225 0.0030065329488770344
328 0.003837286783356238 0.007327976313016319 0.0032225857933897402
836 -0.020761167121522043 0.004176961000713381 0.028037626373929547
510 0.028077858447665815 -0.008560483534775102 -0.024456402385724677
901 -0.00011969485295411483 0.0038346415359085287 -0.002696096776170116
326 -0.0042329260796167755 -0.004081396567400316 -0.0030377395478293247
900 0.0030692793270325923 0.0005975475066230837 0.0034553908690584637
100 -0.0052431548058186304 0.003270393491434969 0.008771607920658142
952 -0.00804984487954032 -0.0010664993014059293 0.007879161220355048
956 0.004001502475243256 0.03270634863644394 -0.020970950079911125
504 0.000263629436229704 -0.0040716776880416845 -0.0047023769411176424
958 0.008405784926768411 0.008116469514293479 0.031597712718867986
109 -0.009876235562503933 0.0010370497112421702 0.013800304007895985
27 0.04052586930683853 -0.009616054076794143 -0.01767731856339728
333 0.005572316099100468 0.0034498110707488817 0.006351547168513642
331 0.0014346802298529423 0.01727211379829563 0.0026530373362277588
805 0.0009925997409925152 -5.110842189225823e-05 0.009731403780536222
93 0.0037435811325028617 -0.006575786864762109 -0.0010897677378523104
828 -0.002899636559293062 0.0007443585757000088 -0.0032898977119831755
783 0.002101051961151546 -0.01087854092527878 0.0008978009624669395
906 -0.0181202537459962 -0.006430997766115508 0.026730166082333244
505 -0.012640128906086623 -0.0059070444078406035 0.0015263135777783957
325 -0.001018663644319455 -0.002367694398945064 -0.004169723406169528
92 -0.004164003621393373 -0.0007415480134738945 -0.002744060329021114
330 0.0260596164018923 -0.008465271852712179 -0.03721747446676022
837 -0.015360605604995983 -0.0015121745240578776 0.017972611694743464
899 0.0012540160060527392 -0.0075327184985174555 0.003246827239518688
832 -0.0034552939276040143 -0.0008598690668002516 0.0006358611624343681
346 -0.0029382536023843855 -0.02307886351322832 -2.582848080166615e-05
195 0.0028273880305961737 -0.0008179649478240324 -0.00486731070315534
97 7.022475587537241e-05 -0.0077441143474713744 -0.008092804162441472
329 0.02731818853996105 -0.01976953533457351 -0.006550630973041826
513 -0.008157803326177568 -0.01485771779729864 0.005449434594394146
830 -0.004565600054865242 -0.00027526011046607806 -0.004686465186096675
506 -0.007644528002360552 0.0036366549673073857 -0.0017933020955875991
98 -0.022927238561407513 -0.004640230026122893 0.0024103291305685977
339 -0.0025440692759800885 -0.0013741450643937033 -0.0011913722085776764
507 0.001562730503304275 -0.0026463156101239962 -0.002699700724214982
367 0.006371090208348871 -0.013028856614563914 0.006840026579566292
277 -0.012367624779648251 0.04696349349300496 -0.015601802695006321
365 -0.008851991064318715 -0.0003055472283476938 -0.02652004654404953
380 -0.023676244826053645 0.021659225453962164 0.015384059939710941
374 0.0009835862322467267 -0.0022779711571481627 0.00030932891268544696
54 -0.004480125821658187 -0.001917001197518429 -0.0002710516322481851
759 -0.0002784214404179489 0.004148715640363726 0.005941637628643423
242 -0.007354188314089136 0.0015245151294295692 0.003962141591271401
860 0.021163073323159927 0.008599328162830459 0.01633553663083046
249 0.00924730384443512 -0.020100366073120525 -0.006888727137999413
608 -0.03751932726239335 0.001472227811559299 0.007518909162672565
218 -0.0014431840768318526 0.018913944425515555 -0.018146671697361345
1033 0.0050377922197968545 -0.006205422911986505 -0.008430982517561672
280 -0.04272877287633483 -0.005758477318417141 -0.009196487195713057

Bonds

1 4 83 84
2 5 84 85
3 4 84 86
4 3 460 464
5 3 460 465
6 3 460 466
7 2 82 83
8 3 82 89
9 3 82 90
10 1 81 82
11 2 81 86
12 3 81 87
13 3 81 88
14 3 436 440
15 3 436 441
16 3 436 442
17 2 435 436
18 5 433 434
19 4 433 435
20 2 387 388
21 5 685 686
22 4 685 687
23 4 384 385
24 3 388 392
25 3 388 393
26 3 388 394
27 5 385 386
28 4 385 387
29 2 459 460
30 2 383 384
31 3 383 389
32 3 383 390
33 3 383 391
34 2 687 688
35 3 700 704
36 3 700 705
37 3 700 706
38 3 688 692
39 3 688 693
40 3 688 694
41 4 684 685
42 2 683 684
43 3 683 689
44 3 683 690
45 3 683 691
46 5 457 458
47 4 457 459
48 4 456 457
49 2 819 820
50 3 928 932
51 3 928 933
52 3 928 934
53 2 347 348
54 3 347 353
55 3 347 354
56 3 347 355
57 5 349 350
58 4 349 351
59 7 1068 1069
60 4 1067 1068
61 6 1067 1071
62 4 348 349
63 4 1073 1074
64 4 816 817
65 5 817 818
66 4 817 819
67 3 736 740
68 3 736 741
69 3 736 742
70 5 1074 1075
71 6 1074 1076
72 2 455 456
73 3 455 461
74 3 455 462
75 3 455 463
76 2 839 840
77 3 839 845
78 3 839 846
79 3 839 847
80 2 202 203
81 3 202 209
82 3 202 210
83 5 1066 1067
84 7 1056 1057
85 7 1056 1060
86 7 1056 1065
87 3 352 356
88 3 352 357
89 3 352 358
90 2 563 564
91 3 563 569
92 3 563 570
93 3 563 571
94 5 877 878
95 4 877 879
96 1 61 62
97 2 61 66
98 3 61 67
99 3 61 68
100 4 564 565
101 4 63 64
102 2 935 936
103 3 935 941
104 3 935 942
105 3 935 943
106 4 936 937
107 3 568 572
108 3 568 573
109 3 568 574
110 3 940 944
111 3 940 945
112 3 940 946
113 5 304 305
114 4 304 306
115 2 723 724
116 5 721 722
117 4 721 723
118 2 719 720
119 3 719 725
120 3 719 726
121 3 719 727
122 4 720 721
123 4 13 14
124 5 14 15
125 4 14 16
126 2 12 13
127 3 12 19
128 3 12 20
129 5 937 938
130 4 937 939
131 2 939 940
132 5 64 65
133 4 64 66
134 2 567 568
135 3 724 728
136 3 724 729
137 3 724 730
138 5 565 566
139 4 565 567
140 1 301 302
141 2 301 306
142 3 301 307
143 3 301 308
144 1 11 12
145 2 11 16
146 3 11 17
147 3 11 18
148 3 976 980
149 3 976 981
150 3 976 982
151 2 975 976
152 2 62 63
153 3 62 69
154 3 62 70
155 2 351 352
156 2 879 880
157 3 880 884
158 3 880 885
159 3 880 886
160 1 71 72
161 2 71 76
162 3 71 77
163 3 71 78
164 5 74 75
165 4 74 76
166 2 699 700
167 4 1057 1058
168 2 42 43
169 3 42 49
170 3 42 50
171 5 124 125
172 4 124 126
173 2 515 516
174 3 515 521
175 3 515 522
176 3 515 523
177 4 43 44
178 5 1063 1064
179 4 1063 1065
180 4 1031 1032
181 4 576 577
182 3 844 848
183 3 844 849
184 3 844 850
185 1 201 202
186 2 201 206
187 3 201 207
188 3 201 208
189 4 876 877
190 2 843 844
191 2 579 580
192 4 840 841
193 5 925 926
194 4 925 927
195 4 123 124
196 2 587 588
197 3 587 593
198 3 587 594
199 3 587 595
200 2 875 876
201 3 875 881
202 3 875 882
203 3 875 883
204 5 1037 1038
205 4 1037 1039
206 4 588 589
207 2 591 592
208 5 841 842
209 4 841 843
210 3 316 320
211 3 316 321
212 3 316 322
213 2 122 123
214 3 122 129
215 3 122 130
216 2 927 928
217 5 589 590
218 4 589 591
219 4 924 925
220 5 1061 1062
221 6 1061 1063
222 1 121 122
223 2 121 126
224 3 121 127
225 3 121 128
226 5 44 45
227 4 44 46
228 2 923 924
229 3 923 929
230 3 923 930
231 3 923 931
232 3 592 596
233 3 592 597
234 3 592 598
235 4 516 517
236 1 41 42
237 2 41 46
238 3 41 47
239 3 41 48
240 5 517 518
241 4 517 519
242 5 973 974
243 4 973 975
244 5 313 314
245 4 313 315
246 5 114 115
247 4 114 116
248 2 743 744
249 3 743 749
250 3 743 750
251 3 743 751
252 7 1069 1070
253 7 1069 1073
254 7 1069 1078
255 1 221 222
256 2 221 226
257 3 221 227
258 3 221 228
259 4 223 224
260 5 224 225
261 4 224 226
262 3 664 668
263 3 664 669
264 3 664 670
265 1 141 142
266 2 141 146
267 3 141 147
268 3 141 148
269 4 1070 1071
270 4 143 144
271 2 142 143
272 3 142 149
273 3 142 150
274 5 1076 1077
275 4 1076 1078
276 5 853 854
277 4 853 855
278 4 852 853
279 2 623 624
280 3 623 629
281 3 623 630
282 3 623 631
283 4 624 625
284 2 292 293
285 3 292 299
286 3 292 300
287 5 625 626
288 4 625 627
289 2 663 664
290 2 851 852
291 3 851 857
292 3 851 858
293 3 851 859
294 4 293 294
295 5 144 145
296 4 144 146
297 5 234 235
298 4 234 236
299 1 291 292
300 2 291 296
301 3 291 297
302 3 291 298
303 5 294 295
304 4 294 296
305 5 661 662
306 4 661 663
307 1 231 232
308 2 231 236
309 3 231 237
310 3 231 238
311 2 222 223
312 3 222 229
313 3 222 230
314 2 855 856
315 2 132 133
316 3 132 139
317 3 132 140
318 5 1071 1072
319 2 192 193
320 3 192 199
321 3 192 200
322 4 660 661
323 2 659 660
324 3 659 665
325 3 659 666
326 3 659 667
327 1 51 52
328 2 51 56
329 3 51 57
330 3 51 58
331 1 131 132
332 2 131 136
333 3 131 137
334 3 131 138
335 4 133 134
336 5 284 285
337 4 284 286
338 5 134 135
339 4 134 136
340 4 312 313
341 2 311 312
342 3 311 317
343 3 311 318
344 3 311 319
345 4 193 194
346 2 627 628
347 3 820 824
348 3 820 825
349 3 820 826
350 2 232 233
351 3 232 239
352 3 232 240
353 4 233 234
354 2 479 480
355 3 479 485
356 3 479 486
357 3 479 487
358 4 1060 1061
359 2 72 73
360 3 72 79
361 3 72 80
362 4 372 373
363 2 52 53
364 3 52 59
365 3 52 60
366 4 1018 1019
367 4 53 54
368 5 4 5
369 4 4 6
370 4 3 4
371 2 2 3
372 3 2 9
373 3 2 10
374 1 1 2
375 2 1 6
376 3 1 7
377 3 1 8
378 4 468 469
379 2 467 468
380 3 467 473
381 3 467 474
382 3 467 475
383 2 162 163
384 3 162 169
385 3 162 170
386 7 1055 1056
387 5 1053 1054
388 4 1054 1055
389 6 1054 1058
390 1 161 162
391 2 161 166
392 3 161 167
393 3 161 168
394 5 164 165
395 4 164 166
396 4 163 164
397 5 469 470
398 4 469 471
399 5 1058 1059
400 2 471 472
401 3 472 476
402 3 472 477
403 3 472 478
404 2 371 372
405 3 371 377
406 3 371 378
407 3 371 379
408 5 244 245
409 4 244 246
410 1 241 242
411 2 241 246
412 3 241 247
413 3 241 248
414 5 709 710
415 4 709 711
416 4 243 244
417 2 711 712
418 4 708 709
419 2 707 708
420 3 707 713
421 3 707 714
422 3 707 715
423 5 373 374
424 4 373 375
425 2 551 552
426 3 551 557
427 3 551 558
428 3 551 559
429 2 755 756
430 3 755 761
431 3 755 762
432 3 755 763
433 4 804 805
434 4 73 74
435 4 972 973
436 5 757 758
437 4 757 759
438 4 756 757
439 2 315 316
440 5 1001 1002
441 5 949 950
442 4 949 951
443 2 539 540
444 3 539 545
445 3 539 546
446 3 539 547
447 2 262 263
448 3 262 269
449 3 262 270
450 2 747 748
451 1 21 22
452 2 21 26
453 3 21 27
454 3 21 28
455 3 904 908
456 3 904 909
457 3 904 910
458 2 447 448
459 4 744 745
460 2 971 972
461 3 971 977
462 3 971 978
463 3 971 979
464 4 23 24
465 2 947 948
466 3 947 953
467 3 947 954
468 3 947 955
469 1 191 192
470 2 191 196
471 3 191 197
472 3 191 198
473 4 444 445
474 5 24 25
475 4 24 26
476 5 445 446
477 4 445 447
478 1 261 262
479 2 261 266
480 3 261 267
481 3 261 268
482 4 263 264
483 5 541 542
484 4 541 543
485 5 264 265
486 4 264 266
487 4 948 949
488 3 628 632
489 3 628 633
490 3 628 634
491 2 22 23
492 3 22 29
493 3 22 30
494 3 448 452
495 3 448 453
496 3 448 454
497 2 443 444
498 3 443 449
499 3 443 450
500 3 443 451
501 4 540 541
502 5 745 746
503 4 745 747
504 5 194 195
505 4 194 196
506 5 1019 1020
507 2 495 496
508 5 493 494
509 4 493 495
510 2 491 492
511 3 491 497
512 3 491 498
513 3 491 499
514 4 492 493
515 3 496 500
516 3 496 501
517 3 496 502
518 2 152 153
519 3 152 159
520 3 152 160
521 4 528 529
522 5 529 530
523 4 529 531
524 2 527 528
525 3 527 533
526 3 527 534
527 3 527 535
528 4 153 154
529 5 154 155
530 4 154 156
531 1 151 152
532 2 151 156
533 3 151 157
534 3 151 158
535 2 779 780
536 3 779 785
537 3 779 786
538 3 779 787
539 4 696 697
540 4 780 781
541 3 532 536
542 3 532 537
543 3 532 538
544 2 735 736
545 5 34 35
546 4 34 36
547 2 987 988
548 5 985 986
549 4 985 987
550 2 815 816
551 3 815 821
552 3 815 822
553 3 815 823
554 4 732 733
555 5 733 734
556 4 733 735
557 4 432 433
558 3 988 992
559 3 988 993
560 3 988 994
561 5 274 275
562 4 274 276
563 2 531 532
564 2 212 213
565 3 212 219
566 3 212 220
567 4 360 361
568 2 359 360
569 3 359 365
570 3 359 366
571 3 359 367
572 5 361 362
573 4 361 363
574 2 575 576
575 3 575 581
576 3 575 582
577 3 575 583
578 2 695 696
579 3 695 701
580 3 695 702
581 3 695 703
582 4 273 274
583 2 272 273
584 3 272 279
585 3 272 280
586 5 781 782
587 4 781 783
588 3 580 584
589 3 580 585
590 3 580 586
591 4 203 204
592 1 211 212
593 2 211 216
594 3 211 217
595 3 211 218
596 4 213 214
597 2 887 888
598 3 887 893
599 3 887 894
600 3 887 895
601 5 697 698
602 4 697 699
603 4 173 174
604 4 33 34
605 5 1032 1033
606 2 112 113
607 3 112 119
608 3 112 120
609 5 1045 1046
610 2 302 303
611 3 302 309
612 3 302 310
613 4 303 304
614 2 771 772
615 2 363 364
616 5 613 614
617 4 613 615
618 2 795 796
619 3 676 680
620 3 676 681
621 3 676 682
622 4 792 793
623 3 364 368
624 3 364 369
625 3 364 370
626 4 1034 1035
627 4 600 601
628 5 793 794
629 4 793 795
630 2 671 672
631 3 671 677
632 3 671 678
633 3 671 679
634 4 984 985
635 2 767 768
636 3 767 773
637 3 767 774
638 3 767 775
639 4 768 769
640 5 204 205
641 4 204 206
642 2 252 253
643 3 252 259
644 3 252 260
645 1 251 252
646 2 251 256
647 3 251 257
648 3 251 258
649 4 253 254
650 5 673 674
651 4 673 675
652 5 254 255
653 4 254 256
654 4 672 673
655 2 611 612
656 3 611 617
657 3 611 618
658 3 611 619
659 5 769 770
660 4 769 771
661 2 675 676
662 4 612 613
663 2 599 600
664 3 599 605
665 3 599 606
666 3 599 607
667 5 174 175
668 4 174 176
669 3 964 968
670 3 964 969
671 3 964 970
672 2 983 984
673 3 983 989
674 3 983 990
675 3 983 991
676 7 1029 1030
677 5 601 602
678 4 601 603
679 2 431 432
680 3 431 437
681 3 431 438
682 3 431 439
683 7 1030 1031
684 7 1030 1034
685 7 1030 1039
686 5 1040 1041
687 2 603 604
688 3 772 776
689 3 772 777
690 3 772 778
691 3 796 800
692 3 796 801
693 3 796 802
694 2 731 732
695 3 731 737
696 3 731 738
697 3 731 739
698 7 1043 1044
699 7 1043 1047
700 7 1043 1052
701 2 791 792
702 3 791 797
703 3 791 798
704 3 791 799
705 2 519 520
706 5 1035 1036
707 6 1035 1037
708 4 1047 1048
709 3 520 524
710 3 520 525
711 3 520 526
712 5 214 215
713 4 214 216
714 1 31 32
715 2 31 36
716 3 31 37
717 3 31 38
718 2 639 640
719 3 640 644
720 3 640 645
721 3 640 646
722 5 961 962
723 4 961 963
724 2 963 964
725 5 1048 1049
726 6 1048 1050
727 4 864 865
728 2 32 33
729 3 32 39
730 3 32 40
731 2 959 960
732 3 959 965
733 3 959 966
734 3 959 967
735 2 635 636
736 3 635 641
737 3 635 642
738 3 635 643
739 1 181 182
740 2 181 186
741 3 181 187
742 3 181 188
743 2 863 864
744 3 863 869
745 3 863 870
746 3 863 871
747 5 637 638
748 4 637 639
749 5 1050 1051
750 4 1050 1052
751 3 868 872
752 3 868 873
753 3 868 874
754 2 335 336
755 3 335 341
756 3 335 342
757 3 335 343
758 2 867 868
759 7 1042 1043
760 5 577 578
761 4 577 579
762 4 1044 1045
763 5 865 866
764 4 865 867
765 4 1041 1042
766 6 1041 1045
767 4 636 637
768 4 960 961
769 1 111 112
770 2 111 116
771 3 111 117
772 3 111 118
773 4 113 114
774 5 913 914
775 4 913 915
776 2 915 916
777 3 916 920
778 3 916 921
779 3 916 922
780 4 912 913
781 5 1006 1007
782 4 1005 1006
783 7 1004 1005
784 7 1004 1008
785 7 1004 1013
786 4 1008 1009
787 7 1003 1004
788 5 1024 1025
789 4 1024 1026
790 3 784 788
791 3 784 789
792 3 784 790
793 3 412 416
794 3 412 417
795 3 412 418
796 5 409 410
797 4 409 411
798 2 411 412
799 4 408 409
800 2 407 408
801 3 407 413
802 3 407 414
803 3 407 415
804 4 1002 1003
805 6 1002 1006
806 5 104 105
807 4 104 106
808 5 1009 1010
809 6 1009 1011
810 2 891 892
811 5 889 890
812 4 889 891
813 3 892 896
814 3 892 897
815 3 892 898
816 5 1011 1012
817 4 1011 1013
818 2 911 912
819 3 911 917
820 3 911 918
821 3 911 919
822 2 419 420
823 3 419 425
824 3 419 426
825 3 419 427
826 4 283 284
827 5 421 422
828 4 421 423
829 4 888 889
830 4 103 104
831 5 1022 1023
832 6 1022 1024
833 1 281 282
834 2 281 286
835 3 281 287
836 3 281 288
837 3 760 764
838 3 760 765
839 3 760 766
840 2 102 103
841 3 102 109
842 3 102 110
843 2 282 283
844 3 282 289
845 3 282 290
846 1 271 272
847 2 271 276
848 3 271 277
849 3 271 278
850 7 1017 1018
851 7 1017 1021
852 7 1017 1026
853 4 1028 1029
854 6 1028 1032
855 2 803 804
856 3 803 809
857 3 803 810
858 3 803 811
859 4 336 337
860 3 856 860
861 3 856 861
862 3 856 862
863 4 420 421
864 2 423 424
865 3 424 428
866 3 424 429
867 3 424 430
868 1 101 102
869 2 101 106
870 3 101 107
871 3 101 108
872 5 1014 1015
873 1 171 172
874 2 171 176
875 3 171 177
876 3 171 178
877 3 712 716
878 3 712 717
879 3 712 718
880 2 172 173
881 3 172 179
882 3 172 180
883 3 376 380
884 3 376 381
885 3 376 382
886 2 615 616
887 5 553 554
888 4 553 555
889 5 481 482
890 4 481 483
891 2 483 484
892 4 1021 1022
893 7 1016 1017
894 2 651 652
895 3 616 620
896 3 616 621
897 3 616 622
898 4 648 649
899 5 649 650
900 4 649 651
901 2 647 648
902 3 647 653
903 3 647 654
904 3 647 655
905 3 556 560
906 3 556 561
907 3 556 562
908 4 1015 1016
909 6 1015 1019
910 5 397 398
911 4 397 399
912 2 555 556
913 2 395 396
914 3 395 401
915 3 395 402
916 3 395 403
917 4 396 397
918 3 652 656
919 3 652 657
920 3 652 658
921 2 399 400
922 5 1027 1028
923 3 484 488
924 3 484 489
925 3 484 490
926 3 604 608
927 3 604 609
928 3 604 610
929 2 903 904
930 4 552 553
931 2 375 376
932 4 480 481
933 5 337 338
934 4 337 339
935 2 807 808
936 2 503 504
937 3 503 509
938 3 503 510
939 3 503 511
940 3 748 752
941 3 748 753
942 3 748 754
943 5 184 185
944 4 184 186
945 3 400 404
946 3 400 405
947 3 400 406
948 3 340 344
949 3 340 345
950 3 340 346
951 3 808 812
952 3 808 813
953 3 808 814
954 2 543 544
955 2 182 183
956 3 182 189
957 3 182 190
958 4 183 184
959 3 508 512
960 3 508 513
961 3 508 514
962 3 544 548
963 3 544 549
964 3 544 550
965 5 829 830
966 4 829 831
967 2 951 952
968 2 327 328
969 2 831 832
970 1 91 92
971 2 91 96
972 3 91 97
973 3 91 98
974 5 94 95
975 4 94 96
976 2 827 828
977 3 827 833
978 3 827 834
979 3 827 835
980 2 323 324
981 3 323 329
982 3 323 330
983 3 323 331
984 4 324 325
985 3 328 332
986 3 328 333
987 3 328 334
988 5 901 902
989 4 901 903
990 4 900 901
991 3 952 956
992 3 952 957
993 3 952 958
994 4 504 505
995 5 805 806
996 4 805 807
997 4 93 94
998 4 828 829
999 2 783 784
1000 5 505 506
1001 4 505 507
1002 5 325 326
1003 4 325 327
1004 2 92 93
1005 3 92 99
1006 3 92 100
1007 2 899 900
1008 3 899 905
1009 3 899 906
1010 3 899 907
1011 3 832 836
1012 3 832 837
1013 3 832 838
1014 2 339 340
1015 2 507 508
1016 5 54 55
1017 4 54 56
1018 2 759 760
1019 2 242 243
1020 3 242 249
1021 3 242 250

Angles

1 1 82 83 84
2 3 83 84 85
3 1 83 84 86
4 3 85 84 86
5 1 81 86 84
6 2 459 460 464
7 2 459 460 465
8 2 459 460 466
9 4 464 460 465
10 4 464 460 466
11 4 465 460 466
12 1 81 82 83
13 2 81 82 89
14 2 81 82 90
15 2 83 82 89
16 2 83 82 90
17 4 89 82 90
18 1 82 81 86
19 2 82 81 87
20 2 82 81 88
21 2 86 81 87
22 2 86 81 88
23 4 87 81 88
24 2 435 436 440
25 2 435 436 441
26 2 435 436 442
27 4 440 436 441
28 4 440 436 442
29 4 441 436 442
30 5 433 435 436
31 3 432 433 434
32 6 432 433 435
33 3 434 433 435
34 5 385 387 388
35 3 684 685 686
36 6 684 685 687
37 3 686 685 687
38 5 383 384 385
39 2 387 388 392
40 2 387 388 393
41 2 387 388 394
42 4 392 388 393
43 4 392 388 394
44 4 393 388 394
45 3 384 385 386
46 6 384 385 387
47 3 386 385 387
48 5 457 459 460
49 2 384 383 389
50 2 384 383 390
51 2 384 383 391
52 4 389 383 390
53 4 389 383 391
54 4 390 383 391
55 5 685 687 688
56 2 699 700 704
57 2 699 700 705
58 2 699 700 706
59 4 704 700 705
60 4 704 700 706
61 4 705 700 706
62 2 687 688 692
63 2 687 688 693
64 2 687 688 694
65 4 692 688 693
66 4 692 688 694
67 4 693 688 694
68 5 683 684 685
69 2 684 683 689
70 2 684 683 690
71 2 684 683 691
72 4 689 683 690
73 4 689 683 691
74 4 690 683 691
75 3 456 457 458
76 6 456 457 459
77 3 458 457 459
78 5 455 456 457
79 5 817 819 820
80 2 927 928 932
81 2 927 928 933
82 2 927 928 934
83 4 932 928 933
84 4 932 928 934
85 4 933 928 934
86 2 348 347 353
87 2 348 347 354
88 2 348 347 355
89 4 353 347 354
90 4 353 347 355
91 4 354 347 355
92 3 348 349 350
93 6 348 349 351
94 3 350 349 351
95 8 1067 1068 1069
96 3 1066 1067 1068
97 7 1066 1067 1071
98 1 1068 1067 1071
99 5 347 348 349
100 8 1069 1073 1074
101 5 815 816 817
102 3 816 817 818
103 6 816 817 819
104 3 818 817 819
105 2 735 736 740
106 2 735 736 741
107 2 735 736 742
108 4 740 736 741
109 4 740 736 742
110 4 741 736 742
111 3 1073 1074 1075
112 1 1073 1074 1076
113 7 1075 1074 1076
114 2 456 455 461
115 2 456 455 462
116 2 456 455 463
117 4 461 455 462
118 4 461 455 463
119 4 462 455 463
120 1 131 136 134
121 2 840 839 845
122 2 840 839 846
123 2 840 839 847
124 4 845 839 846
125 4 845 839 847
126 4 846 839 847
127 1 201 202 203
128 2 201 202 209
129 2 201 202 210
130 2 203 202 209
131 2 203 202 210
132 4 209 202 210
133 9 1055 1056 1057
134 9 1055 1056 1060
135 9 1055 1056 1065
136 9 1057 1056 1060
137 9 1057 1056 1065
138 9 1060 1056 1065
139 2 351 352 356
140 2 351 352 357
141 2 351 352 358
142 4 356 352 357
143 4 356 352 358
144 4 357 352 358
145 2 564 563 569
146 2 564 563 570
147 2 564 563 571
148 4 569 563 570
149 4 569 563 571
150 4 570 563 571
151 3 876 877 878
152 6 876 877 879
153 3 878 877 879
154 8 1056 1065 1063
155 1 62 61 66
156 2 62 61 67
157 2 62 61 68
158 2 66 61 67
159 2 66 61 68
160 4 67 61 68
161 5 563 564 565
162 1 62 63 64
163 2 936 935 941
164 2 936 935 942
165 2 936 935 943
166 4 941 935 942
167 4 941 935 943
168 4 942 935 943
169 5 935 936 937
170 2 567 568 572
171 2 567 568 573
172 2 567 568 574
173 4 572 568 573
174 4 572 568 574
175 4 573 568 574
176 2 939 940 944
177 2 939 940 945
178 2 939 940 946
179 4 944 940 945
180 4 944 940 946
181 4 945 940 946
182 3 303 304 305
183 1 303 304 306
184 3 305 304 306
185 5 721 723 724
186 3 720 721 722
187 6 720 721 723
188 3 722 721 723
189 2 720 719 725
190 2 720 719 726
191 2 720 719 727
192 4 725 719 726
193 4 725 719 727
194 4 726 719 727
195 5 719 720 721
196 1 12 13 14
197 3 13 14 15
198 1 13 14 16
199 3 15 14 16
200 1 11 12 13
201 2 11 12 19
202 2 11 12 20
203 2 13 12 19
204 2 13 12 20
205 4 19 12 20
206 3 936 937 938
207 6 936 937 939
208 3 938 937 939
209 5 937 939 940
210 3 63 64 65
211 1 63 64 66
212 3 65 64 66
213 5 565 567 568
214 2 723 724 728
215 2 723 724 729
216 2 723 724 730
217 4 728 724 729
218 4 728 724 730
219 4 729 724 730
220 3 564 565 566
221 6 564 565 567
222 3 566 565 567
223 1 301 306 304
224 1 302 301 306
225 2 302 301 307
226 2 302 301 308
227 2 306 301 307
228 2 306 301 308
229 4 307 301 308
230 1 11 16 14
231 1 12 11 16
232 2 12 11 17
233 2 12 11 18
234 2 16 11 17
235 2 16 11 18
236 4 17 11 18
237 2 975 976 980
238 2 975 976 981
239 2 975 976 982
240 4 980 976 981
241 4 980 976 982
242 4 981 976 982
243 5 973 975 976
244 1 61 66 64
245 1 61 62 63
246 2 61 62 69
247 2 61 62 70
248 2 63 62 69
249 2 63 62 70
250 4 69 62 70
251 5 349 351 352
252 5 877 879 880
253 2 879 880 884
254 2 879 880 885
255 2 879 880 886
256 4 884 880 885
257 4 884 880 886
258 4 885 880 886
259 1 72 71 76
260 2 72 71 77
261 2 72 71 78
262 2 76 71 77
263 2 76 71 78
264 4 77 71 78
265 1 71 76 74
266 3 73 74 75
267 1 73 74 76
268 3 75 74 76
269 5 697 699 700
270 8 1056 1057 1058
271 1 41 42 43
272 2 41 42 49
273 2 41 42 50
274 2 43 42 49
275 2 43 42 50
276 4 49 42 50
277 3 123 124 125
278 1 123 124 126
279 3 125 124 126
280 2 516 515 521
281 2 516 515 522
282 2 516 515 523
283 4 521 515 522
284 4 521 515 523
285 4 522 515 523
286 1 42 43 44
287 7 1061 1063 1064
288 1 1061 1063 1065
289 3 1064 1063 1065
290 8 1030 1031 1032
291 5 575 576 577
292 2 843 844 848
293 2 843 844 849
294 2 843 844 850
295 4 848 844 849
296 4 848 844 850
297 4 849 844 850
298 1 202 201 206
299 2 202 201 207
300 2 202 201 208
301 2 206 201 207
302 2 206 201 208
303 4 207 201 208
304 5 875 876 877
305 5 841 843 844
306 5 577 579 580
307 5 839 840 841
308 1 41 46 44
309 1 111 116 114
310 3 924 925 926
311 6 924 925 927
312 3 926 925 927
313 1 122 123 124
314 2 588 587 593
315 2 588 587 594
316 2 588 587 595
317 4 593 587 594
318 4 593 587 595
319 4 594 587 595
320 2 876 875 881
321 2 876 875 882
322 2 876 875 883
323 4 881 875 882
324 4 881 875 883
325 4 882 875 883
326 7 1035 1037 1038
327 1 1035 1037 1039
328 3 1038 1037 1039
329 5 587 588 589
330 5 589 591 592
331 3 840 841 842
332 6 840 841 843
333 3 842 841 843
334 2 315 316 320
335 2 315 316 321
336 2 315 316 322
337 4 320 316 321
338 4 320 316 322
339 4 321 316 322
340 1 121 122 123
341 2 121 122 129
342 2 121 122 130
343 2 123 122 129
344 2 123 122 130
345 4 129 122 130
346 5 925 927 928
347 3 588 589 590
348 6 588 589 591
349 3 590 589 591
350 5 923 924 925
351 1 121 126 124
352 3 1060 1061 1062
353 1 1060 1061 1063
354 7 1062 1061 1063
355 1 122 121 126
356 2 122 121 127
357 2 122 121 128
358 2 126 121 127
359 2 126 121 128
360 4 127 121 128
361 3 43 44 45
362 1 43 44 46
363 3 45 44 46
364 2 924 923 929
365 2 924 923 930
366 2 924 923 931
367 4 929 923 930
368 4 929 923 931
369 4 930 923 931
370 8 1030 1039 1037
371 2 591 592 596
372 2 591 592 597
373 2 591 592 598
374 4 596 592 597
375 4 596 592 598
376 4 597 592 598
377 5 515 516 517
378 1 42 41 46
379 2 42 41 47
380 2 42 41 48
381 2 46 41 47
382 2 46 41 48
383 4 47 41 48
384 3 516 517 518
385 6 516 517 519
386 3 518 517 519
387 3 972 973 974
388 6 972 973 975
389 3 974 973 975
390 3 312 313 314
391 6 312 313 315
392 3 314 313 315
393 3 113 114 115
394 1 113 114 116
395 3 115 114 116
396 2 744 743 749
397 2 744 743 750
398 2 744 743 751
399 4 749 743 750
400 4 749 743 751
401 4 750 743 751
402 9 1068 1069 1070
403 9 1068 1069 1073
404 9 1068 1069 1078
405 9 1070 1069 1073
406 9 1070 1069 1078
407 9 1073 1069 1078
408 1 222 221 226
409 2 222 221 227
410 2 222 221 228
411 2 226 221 227
412 2 226 221 228
413 4 227 221 228
414 1 221 226 224
415 1 222 223 224
416 3 223 224 225
417 1 223 224 226
418 3 225 224 226
419 2 663 664 668
420 2 663 664 669
421 2 663 664 670
422 4 668 664 669
423 4 668 664 670
424 4 669 664 670
425 1 142 141 146
426 2 142 141 147
427 2 142 141 148
428 2 146 141 147
429 2 146 141 148
430 4 147 141 148
431 8 1069 1078 1076
432 1 141 146 144
433 8 1069 1070 1071
434 1 142 143 144
435 1 141 142 143
436 2 141 142 149
437 2 141 142 150
438 2 143 142 149
439 2 143 142 150
440 4 149 142 150
441 7 1074 1076 1077
442 1 1074 1076 1078
443 3 1077 1076 1078
444 3 852 853 854
445 6 852 853 855
446 3 854 853 855
447 5 851 852 853
448 2 624 623 629
449 2 624 623 630
450 2 624 623 631
451 4 629 623 630
452 4 629 623 631
453 4 630 623 631
454 5 623 624 625
455 1 291 292 293
456 2 291 292 299
457 2 291 292 300
458 2 293 292 299
459 2 293 292 300
460 4 299 292 300
461 3 624 625 626
462 6 624 625 627
463 3 626 625 627
464 5 661 663 664
465 2 852 851 857
466 2 852 851 858
467 2 852 851 859
468 4 857 851 858
469 4 857 851 859
470 4 858 851 859
471 1 292 293 294
472 3 143 144 145
473 1 143 144 146
474 3 145 144 146
475 3 233 234 235
476 1 233 234 236
477 3 235 234 236
478 1 292 291 296
479 2 292 291 297
480 2 292 291 298
481 2 296 291 297
482 2 296 291 298
483 4 297 291 298
484 3 293 294 295
485 1 293 294 296
486 3 295 294 296
487 3 660 661 662
488 6 660 661 663
489 3 662 661 663
490 1 291 296 294
491 1 231 236 234
492 1 232 231 236
493 2 232 231 237
494 2 232 231 238
495 2 236 231 237
496 2 236 231 238
497 4 237 231 238
498 1 221 222 223
499 2 221 222 229
500 2 221 222 230
501 2 223 222 229
502 2 223 222 230
503 4 229 222 230
504 5 853 855 856
505 1 131 132 133
506 2 131 132 139
507 2 131 132 140
508 2 133 132 139
509 2 133 132 140
510 4 139 132 140
511 1 1067 1071 1070
512 7 1067 1071 1072
513 3 1070 1071 1072
514 1 191 192 193
515 2 191 192 199
516 2 191 192 200
517 2 193 192 199
518 2 193 192 200
519 4 199 192 200
520 5 659 660 661
521 2 660 659 665
522 2 660 659 666
523 2 660 659 667
524 4 665 659 666
525 4 665 659 667
526 4 666 659 667
527 1 52 51 56
528 2 52 51 57
529 2 52 51 58
530 2 56 51 57
531 2 56 51 58
532 4 57 51 58
533 1 132 131 136
534 2 132 131 137
535 2 132 131 138
536 2 136 131 137
537 2 136 131 138
538 4 137 131 138
539 1 132 133 134
540 3 283 284 285
541 1 283 284 286
542 3 285 284 286
543 3 133 134 135
544 1 133 134 136
545 3 135 134 136
546 1 281 286 284
547 5 311 312 313
548 2 312 311 317
549 2 312 311 318
550 2 312 311 319
551 4 317 311 318
552 4 317 311 319
553 4 318 311 319
554 1 192 193 194
555 5 625 627 628
556 2 819 820 824
557 2 819 820 825
558 2 819 820 826
559 4 824 820 825
560 4 824 820 826
561 4 825 820 826
562 1 231 232 233
563 2 231 232 239
564 2 231 232 240
565 2 233 232 239
566 2 233 232 240
567 4 239 232 240
568 1 232 233 234
569 2 480 479 485
570 2 480 479 486
571 2 480 479 487
572 4 485 479 486
573 4 485 479 487
574 4 486 479 487
575 8 1056 1060 1061
576 1 71 72 73
577 2 71 72 79
578 2 71 72 80
579 2 73 72 79
580 2 73 72 80
581 4 79 72 80
582 5 371 372 373
583 1 51 52 53
584 2 51 52 59
585 2 51 52 60
586 2 53 52 59
587 2 53 52 60
588 4 59 52 60
589 8 1017 1018 1019
590 1 52 53 54
591 1 241 246 244
592 1 1 6 4
593 3 3 4 5
594 1 3 4 6
595 3 5 4 6
596 1 2 3 4
597 1 1 2 3
598 2 1 2 9
599 2 1 2 10
600 2 3 2 9
601 2 3 2 10
602 4 9 2 10
603 1 2 1 6
604 2 2 1 7
605 2 2 1 8
606 2 6 1 7
607 2 6 1 8
608 4 7 1 8
609 5 467 468 469
610 2 468 467 473
611 2 468 467 474
612 2 468 467 475
613 4 473 467 474
614 4 473 467 475
615 4 474 467 475
616 1 161 162 163
617 2 161 162 169
618 2 161 162 170
619 2 163 162 169
620 2 163 162 170
621 4 169 162 170
622 8 1054 1055 1056
623 3 1053 1054 1055
624 7 1053 1054 1058
625 1 1055 1054 1058
626 1 162 161 166
627 2 162 161 167
628 2 162 161 168
629 2 166 161 167
630 2 166 161 168
631 4 167 161 168
632 1 161 166 164
633 3 163 164 165
634 1 163 164 166
635 3 165 164 166
636 1 162 163 164
637 3 468 469 470
638 6 468 469 471
639 3 470 469 471
640 1 1054 1058 1057
641 7 1054 1058 1059
642 3 1057 1058 1059
643 5 469 471 472
644 2 471 472 476
645 2 471 472 477
646 2 471 472 478
647 4 476 472 477
648 4 476 472 478
649 4 477 472 478
650 2 372 371 377
651 2 372 371 378
652 2 372 371 379
653 4 377 371 378
654 4 377 371 379
655 4 378 371 379
656 3 243 244 245
657 1 243 244 246
658 3 245 244 246
659 1 242 241 246
660 2 242 241 247
661 2 242 241 248
662 2 246 241 247
663 2 246 241 248
664 4 247 241 248
665 3 708 709 710
666 6 708 709 711
667 3 710 709 711
668 1 242 243 244
669 5 709 711 712
670 5 707 708 709
671 2 708 707 713
672 2 708 707 714
673 2 708 707 715
674 4 713 707 714
675 4 713 707 715
676 4 714 707 715
677 3 372 373 374
678 6 372 373 375
679 3 374 373 375
680 2 552 551 557
681 2 552 551 558
682 2 552 551 559
683 4 557 551 558
684 4 557 551 559
685 4 558 551 559
686 2 756 755 761
687 2 756 755 762
688 2 756 755 763
689 4 761 755 762
690 4 761 755 763
691 4 762 755 763
692 5 803 804 805
693 1 72 73 74
694 1 21 26 24
695 5 971 972 973
696 3 756 757 758
697 6 756 757 759
698 3 758 757 759
699 5 755 756 757
700 5 313 315 316
701 3 948 949 950
702 6 948 949 951
703 3 950 949 951
704 2 540 539 545
705 2 540 539 546
706 2 540 539 547
707 4 545 539 546
708 4 545 539 547
709 4 546 539 547
710 1 261 262 263
711 2 261 262 269
712 2 261 262 270
713 2 263 262 269
714 2 263 262 270
715 4 269 262 270
716 5 745 747 748
717 1 22 21 26
718 2 22 21 27
719 2 22 21 28
720 2 26 21 27
721 2 26 21 28
722 4 27 21 28
723 2 903 904 908
724 2 903 904 909
725 2 903 904 910
726 4 908 904 909
727 4 908 904 910
728 4 909 904 910
729 1 261 266 264
730 5 445 447 448
731 5 743 744 745
732 2 972 971 977
733 2 972 971 978
734 2 972 971 979
735 4 977 971 978
736 4 977 971 979
737 4 978 971 979
738 1 22 23 24
739 2 948 947 953
740 2 948 947 954
741 2 948 947 955
742 4 953 947 954
743 4 953 947 955
744 4 954 947 955
745 1 192 191 196
746 2 192 191 197
747 2 192 191 198
748 2 196 191 197
749 2 196 191 198
750 4 197 191 198
751 5 443 444 445
752 3 23 24 25
753 1 23 24 26
754 3 25 24 26
755 3 444 445 446
756 6 444 445 447
757 3 446 445 447
758 1 262 261 266
759 2 262 261 267
760 2 262 261 268
761 2 266 261 267
762 2 266 261 268
763 4 267 261 268
764 1 191 196 194
765 1 262 263 264
766 3 540 541 542
767 6 540 541 543
768 3 542 541 543
769 3 263 264 265
770 1 263 264 266
771 3 265 264 266
772 5 947 948 949
773 2 627 628 632
774 2 627 628 633
775 2 627 628 634
776 4 632 628 633
777 4 632 628 634
778 4 633 628 634
779 1 21 22 23
780 2 21 22 29
781 2 21 22 30
782 2 23 22 29
783 2 23 22 30
784 4 29 22 30
785 2 447 448 452
786 2 447 448 453
787 2 447 448 454
788 4 452 448 453
789 4 452 448 454
790 4 453 448 454
791 2 444 443 449
792 2 444 443 450
793 2 444 443 451
794 4 449 443 450
795 4 449 443 451
796 4 450 443 451
797 5 539 540 541
798 3 744 745 746
799 6 744 745 747
800 3 746 745 747
801 3 193 194 195
802 1 193 194 196
803 3 195 194 196
804 1 1015 1019 1018
805 7 1015 1019 1020
806 3 1018 1019 1020
807 5 493 495 496
808 3 492 493 494
809 6 492 493 495
810 3 494 493 495
811 2 492 491 497
812 2 492 491 498
813 2 492 491 499
814 4 497 491 498
815 4 497 491 499
816 4 498 491 499
817 5 491 492 493
818 2 495 496 500
819 2 495 496 501
820 2 495 496 502
821 4 500 496 501
822 4 500 496 502
823 4 501 496 502
824 1 151 152 153
825 2 151 152 159
826 2 151 152 160
827 2 153 152 159
828 2 153 152 160
829 4 159 152 160
830 5 527 528 529
831 3 528 529 530
832 6 528 529 531
833 3 530 529 531
834 2 528 527 533
835 2 528 527 534
836 2 528 527 535
837 4 533 527 534
838 4 533 527 535
839 4 534 527 535
840 1 151 156 154
841 1 152 153 154
842 3 153 154 155
843 1 153 154 156
844 3 155 154 156
845 1 152 151 156
846 2 152 151 157
847 2 152 151 158
848 2 156 151 157
849 2 156 151 158
850 4 157 151 158
851 2 780 779 785
852 2 780 779 786
853 2 780 779 787
854 4 785 779 786
855 4 785 779 787
856 4 786 779 787
857 5 695 696 697
858 5 779 780 781
859 2 531 532 536
860 2 531 532 537
861 2 531 532 538
862 4 536 532 537
863 4 536 532 538
864 4 537 532 538
865 5 733 735 736
866 3 33 34 35
867 1 33 34 36
868 3 35 34 36
869 5 985 987 988
870 3 984 985 986
871 6 984 985 987
872 3 986 985 987
873 2 816 815 821
874 2 816 815 822
875 2 816 815 823
876 4 821 815 822
877 4 821 815 823
878 4 822 815 823
879 5 731 732 733
880 3 732 733 734
881 6 732 733 735
882 3 734 733 735
883 5 431 432 433
884 2 987 988 992
885 2 987 988 993
886 2 987 988 994
887 4 992 988 993
888 4 992 988 994
889 4 993 988 994
890 3 273 274 275
891 1 273 274 276
892 3 275 274 276
893 5 529 531 532
894 1 211 212 213
895 2 211 212 219
896 2 211 212 220
897 2 213 212 219
898 2 213 212 220
899 4 219 212 220
900 5 359 360 361
901 2 360 359 365
902 2 360 359 366
903 2 360 359 367
904 4 365 359 366
905 4 365 359 367
906 4 366 359 367
907 3 360 361 362
908 6 360 361 363
909 3 362 361 363
910 2 576 575 581
911 2 576 575 582
912 2 576 575 583
913 4 581 575 582
914 4 581 575 583
915 4 582 575 583
916 2 696 695 701
917 2 696 695 702
918 2 696 695 703
919 4 701 695 702
920 4 701 695 703
921 4 702 695 703
922 1 272 273 274
923 1 271 272 273
924 2 271 272 279
925 2 271 272 280
926 2 273 272 279
927 2 273 272 280
928 4 279 272 280
929 3 780 781 782
930 6 780 781 783
931 3 782 781 783
932 2 579 580 584
933 2 579 580 585
934 2 579 580 586
935 4 584 580 585
936 4 584 580 586
937 4 585 580 586
938 1 202 203 204
939 1 212 211 216
940 2 212 211 217
941 2 212 211 218
942 2 216 211 217
943 2 216 211 218
944 4 217 211 218
945 1 211 216 214
946 1 212 213 214
947 2 888 887 893
948 2 888 887 894
949 2 888 887 895
950 4 893 887 894
951 4 893 887 895
952 4 894 887 895
953 3 696 697 698
954 6 696 697 699
955 3 698 697 699
956 1 172 173 174
957 1 32 33 34
958 1 1028 1032 1031
959 7 1028 1032 1033
960 3 1031 1032 1033
961 1 111 112 113
962 2 111 112 119
963 2 111 112 120
964 2 113 112 119
965 2 113 112 120
966 4 119 112 120
967 1 1041 1045 1044
968 7 1041 1045 1046
969 3 1044 1045 1046
970 1 301 302 303
971 2 301 302 309
972 2 301 302 310
973 2 303 302 309
974 2 303 302 310
975 4 309 302 310
976 1 302 303 304
977 5 769 771 772
978 5 361 363 364
979 3 612 613 614
980 6 612 613 615
981 3 614 613 615
982 5 793 795 796
983 2 675 676 680
984 2 675 676 681
985 2 675 676 682
986 4 680 676 681
987 4 680 676 682
988 4 681 676 682
989 5 791 792 793
990 2 363 364 368
991 2 363 364 369
992 2 363 364 370
993 4 368 364 369
994 4 368 364 370
995 4 369 364 370
996 8 1030 1034 1035
997 5 599 600 601
998 3 792 793 794
999 6 792 793 795
1000 3 794 793 795
1001 2 672 671 677
1002 2 672 671 678
1003 2 672 671 679
1004 4 677 671 678
1005 4 677 671 679
1006 4 678 671 679
1007 5 983 984 985
1008 2 768 767 773
1009 2 768 767 774
1010 2 768 767 775
1011 4 773 767 774
1012 4 773 767 775
1013 4 774 767 775
1014 5 767 768 769
1015 3 203 204 205
1016 1 203 204 206
1017 3 205 204 206
1018 1 251 252 253
1019 2 251 252 259
1020 2 251 252 260
1021 2 253 252 259
1022 2 253 252 260
1023 4 259 252 260
1024 1 252 251 256
1025 2 252 251 257
1026 2 252 251 258
1027 2 256 251 257
1028 2 256 251 258
1029 4 257 251 258
1030 1 251 256 254
1031 1 252 253 254
1032 3 672 673 674
1033 6 672 673 675
1034 3 674 673 675
1035 3 253 254 255
1036 1 253 254 256
1037 3 255 254 256
1038 5 671 672 673
1039 2 612 611 617
1040 2 612 611 618
1041 2 612 611 619
1042 4 617 611 618
1043 4 617 611 619
1044 4 618 611 619
1045 3 768 769 770
1046 6 768 769 771
1047 3 770 769 771
1048 5 673 675 676
1049 5 611 612 613
1050 2 600 599 605
1051 2 600 599 606
1052 2 600 599 607
1053 4 605 599 606
1054 4 605 599 607
1055 4 606 599 607
1056 1 201 206 204
1057 3 173 174 175
1058 1 173 174 176
1059 3 175 174 176
1060 2 963 964 968
1061 2 963 964 969
1062 2 963 964 970
1063 4 968 964 969
1064 4 968 964 970
1065 4 969 964 970
1066 2 984 983 989
1067 2 984 983 990
1068 2 984 983 991
1069 4 989 983 990
1070 4 989 983 991
1071 4 990 983 991
1072 8 1028 1029 1030
1073 3 600 601 602
1074 6 600 601 603
1075 3 602 601 603
1076 2 432 431 437
1077 2 432 431 438
1078 2 432 431 439
1079 4 437 431 438
1080 4 437 431 439
1081 4 438 431 439
1082 9 1029 1030 1031
1083 9 1029 1030 1034
1084 9 1029 1030 1039
1085 9 1031 1030 1034
1086 9 1031 1030 1039
1087 9 1034 1030 1039
1088 5 601 603 604
1089 2 771 772 776
1090 2 771 772 777
1091 2 771 772 778
1092 4 776 772 777
1093 4 776 772 778
1094 4 777 772 778
1095 2 795 796 800
1096 2 795 796 801
1097 2 795 796 802
1098 4 800 796 801
1099 4 800 796 802
1100 4 801 796 802
1101 2 732 731 737
1102 2 732 731 738
1103 2 732 731 739
1104 4 737 731 738
1105 4 737 731 739
1106 4 738 731 739
1107 9 1042 1043 1044
1108 9 1042 1043 1047
1109 9 1042 1043 1052
1110 9 1044 1043 1047
1111 9 1044 1043 1052
1112 9 1047 1043 1052
1113 2 792 791 797
1114 2 792 791 798
1115 2 792 791 799
1116 4 797 791 798
1117 4 797 791 799
1118 4 798 791 799
1119 5 517 519 520
1120 3 1034 1035 1036
1121 1 1034 1035 1037
1122 7 1036 1035 1037
1123 8 1043 1047 1048
1124 2 519 520 524
1125 2 519 520 525
1126 2 519 520 526
1127 4 524 520 525
1128 4 524 520 526
1129 4 525 520 526
1130 3 213 214 215
1131 1 213 214 216
1132 3 215 214 216
1133 1 32 31 36
1134 2 32 31 37
1135 2 32 31 38
1136 2 36 31 37
1137 2 36 31 38
1138 4 37 31 38
1139 5 637 639 640
1140 2 639 640 644
1141 2 639 640 645
1142 2 639 640 646
1143 4 644 640 645
1144 4 644 640 646
1145 4 645 640 646
1146 3 960 961 962
1147 6 960 961 963
1148 3 962 961 963
1149 1 181 186 184
1150 5 961 963 964
1151 3 1047 1048 1049
1152 1 1047 1048 1050
1153 7 1049 1048 1050
1154 5 863 864 865
1155 1 31 32 33
1156 2 31 32 39
1157 2 31 32 40
1158 2 33 32 39
1159 2 33 32 40
1160 4 39 32 40
1161 2 960 959 965
1162 2 960 959 966
1163 2 960 959 967
1164 4 965 959 966
1165 4 965 959 967
1166 4 966 959 967
1167 2 636 635 641
1168 2 636 635 642
1169 2 636 635 643
1170 4 641 635 642
1171 4 641 635 643
1172 4 642 635 643
1173 1 182 181 186
1174 2 182 181 187
1175 2 182 181 188
1176 2 186 181 187
1177 2 186 181 188
1178 4 187 181 188
1179 2 864 863 869
1180 2 864 863 870
1181 2 864 863 871
1182 4 869 863 870
1183 4 869 863 871
1184 4 870 863 871
1185 8 1043 1052 1050
1186 3 636 637 638
1187 6 636 637 639
1188 3 638 637 639
1189 7 1048 1050 1051
1190 1 1048 1050 1052
1191 3 1051 1050 1052
1192 2 867 868 872
1193 2 867 868 873
1194 2 867 868 874
1195 4 872 868 873
1196 4 872 868 874
1197 4 873 868 874
1198 2 336 335 341
1199 2 336 335 342
1200 2 336 335 343
1201 4 341 335 342
1202 4 341 335 343
1203 4 342 335 343
1204 5 865 867 868
1205 8 1041 1042 1043
1206 1 31 36 34
1207 3 576 577 578
1208 6 576 577 579
1209 3 578 577 579
1210 8 1043 1044 1045
1211 3 864 865 866
1212 6 864 865 867
1213 3 866 865 867
1214 3 1040 1041 1042
1215 7 1040 1041 1045
1216 1 1042 1041 1045
1217 5 635 636 637
1218 5 959 960 961
1219 1 112 111 116
1220 2 112 111 117
1221 2 112 111 118
1222 2 116 111 117
1223 2 116 111 118
1224 4 117 111 118
1225 1 112 113 114
1226 3 912 913 914
1227 6 912 913 915
1228 3 914 913 915
1229 5 913 915 916
1230 2 915 916 920
1231 2 915 916 921
1232 2 915 916 922
1233 4 920 916 921
1234 4 920 916 922
1235 4 921 916 922
1236 5 911 912 913
1237 1 1002 1006 1005
1238 7 1002 1006 1007
1239 3 1005 1006 1007
1240 8 1004 1005 1006
1241 9 1003 1004 1005
1242 9 1003 1004 1008
1243 9 1003 1004 1013
1244 9 1005 1004 1008
1245 9 1005 1004 1013
1246 9 1008 1004 1013
1247 8 1004 1008 1009
1248 8 1002 1003 1004
1249 8 1004 1013 1011
1250 7 1022 1024 1025
1251 1 1022 1024 1026
1252 3 1025 1024 1026
1253 8 1017 1026 1024
1254 2 783 784 788
1255 2 783 784 789
1256 2 783 784 790
1257 4 788 784 789
1258 4 788 784 790
1259 4 789 784 790
1260 2 411 412 416
1261 2 411 412 417
1262 2 411 412 418
1263 4 416 412 417
1264 4 416 412 418
1265 4 417 412 418
1266 3 408 409 410
1267 6 408 409 411
1268 3 410 409 411
1269 5 409 411 412
1270 5 407 408 409
1271 2 408 407 413
1272 2 408 407 414
1273 2 408 407 415
1274 4 413 407 414
1275 4 413 407 415
1276 4 414 407 415
1277 3 1001 1002 1003
1278 7 1001 1002 1006
1279 1 1003 1002 1006
1280 3 103 104 105
1281 1 103 104 106
1282 3 105 104 106
1283 3 1008 1009 1010
1284 1 1008 1009 1011
1285 7 1010 1009 1011
1286 5 889 891 892
1287 3 888 889 890
1288 6 888 889 891
1289 3 890 889 891
1290 2 891 892 896
1291 2 891 892 897
1292 2 891 892 898
1293 4 896 892 897
1294 4 896 892 898
1295 4 897 892 898
1296 7 1009 1011 1012
1297 1 1009 1011 1013
1298 3 1012 1011 1013
1299 2 912 911 917
1300 2 912 911 918
1301 2 912 911 919
1302 4 917 911 918
1303 4 917 911 919
1304 4 918 911 919
1305 2 420 419 425
1306 2 420 419 426
1307 2 420 419 427
1308 4 425 419 426
1309 4 425 419 427
1310 4 426 419 427
1311 1 282 283 284
1312 3 420 421 422
1313 6 420 421 423
1314 3 422 421 423
1315 5 887 888 889
1316 1 102 103 104
1317 3 1021 1022 1023
1318 1 1021 1022 1024
1319 7 1023 1022 1024
1320 1 101 106 104
1321 1 282 281 286
1322 2 282 281 287
1323 2 282 281 288
1324 2 286 281 287
1325 2 286 281 288
1326 4 287 281 288
1327 2 759 760 764
1328 2 759 760 765
1329 2 759 760 766
1330 4 764 760 765
1331 4 764 760 766
1332 4 765 760 766
1333 1 101 102 103
1334 2 101 102 109
1335 2 101 102 110
1336 2 103 102 109
1337 2 103 102 110
1338 4 109 102 110
1339 1 281 282 283
1340 2 281 282 289
1341 2 281 282 290
1342 2 283 282 289
1343 2 283 282 290
1344 4 289 282 290
1345 1 272 271 276
1346 2 272 271 277
1347 2 272 271 278
1348 2 276 271 277
1349 2 276 271 278
1350 4 277 271 278
1351 9 1016 1017 1018
1352 9 1016 1017 1021
1353 9 1016 1017 1026
1354 9 1018 1017 1021
1355 9 1018 1017 1026
1356 9 1021 1017 1026
1357 3 1027 1028 1029
1358 7 1027 1028 1032
1359 1 1029 1028 1032
1360 2 804 803 809
1361 2 804 803 810
1362 2 804 803 811
1363 4 809 803 810
1364 4 809 803 811
1365 4 810 803 811
1366 5 335 336 337
1367 2 855 856 860
1368 2 855 856 861
1369 2 855 856 862
1370 4 860 856 861
1371 4 860 856 862
1372 4 861 856 862
1373 5 419 420 421
1374 5 421 423 424
1375 2 423 424 428
1376 2 423 424 429
1377 2 423 424 430
1378 4 428 424 429
1379 4 428 424 430
1380 4 429 424 430
1381 1 102 101 106
1382 2 102 101 107
1383 2 102 101 108
1384 2 106 101 107
1385 2 106 101 108
1386 4 107 101 108
1387 1 172 171 176
1388 2 172 171 177
1389 2 172 171 178
1390 2 176 171 177
1391 2 176 171 178
1392 4 177 171 178
1393 2 711 712 716
1394 2 711 712 717
1395 2 711 712 718
1396 4 716 712 717
1397 4 716 712 718
1398 4 717 712 718
1399 1 171 172 173
1400 2 171 172 179
1401 2 171 172 180
1402 2 173 172 179
1403 2 173 172 180
1404 4 179 172 180
1405 1 51 56 54
1406 2 375 376 380
1407 2 375 376 381
1408 2 375 376 382
1409 4 380 376 381
1410 4 380 376 382
1411 4 381 376 382
1412 5 613 615 616
1413 3 552 553 554
1414 6 552 553 555
1415 3 554 553 555
1416 3 480 481 482
1417 6 480 481 483
1418 3 482 481 483
1419 5 481 483 484
1420 8 1017 1021 1022
1421 8 1015 1016 1017
1422 5 649 651 652
1423 2 615 616 620
1424 2 615 616 621
1425 2 615 616 622
1426 4 620 616 621
1427 4 620 616 622
1428 4 621 616 622
1429 5 647 648 649
1430 3 648 649 650
1431 6 648 649 651
1432 3 650 649 651
1433 2 648 647 653
1434 2 648 647 654
1435 2 648 647 655
1436 4 653 647 654
1437 4 653 647 655
1438 4 654 647 655
1439 2 555 556 560
1440 2 555 556 561
1441 2 555 556 562
1442 4 560 556 561
1443 4 560 556 562
1444 4 561 556 562
1445 3 1014 1015 1016
1446 7 1014 1015 1019
1447 1 1016 1015 1019
1448 3 396 397 398
1449 6 396 397 399
1450 3 398 397 399
1451 5 553 555 556
1452 2 396 395 401
1453 2 396 395 402
1454 2 396 395 403
1455 4 401 395 402
1456 4 401 395 403
1457 4 402 395 403
1458 5 395 396 397
1459 2 651 652 656
1460 2 651 652 657
1461 2 651 652 658
1462 4 656 652 657
1463 4 656 652 658
1464 4 657 652 658
1465 5 397 399 400
1466 2 483 484 488
1467 2 483 484 489
1468 2 483 484 490
1469 4 488 484 489
1470 4 488 484 490
1471 4 489 484 490
1472 2 603 604 608
1473 2 603 604 609
1474 2 603 604 610
1475 4 608 604 609
1476 4 608 604 610
1477 4 609 604 610
1478 5 901 903 904
1479 5 551 552 553
1480 5 373 375 376
1481 5 479 480 481
1482 1 271 276 274
1483 1 171 176 174
1484 3 336 337 338
1485 6 336 337 339
1486 3 338 337 339
1487 5 805 807 808
1488 2 504 503 509
1489 2 504 503 510
1490 2 504 503 511
1491 4 509 503 510
1492 4 509 503 511
1493 4 510 503 511
1494 2 747 748 752
1495 2 747 748 753
1496 2 747 748 754
1497 4 752 748 753
1498 4 752 748 754
1499 4 753 748 754
1500 3 183 184 185
1501 1 183 184 186
1502 3 185 184 186
1503 2 399 400 404
1504 2 399 400 405
1505 2 399 400 406
1506 4 404 400 405
1507 4 404 400 406
1508 4 405 400 406
1509 2 339 340 344
1510 2 339 340 345
1511 2 339 340 346
1512 4 344 340 345
1513 4 344 340 346
1514 4 345 340 346
1515 2 807 808 812
1516 2 807 808 813
1517 2 807 808 814
1518 4 812 808 813
1519 4 812 808 814
1520 4 813 808 814
1521 5 541 543 544
1522 1 181 182 183
1523 2 181 182 189
1524 2 181 182 190
1525 2 183 182 189
1526 2 183 182 190
1527 4 189 182 190
1528 1 182 183 184
1529 2 507 508 512
1530 2 507 508 513
1531 2 507 508 514
1532 4 512 508 513
1533 4 512 508 514
1534 4 513 508 514
1535 2 543 544 548
1536 2 543 544 549
1537 2 543 544 550
1538 4 548 544 549
1539 4 548 544 550
1540 4 549 544 550
1541 3 828 829 830
1542 6 828 829 831
1543 3 830 829 831
1544 5 949 951 952
1545 5 325 327 328
1546 5 829 831 832
1547 1 92 91 96
1548 2 92 91 97
1549 2 92 91 98
1550 2 96 91 97
1551 2 96 91 98
1552 4 97 91 98
1553 3 93 94 95
1554 1 93 94 96
1555 3 95 94 96
1556 2 828 827 833
1557 2 828 827 834
1558 2 828 827 835
1559 4 833 827 834
1560 4 833 827 835
1561 4 834 827 835
1562 2 324 323 329
1563 2 324 323 330
1564 2 324 323 331
1565 4 329 323 330
1566 4 329 323 331
1567 4 330 323 331
1568 5 323 324 325
1569 1 91 96 94
1570 2 327 328 332
1571 2 327 328 333
1572 2 327 328 334
1573 4 332 328 333
1574 4 332 328 334
1575 4 333 328 334
1576 3 900 901 902
1577 6 900 901 903
1578 3 902 901 903
1579 5 899 900 901
1580 2 951 952 956
1581 2 951 952 957
1582 2 951 952 958
1583 4 956 952 957
1584 4 956 952 958
1585 4 957 952 958
1586 5 503 504 505
1587 3 804 805 806
1588 6 804 805 807
1589 3 806 805 807
1590 1 92 93 94
1591 5 827 828 829
1592 5 781 783 784
1593 3 504 505 506
1594 6 504 505 507
1595 3 506 505 507
1596 3 324 325 326
1597 6 324 325 327
1598 3 326 325 327
1599 1 91 92 93
1600 2 91 92 99
1601 2 91 92 100
1602 2 93 92 99
1603 2 93 92 100
1604 4 99 92 100
1605 2 900 899 905
1606 2 900 899 906
1607 2 900 899 907
1608 4 905 899 906
1609 4 905 899 907
1610 4 906 899 907
1611 2 831 832 836
1612 2 831 832 837
1613 2 831 832 838
1614 4 836 832 837
1615 4 836 832 838
1616 4 837 832 838
1617 5 337 339 340
1618 5 505 507 508
1619 3 53 54 55
1620 1 53 54 56
1621 3 55 54 56
1622 5 757 759 760
1623 1 241 242 243
1624 2 241 242 249
1625 2 241 242 250
1626 2 243 242 249
1627 2 243 242 250
1628 4 249 242 250

Dihedrals

1 3 82 83 84 85
2 3 82 83 84 86
3 8 84 83 82 89
4 8 84 83 82 90
5 3 81 86 84 83
6 3 81 86 84 85
7 8 84 86 81 87
8 8 84 86 81 88
9 1 81 82 83 84
10 2 81 82 83 84
11 4 83 82 81 86
12 5 83 82 81 86
13 6 83 82 81 87
14 7 83 82 81 87
15 6 83 82 81 88
16 7 83 82 81 88
17 1 82 81 86 84
18 2 82 81 86 84
19 6 86 81 82 89
20 7 86 81 82 89
21 6 86 81 82 90
22 7 86 81 82 90
23 9 87 81 82 89
24 9 87 81 82 90
25 9 88 81 82 89
26 9 88 81 82 90
27 8 433 435 436 440
28 8 433 435 436 441
29 8 433 435 436 442
30 12 432 433 435 436
31 10 434 433 435 436
32 11 434 433 435 436
33 8 385 387 388 392
34 8 385 387 388 393
35 8 385 387 388 394
36 12 684 685 687 688
37 10 686 685 687 688
38 11 686 685 687 688
39 10 383 384 385 386
40 11 383 384 385 386
41 12 383 384 385 387
42 8 385 384 383 389
43 8 385 384 383 390
44 8 385 384 383 391
45 12 384 385 387 388
46 10 386 385 387 388
47 11 386 385 387 388
48 8 457 459 460 464
49 8 457 459 460 465
50 8 457 459 460 466
51 8 685 687 688 692
52 8 685 687 688 693
53 8 685 687 688 694
54 10 683 684 685 686
55 11 683 684 685 686
56 12 683 684 685 687
57 8 685 684 683 689
58 8 685 684 683 690
59 8 685 684 683 691
60 12 456 457 459 460
61 10 458 457 459 460
62 11 458 457 459 460
63 10 455 456 457 458
64 11 455 456 457 458
65 12 455 456 457 459
66 8 457 456 455 461
67 8 457 456 455 462
68 8 457 456 455 463
69 8 817 819 820 824
70 8 817 819 820 825
71 8 817 819 820 826
72 12 348 349 351 352
73 10 350 349 351 352
74 11 350 349 351 352
75 14 1067 1068 1069 1070
76 14 1067 1068 1069 1073
77 14 1067 1068 1069 1078
78 15 1069 1068 1067 1071
79 3 1066 1067 1068 1069
80 13 1066 1067 1071 1070
81 13 1066 1067 1071 1072
82 13 1068 1067 1071 1070
83 13 1068 1067 1071 1072
84 10 347 348 349 350
85 11 347 348 349 350
86 12 347 348 349 351
87 8 349 348 347 353
88 8 349 348 347 354
89 8 349 348 347 355
90 3 1069 1073 1074 1075
91 15 1069 1073 1074 1076
92 14 1074 1073 1069 1078
93 10 815 816 817 818
94 11 815 816 817 818
95 12 815 816 817 819
96 8 817 816 815 821
97 8 817 816 815 822
98 8 817 816 815 823
99 12 816 817 819 820
100 10 818 817 819 820
101 11 818 817 819 820
102 13 1073 1074 1076 1077
103 13 1073 1074 1076 1078
104 13 1075 1074 1076 1077
105 13 1075 1074 1076 1078
106 3 131 136 134 133
107 3 131 136 134 135
108 8 134 136 131 137
109 8 134 136 131 138
110 1 201 202 203 204
111 2 201 202 203 204
112 4 203 202 201 206
113 5 203 202 201 206
114 6 203 202 201 207
115 7 203 202 201 207
116 6 203 202 201 208
117 7 203 202 201 208
118 14 1055 1056 1057 1058
119 14 1055 1056 1060 1061
120 14 1055 1056 1065 1063
121 14 1057 1056 1060 1061
122 14 1057 1056 1065 1063
123 14 1060 1056 1065 1063
124 12 876 877 879 880
125 10 878 877 879 880
126 11 878 877 879 880
127 15 1056 1065 1063 1061
128 3 1056 1065 1063 1064
129 1 62 61 66 64
130 2 62 61 66 64
131 6 66 61 62 69
132 7 66 61 62 69
133 6 66 61 62 70
134 7 66 61 62 70
135 9 67 61 62 69
136 9 67 61 62 70
137 9 68 61 62 69
138 9 68 61 62 70
139 10 563 564 565 566
140 11 563 564 565 566
141 12 563 564 565 567
142 8 565 564 563 569
143 8 565 564 563 570
144 8 565 564 563 571
145 3 62 63 64 65
146 3 62 63 64 66
147 8 64 63 62 69
148 8 64 63 62 70
149 10 935 936 937 938
150 11 935 936 937 938
151 12 935 936 937 939
152 8 937 936 935 941
153 8 937 936 935 942
154 8 937 936 935 943
155 8 721 723 724 728
156 8 721 723 724 729
157 8 721 723 724 730
158 12 720 721 723 724
159 10 722 721 723 724
160 11 722 721 723 724
161 10 719 720 721 722
162 11 719 720 721 722
163 12 719 720 721 723
164 8 721 720 719 725
165 8 721 720 719 726
166 8 721 720 719 727
167 3 12 13 14 15
168 3 12 13 14 16
169 8 14 13 12 19
170 8 14 13 12 20
171 1 11 12 13 14
172 2 11 12 13 14
173 4 13 12 11 16
174 5 13 12 11 16
175 6 13 12 11 17
176 7 13 12 11 17
177 6 13 12 11 18
178 7 13 12 11 18
179 12 936 937 939 940
180 10 938 937 939 940
181 11 938 937 939 940
182 8 937 939 940 944
183 8 937 939 940 945
184 8 937 939 940 946
185 8 565 567 568 572
186 8 565 567 568 573
187 8 565 567 568 574
188 12 564 565 567 568
189 10 566 565 567 568
190 11 566 565 567 568
191 3 301 306 304 303
192 3 301 306 304 305
193 8 304 306 301 307
194 8 304 306 301 308
195 1 302 301 306 304
196 2 302 301 306 304
197 6 306 301 302 309
198 7 306 301 302 309
199 6 306 301 302 310
200 7 306 301 302 310
201 9 307 301 302 309
202 9 307 301 302 310
203 9 308 301 302 309
204 9 308 301 302 310
205 3 11 16 14 13
206 3 11 16 14 15
207 8 14 16 11 17
208 8 14 16 11 18
209 1 12 11 16 14
210 2 12 11 16 14
211 6 16 11 12 19
212 7 16 11 12 19
213 6 16 11 12 20
214 7 16 11 12 20
215 9 17 11 12 19
216 9 17 11 12 20
217 9 18 11 12 19
218 9 18 11 12 20
219 8 973 975 976 980
220 8 973 975 976 981
221 8 973 975 976 982
222 3 61 66 64 63
223 3 61 66 64 65
224 8 64 66 61 67
225 8 64 66 61 68
226 1 61 62 63 64
227 2 61 62 63 64
228 4 63 62 61 66
229 5 63 62 61 66
230 6 63 62 61 67
231 7 63 62 61 67
232 6 63 62 61 68
233 7 63 62 61 68
234 8 349 351 352 356
235 8 349 351 352 357
236 8 349 351 352 358
237 8 877 879 880 884
238 8 877 879 880 885
239 8 877 879 880 886
240 1 72 71 76 74
241 2 72 71 76 74
242 6 76 71 72 79
243 7 76 71 72 79
244 6 76 71 72 80
245 7 76 71 72 80
246 9 77 71 72 79
247 9 77 71 72 80
248 9 78 71 72 79
249 9 78 71 72 80
250 3 71 76 74 73
251 3 71 76 74 75
252 8 74 76 71 77
253 8 74 76 71 78
254 8 697 699 700 704
255 8 697 699 700 705
256 8 697 699 700 706
257 3 1056 1057 1058 1059
258 14 1058 1057 1056 1060
259 14 1058 1057 1056 1065
260 1 41 42 43 44
261 2 41 42 43 44
262 4 43 42 41 46
263 5 43 42 41 46
264 6 43 42 41 47
265 7 43 42 41 47
266 6 43 42 41 48
267 7 43 42 41 48
268 3 42 43 44 45
269 3 42 43 44 46
270 8 44 43 42 49
271 8 44 43 42 50
272 3 1030 1031 1032 1033
273 14 1032 1031 1030 1034
274 14 1032 1031 1030 1039
275 10 575 576 577 578
276 11 575 576 577 578
277 12 575 576 577 579
278 8 577 576 575 581
279 8 577 576 575 582
280 8 577 576 575 583
281 1 202 201 206 204
282 2 202 201 206 204
283 6 206 201 202 209
284 7 206 201 202 209
285 6 206 201 202 210
286 7 206 201 202 210
287 9 207 201 202 209
288 9 207 201 202 210
289 9 208 201 202 209
290 9 208 201 202 210
291 10 875 876 877 878
292 11 875 876 877 878
293 12 875 876 877 879
294 8 877 876 875 881
295 8 877 876 875 882
296 8 877 876 875 883
297 8 841 843 844 848
298 8 841 843 844 849
299 8 841 843 844 850
300 8 577 579 580 584
301 8 577 579 580 585
302 8 577 579 580 586
303 10 839 840 841 842
304 11 839 840 841 842
305 12 839 840 841 843
306 8 841 840 839 845
307 8 841 840 839 846
308 8 841 840 839 847
309 3 41 46 44 43
310 3 41 46 44 45
311 8 44 46 41 47
312 8 44 46 41 48
313 3 111 116 114 113
314 3 111 116 114 115
315 8 114 116 111 117
316 8 114 116 111 118
317 12 924 925 927 928
318 10 926 925 927 928
319 11 926 925 927 928
320 3 122 123 124 125
321 3 122 123 124 126
322 8 124 123 122 129
323 8 124 123 122 130
324 10 587 588 589 590
325 11 587 588 589 590
326 12 587 588 589 591
327 8 589 588 587 593
328 8 589 588 587 594
329 8 589 588 587 595
330 8 589 591 592 596
331 8 589 591 592 597
332 8 589 591 592 598
333 12 840 841 843 844
334 10 842 841 843 844
335 11 842 841 843 844
336 1 121 122 123 124
337 2 121 122 123 124
338 4 123 122 121 126
339 5 123 122 121 126
340 6 123 122 121 127
341 7 123 122 121 127
342 6 123 122 121 128
343 7 123 122 121 128
344 8 925 927 928 932
345 8 925 927 928 933
346 8 925 927 928 934
347 12 588 589 591 592
348 10 590 589 591 592
349 11 590 589 591 592
350 10 923 924 925 926
351 11 923 924 925 926
352 12 923 924 925 927
353 8 925 924 923 929
354 8 925 924 923 930
355 8 925 924 923 931
356 3 121 126 124 123
357 3 121 126 124 125
358 8 124 126 121 127
359 8 124 126 121 128
360 13 1060 1061 1063 1064
361 13 1060 1061 1063 1065
362 13 1062 1061 1063 1064
363 13 1062 1061 1063 1065
364 1 122 121 126 124
365 2 122 121 126 124
366 6 126 121 122 129
367 7 126 121 122 129
368 6 126 121 122 130
369 7 126 121 122 130
370 9 127 121 122 129
371 9 127 121 122 130
372 9 128 121 122 129
373 9 128 121 122 130
374 15 1030 1039 1037 1035
375 3 1030 1039 1037 1038
376 10 515 516 517 518
377 11 515 516 517 518
378 12 515 516 517 519
379 8 517 516 515 521
380 8 517 516 515 522
381 8 517 516 515 523
382 1 42 41 46 44
383 2 42 41 46 44
384 6 46 41 42 49
385 7 46 41 42 49
386 6 46 41 42 50
387 7 46 41 42 50
388 9 47 41 42 49
389 9 47 41 42 50
390 9 48 41 42 49
391 9 48 41 42 50
392 12 516 517 519 520
393 10 518 517 519 520
394 11 518 517 519 520
395 12 972 973 975 976
396 10 974 973 975 976
397 11 974 973 975 976
398 12 312 313 315 316
399 10 314 313 315 316
400 11 314 313 315 316
401 14 1068 1069 1070 1071
402 14 1068 1069 1073 1074
403 14 1068 1069 1078 1076
404 14 1070 1069 1073 1074
405 14 1070 1069 1078 1076
406 14 1073 1069 1078 1076
407 1 222 221 226 224
408 2 222 221 226 224
409 6 226 221 222 229
410 7 226 221 222 229
411 6 226 221 222 230
412 7 226 221 222 230
413 9 227 221 222 229
414 9 227 221 222 230
415 9 228 221 222 229
416 9 228 221 222 230
417 3 221 226 224 223
418 3 221 226 224 225
419 8 224 226 221 227
420 8 224 226 221 228
421 3 222 223 224 225
422 3 222 223 224 226
423 8 224 223 222 229
424 8 224 223 222 230
425 1 142 141 146 144
426 2 142 141 146 144
427 6 146 141 142 149
428 7 146 141 142 149
429 6 146 141 142 150
430 7 146 141 142 150
431 9 147 141 142 149
432 9 147 141 142 150
433 9 148 141 142 149
434 9 148 141 142 150
435 15 1069 1078 1076 1074
436 3 1069 1078 1076 1077
437 3 141 146 144 143
438 3 141 146 144 145
439 8 144 146 141 147
440 8 144 146 141 148
441 3 1069 1070 1071 1072
442 14 1071 1070 1069 1073
443 14 1071 1070 1069 1078
444 3 142 143 144 145
445 3 142 143 144 146
446 8 144 143 142 149
447 8 144 143 142 150
448 1 141 142 143 144
449 2 141 142 143 144
450 4 143 142 141 146
451 5 143 142 141 146
452 6 143 142 141 147
453 7 143 142 141 147
454 6 143 142 141 148
455 7 143 142 141 148
456 12 852 853 855 856
457 10 854 853 855 856
458 11 854 853 855 856
459 10 851 852 853 854
460 11 851 852 853 854
461 12 851 852 853 855
462 8 853 852 851 857
463 8 853 852 851 858
464 8 853 852 851 859
465 10 623 624 625 626
466 11 623 624 625 626
467 12 623 624 625 627
468 8 625 624 623 629
469 8 625 624 623 630
470 8 625 624 623 631
471 1 291 292 293 294
472 2 291 292 293 294
473 4 293 292 291 296
474 5 293 292 291 296
475 6 293 292 291 297
476 7 293 292 291 297
477 6 293 292 291 298
478 7 293 292 291 298
479 12 624 625 627 628
480 10 626 625 627 628
481 11 626 625 627 628
482 8 661 663 664 668
483 8 661 663 664 669
484 8 661 663 664 670
485 3 292 293 294 295
486 3 292 293 294 296
487 8 294 293 292 299
488 8 294 293 292 300
489 1 292 291 296 294
490 2 292 291 296 294
491 6 296 291 292 299
492 7 296 291 292 299
493 6 296 291 292 300
494 7 296 291 292 300
495 9 297 291 292 299
496 9 297 291 292 300
497 9 298 291 292 299
498 9 298 291 292 300
499 12 660 661 663 664
500 10 662 661 663 664
501 11 662 661 663 664
502 3 291 296 294 293
503 3 291 296 294 295
504 8 294 296 291 297
505 8 294 296 291 298
506 3 231 236 234 233
507 3 231 236 234 235
508 8 234 236 231 237
509 8 234 236 231 238
510 1 232 231 236 234
511 2 232 231 236 234
512 6 236 231 232 239
513 7 236 231 232 239
514 6 236 231 232 240
515 7 236 231 232 240
516 9 237 231 232 239
517 9 237 231 232 240
518 9 238 231 232 239
519 9 238 231 232 240
520 1 221 222 223 224
521 2 221 222 223 224
522 4 223 222 221 226
523 5 223 222 221 226
524 6 223 222 221 227
525 7 223 222 221 227
526 6 223 222 221 228
527 7 223 222 221 228
528 8 853 855 856 860
529 8 853 855 856 861
530 8 853 855 856 862
531 1 131 132 133 134
532 2 131 132 133 134
533 4 133 132 131 136
534 5 133 132 131 136
535 6 133 132 131 137
536 7 133 132 131 137
537 6 133 132 131 138
538 7 133 132 131 138
539 15 1067 1071 1070 1069
540 1 191 192 193 194
541 2 191 192 193 194
542 4 193 192 191 196
543 5 193 192 191 196
544 6 193 192 191 197
545 7 193 192 191 197
546 6 193 192 191 198
547 7 193 192 191 198
548 10 659 660 661 662
549 11 659 660 661 662
550 12 659 660 661 663
551 8 661 660 659 665
552 8 661 660 659 666
553 8 661 660 659 667
554 1 52 51 56 54
555 2 52 51 56 54
556 6 56 51 52 59
557 7 56 51 52 59
558 6 56 51 52 60
559 7 56 51 52 60
560 9 57 51 52 59
561 9 57 51 52 60
562 9 58 51 52 59
563 9 58 51 52 60
564 1 132 131 136 134
565 2 132 131 136 134
566 6 136 131 132 139
567 7 136 131 132 139
568 6 136 131 132 140
569 7 136 131 132 140
570 9 137 131 132 139
571 9 137 131 132 140
572 9 138 131 132 139
573 9 138 131 132 140
574 3 132 133 134 135
575 3 132 133 134 136
576 8 134 133 132 139
577 8 134 133 132 140
578 3 281 286 284 283
579 3 281 286 284 285
580 8 284 286 281 287
581 8 284 286 281 288
582 10 311 312 313 314
583 11 311 312 313 314
584 12 311 312 313 315
585 8 313 312 311 317
586 8 313 312 311 318
587 8 313 312 311 319
588 3 192 193 194 195
589 3 192 193 194 196
590 8 194 193 192 199
591 8 194 193 192 200
592 8 625 627 628 632
593 8 625 627 628 633
594 8 625 627 628 634
595 1 231 232 233 234
596 2 231 232 233 234
597 4 233 232 231 236
598 5 233 232 231 236
599 6 233 232 231 237
600 7 233 232 231 237
601 6 233 232 231 238
602 7 233 232 231 238
603 3 232 233 234 235
604 3 232 233 234 236
605 8 234 233 232 239
606 8 234 233 232 240
607 3 1056 1060 1061 1062
608 15 1056 1060 1061 1063
609 14 1061 1060 1056 1065
610 1 71 72 73 74
611 2 71 72 73 74
612 4 73 72 71 76
613 5 73 72 71 76
614 6 73 72 71 77
615 7 73 72 71 77
616 6 73 72 71 78
617 7 73 72 71 78
618 10 371 372 373 374
619 11 371 372 373 374
620 12 371 372 373 375
621 8 373 372 371 377
622 8 373 372 371 378
623 8 373 372 371 379
624 1 51 52 53 54
625 2 51 52 53 54
626 4 53 52 51 56
627 5 53 52 51 56
628 6 53 52 51 57
629 7 53 52 51 57
630 6 53 52 51 58
631 7 53 52 51 58
632 3 1017 1018 1019 1020
633 14 1019 1018 1017 1021
634 14 1019 1018 1017 1026
635 3 52 53 54 55
636 3 52 53 54 56
637 8 54 53 52 59
638 8 54 53 52 60
639 3 241 246 244 243
640 3 241 246 244 245
641 8 244 246 241 247
642 8 244 246 241 248
643 3 1 6 4 3
644 3 1 6 4 5
645 8 4 6 1 7
646 8 4 6 1 8
647 3 2 3 4 5
648 3 2 3 4 6
649 8 4 3 2 9
650 8 4 3 2 10
651 1 1 2 3 4
652 2 1 2 3 4
653 4 3 2 1 6
654 5 3 2 1 6
655 6 3 2 1 7
656 7 3 2 1 7
657 6 3 2 1 8
658 7 3 2 1 8
659 1 2 1 6 4
660 2 2 1 6 4
661 6 6 1 2 9
662 7 6 1 2 9
663 6 6 1 2 10
664 7 6 1 2 10
665 9 7 1 2 9
666 9 7 1 2 10
667 9 8 1 2 9
668 9 8 1 2 10
669 10 467 468 469 470
670 11 467 468 469 470
671 12 467 468 469 471
672 8 469 468 467 473
673 8 469 468 467 474
674 8 469 468 467 475
675 1 161 162 163 164
676 2 161 162 163 164
677 4 163 162 161 166
678 5 163 162 161 166
679 6 163 162 161 167
680 7 163 162 161 167
681 6 163 162 161 168
682 7 163 162 161 168
683 14 1054 1055 1056 1057
684 14 1054 1055 1056 1060
685 14 1054 1055 1056 1065
686 15 1056 1055 1054 1058
687 3 1053 1054 1055 1056
688 13 1053 1054 1058 1057
689 13 1053 1054 1058 1059
690 13 1055 1054 1058 1057
691 13 1055 1054 1058 1059
692 1 162 161 166 164
693 2 162 161 166 164
694 6 166 161 162 169
695 7 166 161 162 169
696 6 166 161 162 170
697 7 166 161 162 170
698 9 167 161 162 169
699 9 167 161 162 170
700 9 168 161 162 169
701 9 168 161 162 170
702 3 161 166 164 163
703 3 161 166 164 165
704 8 164 166 161 167
705 8 164 166 161 168
706 3 162 163 164 165
707 3 162 163 164 166
708 8 164 163 162 169
709 8 164 163 162 170
710 12 468 469 471 472
711 10 470 469 471 472
712 11 470 469 471 472
713 15 1054 1058 1057 1056
714 8 469 471 472 476
715 8 469 471 472 477
716 8 469 471 472 478
717 1 242 241 246 244
718 2 242 241 246 244
719 6 246 241 242 249
720 7 246 241 242 249
721 6 246 241 242 250
722 7 246 241 242 250
723 9 247 241 242 249
724 9 247 241 242 250
725 9 248 241 242 249
726 9 248 241 242 250
727 12 708 709 711 712
728 10 710 709 711 712
729 11 710 709 711 712
730 3 242 243 244 245
731 3 242 243 244 246
732 8 244 243 242 249
733 8 244 243 242 250
734 8 709 711 712 716
735 8 709 711 712 717
736 8 709 711 712 718
737 10 707 708 709 710
738 11 707 708 709 710
739 12 707 708 709 711
740 8 709 708 707 713
741 8 709 708 707 714
742 8 709 708 707 715
743 12 372 373 375 376
744 10 374 373 375 376
745 11 374 373 375 376
746 10 803 804 805 806
747 11 803 804 805 806
748 12 803 804 805 807
749 8 805 804 803 809
750 8 805 804 803 810
751 8 805 804 803 811
752 3 72 73 74 75
753 3 72 73 74 76
754 8 74 73 72 79
755 8 74 73 72 80
756 3 21 26 24 23
757 3 21 26 24 25
758 8 24 26 21 27
759 8 24 26 21 28
760 10 971 972 973 974
761 11 971 972 973 974
762 12 971 972 973 975
763 8 973 972 971 977
764 8 973 972 971 978
765 8 973 972 971 979
766 12 756 757 759 760
767 10 758 757 759 760
768 11 758 757 759 760
769 10 755 756 757 758
770 11 755 756 757 758
771 12 755 756 757 759
772 8 757 756 755 761
773 8 757 756 755 762
774 8 757 756 755 763
775 8 313 315 316 320
776 8 313 315 316 321
777 8 313 315 316 322
778 12 948 949 951 952
779 10 950 949 951 952
780 11 950 949 951 952
781 1 261 262 263 264
782 2 261 262 263 264
783 4 263 262 261 266
784 5 263 262 261 266
785 6 263 262 261 267
786 7 263 262 261 267
787 6 263 262 261 268
788 7 263 262 261 268
789 8 745 747 748 752
790 8 745 747 748 753
791 8 745 747 748 754
792 1 22 21 26 24
793 2 22 21 26 24
794 6 26 21 22 29
795 7 26 21 22 29
796 6 26 21 22 30
797 7 26 21 22 30
798 9 27 21 22 29
799 9 27 21 22 30
800 9 28 21 22 29
801 9 28 21 22 30
802 3 261 266 264 263
803 3 261 266 264 265
804 8 264 266 261 267
805 8 264 266 261 268
806 8 445 447 448 452
807 8 445 447 448 453
808 8 445 447 448 454
809 10 743 744 745 746
810 11 743 744 745 746
811 12 743 744 745 747
812 8 745 744 743 749
813 8 745 744 743 750
814 8 745 744 743 751
815 3 22 23 24 25
816 3 22 23 24 26
817 8 24 23 22 29
818 8 24 23 22 30
819 1 192 191 196 194
820 2 192 191 196 194
821 6 196 191 192 199
822 7 196 191 192 199
823 6 196 191 192 200
824 7 196 191 192 200
825 9 197 191 192 199
826 9 197 191 192 200
827 9 198 191 192 199
828 9 198 191 192 200
829 10 443 444 445 446
830 11 443 444 445 446
831 12 443 444 445 447
832 8 445 444 443 449
833 8 445 444 443 450
834 8 445 444 443 451
835 12 444 445 447 448
836 10 446 445 447 448
837 11 446 445 447 448
838 1 262 261 266 264
839 2 262 261 266 264
840 6 266 261 262 269
841 7 266 261 262 269
842 6 266 261 262 270
843 7 266 261 262 270
844 9 267 261 262 269
845 9 267 261 262 270
846 9 268 261 262 269
847 9 268 261 262 270
848 3 191 196 194 193
849 3 191 196 194 195
850 8 194 196 191 197
851 8 194 196 191 198
852 3 262 263 264 265
853 3 262 263 264 266
854 8 264 263 262 269
855 8 264 263 262 270
856 12 540 541 543 544
857 10 542 541 543 544
858 11 542 541 543 544
859 10 947 948 949 950
860 11 947 948 949 950
861 12 947 948 949 951
862 8 949 948 947 953
863 8 949 948 947 954
864 8 949 948 947 955
865 1 21 22 23 24
866 2 21 22 23 24
867 4 23 22 21 26
868 5 23 22 21 26
869 6 23 22 21 27
870 7 23 22 21 27
871 6 23 22 21 28
872 7 23 22 21 28
873 10 539 540 541 542
874 11 539 540 541 542
875 12 539 540 541 543
876 8 541 540 539 545
877 8 541 540 539 546
878 8 541 540 539 547
879 12 744 745 747 748
880 10 746 745 747 748
881 11 746 745 747 748
882 15 1015 1019 1018 1017
883 8 493 495 496 500
884 8 493 495 496 501
885 8 493 495 496 502
886 12 492 493 495 496
887 10 494 493 495 496
888 11 494 493 495 496
889 10 491 492 493 494
890 11 491 492 493 494
891 12 491 492 493 495
892 8 493 492 491 497
893 8 493 492 491 498
894 8 493 492 491 499
895 1 151 152 153 154
896 2 151 152 153 154
897 4 153 152 151 156
898 5 153 152 151 156
899 6 153 152 151 157
900 7 153 152 151 157
901 6 153 152 151 158
902 7 153 152 151 158
903 10 527 528 529 530
904 11 527 528 529 530
905 12 527 528 529 531
906 8 529 528 527 533
907 8 529 528 527 534
908 8 529 528 527 535
909 12 528 529 531 532
910 10 530 529 531 532
911 11 530 529 531 532
912 3 151 156 154 153
913 3 151 156 154 155
914 8 154 156 151 157
915 8 154 156 151 158
916 3 152 153 154 155
917 3 152 153 154 156
918 8 154 153 152 159
919 8 154 153 152 160
920 1 152 151 156 154
921 2 152 151 156 154
922 6 156 151 152 159
923 7 156 151 152 159
924 6 156 151 152 160
925 7 156 151 152 160
926 9 157 151 152 159
927 9 157 151 152 160
928 9 158 151 152 159
929 9 158 151 152 160
930 10 695 696 697 698
931 11 695 696 697 698
932 12 695 696 697 699
933 8 697 696 695 701
934 8 697 696 695 702
935 8 697 696 695 703
936 10 779 780 781 782
937 11 779 780 781 782
938 12 779 780 781 783
939 8 781 780 779 785
940 8 781 780 779 786
941 8 781 780 779 787
942 8 733 735 736 740
943 8 733 735 736 741
944 8 733 735 736 742
945 8 985 987 988 992
946 8 985 987 988 993
947 8 985 987 988 994
948 12 984 985 987 988
949 10 986 985 987 988
950 11 986 985 987 988
951 10 731 732 733 734
952 11 731 732 733 734
953 12 731 732 733 735
954 8 733 732 731 737
955 8 733 732 731 738
956 8 733 732 731 739
957 12 732 733 735 736
958 10 734 733 735 736
959 11 734 733 735 736
960 10 431 432 433 434
961 11 431 432 433 434
962 12 431 432 433 435
963 8 433 432 431 437
964 8 433 432 431 438
965 8 433 432 431 439
966 8 529 531 532 536
967 8 529 531 532 537
968 8 529 531 532 538
969 1 211 212 213 214
970 2 211 212 213 214
971 4 213 212 211 216
972 5 213 212 211 216
973 6 213 212 211 217
974 7 213 212 211 217
975 6 213 212 211 218
976 7 213 212 211 218
977 10 359 360 361 362
978 11 359 360 361 362
979 12 359 360 361 363
980 8 361 360 359 365
981 8 361 360 359 366
982 8 361 360 359 367
983 12 360 361 363 364
984 10 362 361 363 364
985 11 362 361 363 364
986 3 272 273 274 275
987 3 272 273 274 276
988 8 274 273 272 279
989 8 274 273 272 280
990 1 271 272 273 274
991 2 271 272 273 274
992 4 273 272 271 276
993 5 273 272 271 276
994 6 273 272 271 277
995 7 273 272 271 277
996 6 273 272 271 278
997 7 273 272 271 278
998 12 780 781 783 784
999 10 782 781 783 784
1000 11 782 781 783 784
1001 3 202 203 204 205
1002 3 202 203 204 206
1003 8 204 203 202 209
1004 8 204 203 202 210
1005 1 212 211 216 214
1006 2 212 211 216 214
1007 6 216 211 212 219
1008 7 216 211 212 219
1009 6 216 211 212 220
1010 7 216 211 212 220
1011 9 217 211 212 219
1012 9 217 211 212 220
1013 9 218 211 212 219
1014 9 218 211 212 220
1015 3 211 216 214 213
1016 3 211 216 214 215
1017 8 214 216 211 217
1018 8 214 216 211 218
1019 3 212 213 214 215
1020 3 212 213 214 216
1021 8 214 213 212 219
1022 8 214 213 212 220
1023 12 696 697 699 700
1024 10 698 697 699 700
1025 11 698 697 699 700
1026 3 172 173 174 175
1027 3 172 173 174 176
1028 8 174 173 172 179
1029 8 174 173 172 180
1030 3 32 33 34 35
1031 3 32 33 34 36
1032 8 34 33 32 39
1033 8 34 33 32 40
1034 15 1028 1032 1031 1030
1035 1 111 112 113 114
1036 2 111 112 113 114
1037 4 113 112 111 116
1038 5 113 112 111 116
1039 6 113 112 111 117
1040 7 113 112 111 117
1041 6 113 112 111 118
1042 7 113 112 111 118
1043 15 1041 1045 1044 1043
1044 1 301 302 303 304
1045 2 301 302 303 304
1046 4 303 302 301 306
1047 5 303 302 301 306
1048 6 303 302 301 307
1049 7 303 302 301 307
1050 6 303 302 301 308
1051 7 303 302 301 308
1052 3 302 303 304 305
1053 3 302 303 304 306
1054 8 304 303 302 309
1055 8 304 303 302 310
1056 8 769 771 772 776
1057 8 769 771 772 777
1058 8 769 771 772 778
1059 8 361 363 364 368
1060 8 361 363 364 369
1061 8 361 363 364 370
1062 12 612 613 615 616
1063 10 614 613 615 616
1064 11 614 613 615 616
1065 8 793 795 796 800
1066 8 793 795 796 801
1067 8 793 795 796 802
1068 10 791 792 793 794
1069 11 791 792 793 794
1070 12 791 792 793 795
1071 8 793 792 791 797
1072 8 793 792 791 798
1073 8 793 792 791 799
1074 3 1030 1034 1035 1036
1075 15 1030 1034 1035 1037
1076 14 1035 1034 1030 1039
1077 10 599 600 601 602
1078 11 599 600 601 602
1079 12 599 600 601 603
1080 8 601 600 599 605
1081 8 601 600 599 606
1082 8 601 600 599 607
1083 12 792 793 795 796
1084 10 794 793 795 796
1085 11 794 793 795 796
1086 10 983 984 985 986
1087 11 983 984 985 986
1088 12 983 984 985 987
1089 8 985 984 983 989
1090 8 985 984 983 990
1091 8 985 984 983 991
1092 10 767 768 769 770
1093 11 767 768 769 770
1094 12 767 768 769 771
1095 8 769 768 767 773
1096 8 769 768 767 774
1097 8 769 768 767 775
1098 1 251 252 253 254
1099 2 251 252 253 254
1100 4 253 252 251 256
1101 5 253 252 251 256
1102 6 253 252 251 257
1103 7 253 252 251 257
1104 6 253 252 251 258
1105 7 253 252 251 258
1106 1 252 251 256 254
1107 2 252 251 256 254
1108 6 256 251 252 259
1109 7 256 251 252 259
1110 6 256 251 252 260
1111 7 256 251 252 260
1112 9 257 251 252 259
1113 9 257 251 252 260
1114 9 258 251 252 259
1115 9 258 251 252 260
1116 3 251 256 254 253
1117 3 251 256 254 255
1118 8 254 256 251 257
1119 8 254 256 251 258
1120 3 252 253 254 255
1121 3 252 253 254 256
1122 8 254 253 252 259
1123 8 254 253 252 260
1124 12 672 673 675 676
1125 10 674 673 675 676
1126 11 674 673 675 676
1127 10 671 672 673 674
1128 11 671 672 673 674
1129 12 671 672 673 675
1130 8 673 672 671 677
1131 8 673 672 671 678
1132 8 673 672 671 679
1133 12 768 769 771 772
1134 10 770 769 771 772
1135 11 770 769 771 772
1136 8 673 675 676 680
1137 8 673 675 676 681
1138 8 673 675 676 682
1139 10 611 612 613 614
1140 11 611 612 613 614
1141 12 611 612 613 615
1142 8 613 612 611 617
1143 8 613 612 611 618
1144 8 613 612 611 619
1145 3 201 206 204 203
1146 3 201 206 204 205
1147 8 204 206 201 207
1148 8 204 206 201 208
1149 14 1028 1029 1030 1031
1150 14 1028 1029 1030 1034
1151 14 1028 1029 1030 1039
1152 15 1030 1029 1028 1032
1153 12 600 601 603 604
1154 10 602 601 603 604
1155 11 602 601 603 604
1156 14 1029 1030 1031 1032
1157 14 1029 1030 1034 1035
1158 14 1029 1030 1039 1037
1159 14 1031 1030 1034 1035
1160 14 1031 1030 1039 1037
1161 14 1034 1030 1039 1037
1162 8 601 603 604 608
1163 8 601 603 604 609
1164 8 601 603 604 610
1165 14 1042 1043 1044 1045
1166 14 1042 1043 1047 1048
1167 14 1042 1043 1052 1050
1168 14 1044 1043 1047 1048
1169 14 1044 1043 1052 1050
1170 14 1047 1043 1052 1050
1171 8 517 519 520 524
1172 8 517 519 520 525
1173 8 517 519 520 526
1174 13 1034 1035 1037 1038
1175 13 1034 1035 1037 1039
1176 13 1036 1035 1037 1038
1177 13 1036 1035 1037 1039
1178 3 1043 1047 1048 1049
1179 15 1043 1047 1048 1050
1180 14 1048 1047 1043 1052
1181 1 32 31 36 34
1182 2 32 31 36 34
1183 6 36 31 32 39
1184 7 36 31 32 39
1185 6 36 31 32 40
1186 7 36 31 32 40
1187 9 37 31 32 39
1188 9 37 31 32 40
1189 9 38 31 32 39
1190 9 38 31 32 40
1191 8 637 639 640 644
1192 8 637 639 640 645
1193 8 637 639 640 646
1194 12 960 961 963 964
1195 10 962 961 963 964
1196 11 962 961 963 964
1197 3 181 186 184 183
1198 3 181 186 184 185
1199 8 184 186 181 187
1200 8 184 186 181 188
1201 8 961 963 964 968
1202 8 961 963 964 969
1203 8 961 963 964 970
1204 13 1047 1048 1050 1051
1205 13 1047 1048 1050 1052
1206 13 1049 1048 1050 1051
1207 13 1049 1048 1050 1052
1208 10 863 864 865 866
1209 11 863 864 865 866
1210 12 863 864 865 867
1211 8 865 864 863 869
1212 8 865 864 863 870
1213 8 865 864 863 871
1214 1 31 32 33 34
1215 2 31 32 33 34
1216 4 33 32 31 36
1217 5 33 32 31 36
1218 6 33 32 31 37
1219 7 33 32 31 37
1220 6 33 32 31 38
1221 7 33 32 31 38
1222 1 182 181 186 184
1223 2 182 181 186 184
1224 6 186 181 182 189
1225 7 186 181 182 189
1226 6 186 181 182 190
1227 7 186 181 182 190
1228 9 187 181 182 189
1229 9 187 181 182 190
1230 9 188 181 182 189
1231 9 188 181 182 190
1232 15 1043 1052 1050 1048
1233 3 1043 1052 1050 1051
1234 12 636 637 639 640
1235 10 638 637 639 640
1236 11 638 637 639 640
1237 8 865 867 868 872
1238 8 865 867 868 873
1239 8 865 867 868 874
1240 14 1041 1042 1043 1044
1241 14 1041 1042 1043 1047
1242 14 1041 1042 1043 1052
1243 15 1043 1042 1041 1045
1244 3 31 36 34 33
1245 3 31 36 34 35
1246 8 34 36 31 37
1247 8 34 36 31 38
1248 12 576 577 579 580
1249 10 578 577 579 580
1250 11 578 577 579 580
1251 3 1043 1044 1045 1046
1252 14 1045 1044 1043 1047
1253 14 1045 1044 1043 1052
1254 12 864 865 867 868
1255 10 866 865 867 868
1256 11 866 865 867 868
1257 3 1040 1041 1042 1043
1258 13 1040 1041 1045 1044
1259 13 1040 1041 1045 1046
1260 13 1042 1041 1045 1044
1261 13 1042 1041 1045 1046
1262 10 635 636 637 638
1263 11 635 636 637 638
1264 12 635 636 637 639
1265 8 637 636 635 641
1266 8 637 636 635 642
1267 8 637 636 635 643
1268 10 959 960 961 962
1269 11 959 960 961 962
1270 12 959 960 961 963
1271 8 961 960 959 965
1272 8 961 960 959 966
1273 8 961 960 959 967
1274 1 112 111 116 114
1275 2 112 111 116 114
1276 6 116 111 112 119
1277 7 116 111 112 119
1278 6 116 111 112 120
1279 7 116 111 112 120
1280 9 117 111 112 119
1281 9 117 111 112 120
1282 9 118 111 112 119
1283 9 118 111 112 120
1284 3 112 113 114 115
1285 3 112 113 114 116
1286 8 114 113 112 119
1287 8 114 113 112 120
1288 12 912 913 915 916
1289 10 914 913 915 916
1290 11 914 913 915 916
1291 8 913 915 916 920
1292 8 913 915 916 921
1293 8 913 915 916 922
1294 10 911 912 913 914
1295 11 911 912 913 914
1296 12 911 912 913 915
1297 8 913 912 911 917
1298 8 913 912 911 918
1299 8 913 912 911 919
1300 15 1002 1006 1005 1004
1301 3 1004 1005 1006 1007
1302 14 1006 1005 1004 1008
1303 14 1006 1005 1004 1013
1304 14 1003 1004 1005 1006
1305 14 1003 1004 1008 1009
1306 14 1003 1004 1013 1011
1307 14 1005 1004 1008 1009
1308 14 1005 1004 1013 1011
1309 14 1008 1004 1013 1011
1310 3 1004 1008 1009 1010
1311 15 1004 1008 1009 1011
1312 14 1009 1008 1004 1013
1313 14 1002 1003 1004 1005
1314 14 1002 1003 1004 1008
1315 14 1002 1003 1004 1013
1316 15 1004 1003 1002 1006
1317 15 1004 1013 1011 1009
1318 3 1004 1013 1011 1012
1319 15 1017 1026 1024 1022
1320 3 1017 1026 1024 1025
1321 12 408 409 411 412
1322 10 410 409 411 412
1323 11 410 409 411 412
1324 8 409 411 412 416
1325 8 409 411 412 417
1326 8 409 411 412 418
1327 10 407 408 409 410
1328 11 407 408 409 410
1329 12 407 408 409 411
1330 8 409 408 407 413
1331 8 409 408 407 414
1332 8 409 408 407 415
1333 3 1001 1002 1003 1004
1334 13 1001 1002 1006 1005
1335 13 1001 1002 1006 1007
1336 13 1003 1002 1006 1005
1337 13 1003 1002 1006 1007
1338 13 1008 1009 1011 1012
1339 13 1008 1009 1011 1013
1340 13 1010 1009 1011 1012
1341 13 1010 1009 1011 1013
1342 8 889 891 892 896
1343 8 889 891 892 897
1344 8 889 891 892 898
1345 12 888 889 891 892
1346 10 890 889 891 892
1347 11 890 889 891 892
1348 3 282 283 284 285
1349 3 282 283 284 286
1350 8 284 283 282 289
1351 8 284 283 282 290
1352 12 420 421 423 424
1353 10 422 421 423 424
1354 11 422 421 423 424
1355 10 887 888 889 890
1356 11 887 888 889 890
1357 12 887 888 889 891
1358 8 889 888 887 893
1359 8 889 888 887 894
1360 8 889 888 887 895
1361 3 102 103 104 105
1362 3 102 103 104 106
1363 8 104 103 102 109
1364 8 104 103 102 110
1365 13 1021 1022 1024 1025
1366 13 1021 1022 1024 1026
1367 13 1023 1022 1024 1025
1368 13 1023 1022 1024 1026
1369 3 101 106 104 103
1370 3 101 106 104 105
1371 8 104 106 101 107
1372 8 104 106 101 108
1373 1 282 281 286 284
1374 2 282 281 286 284
1375 6 286 281 282 289
1376 7 286 281 282 289
1377 6 286 281 282 290
1378 7 286 281 282 290
1379 9 287 281 282 289
1380 9 287 281 282 290
1381 9 288 281 282 289
1382 9 288 281 282 290
1383 1 101 102 103 104
1384 2 101 102 103 104
1385 4 103 102 101 106
1386 5 103 102 101 106
1387 6 103 102 101 107
1388 7 103 102 101 107
1389 6 103 102 101 108
1390 7 103 102 101 108
1391 1 281 282 283 284
1392 2 281 282 283 284
1393 4 283 282 281 286
1394 5 283 282 281 286
1395 6 283 282 281 287
1396 7 283 282 281 287
1397 6 283 282 281 288
1398 7 283 282 281 288
1399 1 272 271 276 274
1400 2 272 271 276 274
1401 6 276 271 272 279
1402 7 276 271 272 279
1403 6 276 271 272 280
1404 7 276 271 272 280
1405 9 277 271 272 279
1406 9 277 271 272 280
1407 9 278 271 272 279
1408 9 278 271 272 280
1409 14 1016 1017 1018 1019
1410 14 1016 1017 1021 1022
1411 14 1016 1017 1026 1024
1412 14 1018 1017 1021 1022
1413 14 1018 1017 1026 1024
1414 14 1021 1017 1026 1024
1415 3 1027 1028 1029 1030
1416 13 1027 1028 1032 1031
1417 13 1027 1028 1032 1033
1418 13 1029 1028 1032 1031
1419 13 1029 1028 1032 1033
1420 10 335 336 337 338
1421 11 335 336 337 338
1422 12 335 336 337 339
1423 8 337 336 335 341
1424 8 337 336 335 342
1425 8 337 336 335 343
1426 10 419 420 421 422
1427 11 419 420 421 422
1428 12 419 420 421 423
1429 8 421 420 419 425
1430 8 421 420 419 426
1431 8 421 420 419 427
1432 8 421 423 424 428
1433 8 421 423 424 429
1434 8 421 423 424 430
1435 1 102 101 106 104
1436 2 102 101 106 104
1437 6 106 101 102 109
1438 7 106 101 102 109
1439 6 106 101 102 110
1440 7 106 101 102 110
1441 9 107 101 102 109
1442 9 107 101 102 110
1443 9 108 101 102 109
1444 9 108 101 102 110
1445 1 172 171 176 174
1446 2 172 171 176 174
1447 6 176 171 172 179
1448 7 176 171 172 179
1449 6 176 171 172 180
1450 7 176 171 172 180
1451 9 177 171 172 179
1452 9 177 171 172 180
1453 9 178 171 172 179
1454 9 178 171 172 180
1455 1 171 172 173 174
1456 2 171 172 173 174
1457 4 173 172 171 176
1458 5 173 172 171 176
1459 6 173 172 171 177
1460 7 173 172 171 177
1461 6 173 172 171 178
1462 7 173 172 171 178
1463 3 51 56 54 53
1464 3 51 56 54 55
1465 8 54 56 51 57
1466 8 54 56 51 58
1467 8 613 615 616 620
1468 8 613 615 616 621
1469 8 613 615 616 622
1470 12 552 553 555 556
1471 10 554 553 555 556
1472 11 554 553 555 556
1473 12 480 481 483 484
1474 10 482 481 483 484
1475 11 482 481 483 484
1476 8 481 483 484 488
1477 8 481 483 484 489
1478 8 481 483 484 490
1479 3 1017 1021 1022 1023
1480 15 1017 1021 1022 1024
1481 14 1022 1021 1017 1026
1482 14 1015 1016 1017 1018
1483 14 1015 1016 1017 1021
1484 14 1015 1016 1017 1026
1485 15 1017 1016 1015 1019
1486 8 649 651 652 656
1487 8 649 651 652 657
1488 8 649 651 652 658
1489 10 647 648 649 650
1490 11 647 648 649 650
1491 12 647 648 649 651
1492 8 649 648 647 653
1493 8 649 648 647 654
1494 8 649 648 647 655
1495 12 648 649 651 652
1496 10 650 649 651 652
1497 11 650 649 651 652
1498 3 1014 1015 1016 1017
1499 13 1014 1015 1019 1018
1500 13 1014 1015 1019 1020
1501 13 1016 1015 1019 1018
1502 13 1016 1015 1019 1020
1503 12 396 397 399 400
1504 10 398 397 399 400
1505 11 398 397 399 400
1506 8 553 555 556 560
1507 8 553 555 556 561
1508 8 553 555 556 562
1509 10 395 396 397 398
1510 11 395 396 397 398
1511 12 395 396 397 399
1512 8 397 396 395 401
1513 8 397 396 395 402
1514 8 397 396 395 403
1515 8 397 399 400 404
1516 8 397 399 400 405
1517 8 397 399 400 406
1518 8 901 903 904 908
1519 8 901 903 904 909
1520 8 901 903 904 910
1521 10 551 552 553 554
1522 11 551 552 553 554
1523 12 551 552 553 555
1524 8 553 552 551 557
1525 8 553 552 551 558
1526 8 553 552 551 559
1527 8 373 375 376 380
1528 8 373 375 376 381
1529 8 373 375 376 382
1530 10 479 480 481 482
1531 11 479 480 481 482
1532 12 479 480 481 483
1533 8 481 480 479 485
1534 8 481 480 479 486
1535 8 481 480 479 487
1536 3 271 276 274 273
1537 3 271 276 274 275
1538 8 274 276 271 277
1539 8 274 276 271 278
1540 3 171 176 174 173
1541 3 171 176 174 175
1542 8 174 176 171 177
1543 8 174 176 171 178
1544 12 336 337 339 340
1545 10 338 337 339 340
1546 11 338 337 339 340
1547 8 805 807 808 812
1548 8 805 807 808 813
1549 8 805 807 808 814
1550 8 541 543 544 548
1551 8 541 543 544 549
1552 8 541 543 544 550
1553 1 181 182 183 184
1554 2 181 182 183 184
1555 4 183 182 181 186
1556 5 183 182 181 186
1557 6 183 182 181 187
1558 7 183 182 181 187
1559 6 183 182 181 188
1560 7 183 182 181 188
1561 3 182 183 184 185
1562 3 182 183 184 186
1563 8 184 183 182 189
1564 8 184 183 182 190
1565 12 828 829 831 832
1566 10 830 829 831 832
1567 11 830 829 831 832
1568 8 949 951 952 956
1569 8 949 951 952 957
1570 8 949 951 952 958
1571 8 325 327 328 332
1572 8 325 327 328 333
1573 8 325 327 328 334
1574 8 829 831 832 836
1575 8 829 831 832 837
1576 8 829 831 832 838
1577 1 92 91 96 94
1578 2 92 91 96 94
1579 6 96 91 92 99
1580 7 96 91 92 99
1581 6 96 91 92 100
1582 7 96 91 92 100
1583 9 97 91 92 99
1584 9 97 91 92 100
1585 9 98 91 92 99
1586 9 98 91 92 100
1587 10 323 324 325 326
1588 11 323 324 325 326
1589 12 323 324 325 327
1590 8 325 324 323 329
1591 8 325 324 323 330
1592 8 325 324 323 331
1593 3 91 96 94 93
1594 3 91 96 94 95
1595 8 94 96 91 97
1596 8 94 96 91 98
1597 12 900 901 903 904
1598 10 902 901 903 904
1599 11 902 901 903 904
1600 10 899 900 901 902
1601 11 899 900 901 902
1602 12 899 900 901 903
1603 8 901 900 899 905
1604 8 901 900 899 906
1605 8 901 900 899 907
1606 10 503 504 505 506
1607 11 503 504 505 506
1608 12 503 504 505 507
1609 8 505 504 503 509
1610 8 505 504 503 510
1611 8 505 504 503 511
1612 12 804 805 807 808
1613 10 806 805 807 808
1614 11 806 805 807 808
1615 3 92 93 94 95
1616 3 92 93 94 96
1617 8 94 93 92 99
1618 8 94 93 92 100
1619 10 827 828 829 830
1620 11 827 828 829 830
1621 12 827 828 829 831
1622 8 829 828 827 833
1623 8 829 828 827 834
1624 8 829 828 827 835
1625 8 781 783 784 788
1626 8 781 783 784 789
1627 8 781 783 784 790
1628 12 504 505 507 508
1629 10 506 505 507 508
1630 11 506 505 507 508
1631 12 324 325 327 328
1632 10 326 325 327 328
1633 11 326 325 327 328
1634 1 91 92 93 94
1635 2 91 92 93 94
1636 4 93 92 91 96
1637 5 93 92 91 96
1638 6 93 92 91 97
1639 7 93 92 91 97
1640 6 93 92 91 98
1641 7 93 92 91 98
1642 8 337 339 340 344
1643 8 337 339 340 345
1644 8 337 339 340 346
1645 8 505 507 508 512
1646 8 505 507 508 513
1647 8 505 507 508 514
1648 8 757 759 760 764
1649 8 757 759 760 765
1650 8 757 759 760 766
1651 1 241 242 243 244
1652 2 241 242 243 244
1653 4 243 242 241 246
1654 5 243 242 241 246
1655 6 243 242 241 247
1656 7 243 242 241 247
1657 6 243 242 241 248
1658 7 243 242 241 248

Impropers

1 1 84 83 85 86
2 1 84 85 86 83
3 1 84 86 83 85
4 1 433 435 432 434
5 1 433 434 435 432
6 1 385 387 384 386
7 1 385 384 386 387
8 1 457 459 456 458
9 1 685 686 687 684
10 1 685 687 684 686
11 1 685 684 686 687
12 1 457 456 458 459
13 1 817 819 816 818
14 1 457 458 459 456
15 1 134 135 136 133
16 1 349 350 351 348
17 1 1067 1068 1071 1066
18 1 1071 1067 1070 1072
19 1 385 386 387 384
20 1 349 348 350 351
21 1 1074 1073 1075 1076
22 1 817 816 818 819
23 1 1074 1075 1076 1073
24 1 817 818 819 816
25 1 1076 1074 1077 1078
26 1 313 314 315 312
27 1 973 974 975 972
28 1 134 136 133 135
29 1 1067 1066 1068 1071
30 1 1063 1065 1061 1064
31 1 304 305 306 303
32 1 565 564 566 567
33 1 64 63 65 66
34 1 937 936 938 939
35 1 937 938 939 936
36 1 721 722 723 720
37 1 721 723 720 722
38 1 721 720 722 723
39 1 14 15 16 13
40 1 14 13 15 16
41 1 937 939 936 938
42 1 64 65 66 63
43 1 565 567 564 566
44 1 565 566 567 564
45 1 304 306 303 305
46 1 14 16 13 15
47 1 973 975 972 974
48 1 64 66 63 65
49 1 349 351 348 350
50 1 877 879 876 878
51 1 877 878 879 876
52 1 44 45 46 43
53 1 1063 1064 1065 1061
54 1 74 76 73 75
55 1 74 75 76 73
56 1 697 699 696 698
57 1 1058 1057 1059 1054
58 1 44 43 45 46
59 1 1061 1063 1060 1062
60 1 1032 1031 1033 1028
61 1 577 576 578 579
62 1 877 876 878 879
63 1 841 843 840 842
64 1 577 579 576 578
65 1 841 840 842 843
66 1 44 46 43 45
67 1 925 926 927 924
68 1 114 116 113 115
69 1 124 123 125 126
70 1 1035 1037 1034 1036
71 1 745 746 747 744
72 1 114 115 116 113
73 1 589 588 590 591
74 1 589 591 588 590
75 1 841 842 843 840
76 1 124 125 126 123
77 1 925 927 924 926
78 1 34 35 36 33
79 1 925 924 926 927
80 1 1061 1062 1063 1060
81 1 124 126 123 125
82 1 1063 1061 1064 1065
83 1 589 590 591 588
84 1 1037 1039 1035 1038
85 1 1037 1038 1039 1035
86 1 517 516 518 519
87 1 697 698 699 696
88 1 1076 1077 1078 1074
89 1 224 226 223 225
90 1 224 223 225 226
91 1 224 225 226 223
92 1 1076 1078 1074 1077
93 1 144 146 143 145
94 1 1071 1070 1072 1067
95 1 144 143 145 146
96 1 1074 1076 1073 1075
97 1 853 852 854 855
98 1 625 624 626 627
99 1 625 626 627 624
100 1 661 663 660 662
101 1 294 293 295 296
102 1 853 854 855 852
103 1 294 295 296 293
104 1 294 296 293 295
105 1 234 235 236 233
106 1 234 236 233 235
107 1 853 855 852 854
108 1 144 145 146 143
109 1 1067 1071 1066 1068
110 1 661 662 663 660
111 1 284 285 286 283
112 1 661 660 662 663
113 1 134 133 135 136
114 1 284 286 283 285
115 1 313 312 314 315
116 1 194 193 195 196
117 1 625 627 624 626
118 1 234 233 235 236
119 1 1061 1060 1062 1063
120 1 1019 1020 1015 1018
121 1 1071 1072 1067 1070
122 1 373 372 374 375
123 1 1019 1018 1020 1015
124 1 244 245 246 243
125 1 54 53 55 56
126 1 244 246 243 245
127 1 4 5 6 3
128 1 4 6 3 5
129 1 4 3 5 6
130 1 469 468 470 471
131 1 1054 1055 1058 1053
132 1 1054 1053 1055 1058
133 1 1058 1054 1057 1059
134 1 164 166 163 165
135 1 164 165 166 163
136 1 164 163 165 166
137 1 1054 1058 1053 1055
138 1 469 470 471 468
139 1 469 471 468 470
140 1 1058 1059 1054 1057
141 1 709 710 711 708
142 1 244 243 245 246
143 1 709 711 708 710
144 1 709 708 710 711
145 1 481 482 483 480
146 1 757 758 759 756
147 1 805 804 806 807
148 1 74 73 75 76
149 1 24 26 23 25
150 1 973 972 974 975
151 1 757 756 758 759
152 1 313 315 312 314
153 1 1002 1001 1003 1006
154 1 24 25 26 23
155 1 745 747 744 746
156 1 445 446 447 444
157 1 264 266 263 265
158 1 445 447 444 446
159 1 745 744 746 747
160 1 541 542 543 540
161 1 949 950 951 948
162 1 24 23 25 26
163 1 264 265 266 263
164 1 445 444 446 447
165 1 194 196 193 195
166 1 264 263 265 266
167 1 949 948 950 951
168 1 541 540 542 543
169 1 1015 1019 1014 1016
170 1 493 495 492 494
171 1 493 494 495 492
172 1 493 492 494 495
173 1 529 528 530 531
174 1 154 156 153 155
175 1 154 153 155 156
176 1 697 696 698 699
177 1 529 530 531 528
178 1 781 780 782 783
179 1 733 735 732 734
180 1 985 987 984 986
181 1 733 732 734 735
182 1 1050 1051 1052 1048
183 1 433 432 434 435
184 1 529 531 528 530
185 1 361 360 362 363
186 1 154 155 156 153
187 1 274 275 276 273
188 1 274 273 275 276
189 1 985 986 987 984
190 1 204 203 205 206
191 1 214 216 213 215
192 1 214 213 215 216
193 1 174 173 175 176
194 1 781 782 783 780
195 1 34 33 35 36
196 1 361 362 363 360
197 1 1028 1032 1027 1029
198 1 1041 1045 1040 1042
199 1 601 602 603 600
200 1 304 303 305 306
201 1 769 771 768 770
202 1 361 363 360 362
203 1 793 795 792 794
204 1 793 792 794 795
205 1 1035 1034 1036 1037
206 1 601 600 602 603
207 1 793 794 795 792
208 1 985 984 986 987
209 1 769 768 770 771
210 1 254 256 253 255
211 1 254 253 255 256
212 1 254 255 256 253
213 1 673 674 675 672
214 1 673 672 674 675
215 1 673 675 672 674
216 1 204 205 206 203
217 1 769 770 771 768
218 1 613 612 614 615
219 1 613 614 615 612
220 1 961 962 963 960
221 1 174 175 176 173
222 1 204 206 203 205
223 1 1028 1029 1032 1027
224 1 1041 1040 1042 1045
225 1 865 866 867 864
226 1 601 603 600 602
227 1 637 638 639 636
228 1 517 519 516 518
229 1 1037 1035 1038 1039
230 1 1048 1047 1049 1050
231 1 1045 1046 1041 1044
232 1 637 639 636 638
233 1 1048 1049 1050 1047
234 1 184 186 183 185
235 1 961 963 960 962
236 1 214 215 216 213
237 1 1050 1048 1051 1052
238 1 865 864 866 867
239 1 1035 1036 1037 1034
240 1 733 734 735 732
241 1 1050 1052 1048 1051
242 1 1048 1050 1047 1049
243 1 517 518 519 516
244 1 865 867 864 866
245 1 577 578 579 576
246 1 1041 1042 1045 1040
247 1 34 36 33 35
248 1 1045 1044 1046 1041
249 1 1045 1041 1044 1046
250 1 637 636 638 639
251 1 961 960 962 963
252 1 114 113 115 116
253 1 913 914 915 912
254 1 913 915 912 914
255 1 1024 1025 1026 1022
256 1 913 912 914 915
257 1 1006 1007 1002 1005
258 1 1002 1006 1001 1003
259 1 1006 1005 1007 1002
260 1 1009 1008 1010 1011
261 1 1002 1003 1006 1001
262 1 1011 1013 1009 1012
263 1 1022 1024 1021 1023
264 1 1024 1026 1022 1025
265 1 409 410 411 408
266 1 409 411 408 410
267 1 409 408 410 411
268 1 104 105 106 103
269 1 1006 1002 1005 1007
270 1 889 890 891 888
271 1 1011 1009 1012 1013
272 1 889 891 888 890
273 1 1009 1011 1008 1010
274 1 1011 1012 1013 1009
275 1 284 283 285 286
276 1 889 888 890 891
277 1 421 422 423 420
278 1 104 103 105 106
279 1 1024 1022 1025 1026
280 1 104 106 103 105
281 1 1009 1010 1011 1008
282 1 1022 1023 1024 1021
283 1 1032 1028 1031 1033
284 1 337 336 338 339
285 1 421 420 422 423
286 1 421 423 420 422
287 1 1015 1014 1016 1019
288 1 54 56 53 55
289 1 613 615 612 614
290 1 481 483 480 482
291 1 397 398 399 396
292 1 1022 1021 1023 1024
293 1 1015 1016 1019 1014
294 1 649 651 648 650
295 1 649 650 651 648
296 1 649 648 650 651
297 1 1019 1015 1018 1020
298 1 553 555 552 554
299 1 397 396 398 399
300 1 397 399 396 398
301 1 1028 1027 1029 1032
302 1 901 902 903 900
303 1 901 903 900 902
304 1 553 554 555 552
305 1 553 552 554 555
306 1 94 95 96 93
307 1 373 375 372 374
308 1 337 338 339 336
309 1 54 55 56 53
310 1 481 480 482 483
311 1 274 276 273 275
312 1 174 176 173 175
313 1 805 807 804 806
314 1 184 185 186 183
315 1 541 543 540 542
316 1 184 183 185 186
317 1 805 806 807 804
318 1 949 951 948 950
319 1 325 327 324 326
320 1 829 831 828 830
321 1 325 324 326 327
322 1 94 96 93 95
323 1 325 326 327 324
324 1 901 900 902 903
325 1 505 504 506 507
326 1 94 93 95 96
327 1 829 828 830 831
328 1 781 783 780 782
329 1 194 195 196 193
330 1 829 830 831 828
331 1 505 506 507 504
332 1 337 339 336 338
333 1 505 507 504 506
334 1 373 374 375 372
335 1 757 759 756 758
336 1 1032 1033 1028 1031
