LAMMPS (22 Jul 2025 - Update 4)
# Restart continuation NPT chunk for composition tag=ec_dmc_3_7_libob_0p8m_298K
# Generated by scripts/curate_ff_md_data.py

read_restart    ${input_restart}
read_restart    ec_dmc_3_7_libob_0p8m_298K.npt.2.restart
Reading restart file ...
  restart file = 22 Jul 2025, LAMMPS = 22 Jul 2025
  restoring atom style full from restart
  orthogonal box = (-0.29929276 -0.30229276 -0.35329277) to (23.521505 23.518505 23.467505)
  1 by 1 by 1 MPI processor grid
  restoring pair style lj/cut/coul/long from restart
  restoring bond style harmonic from restart
  restoring angle style harmonic from restart
  restoring dihedral style opls from restart
  restoring improper style cvff from restart
  1078 atoms
  1021 bonds
  1628 angles
  1658 dihedrals
  336 impropers
Finding 1-2 1-3 1-4 neighbors ...
  special bond factors lj:    0        0        0.5     
  special bond factors coul:  0        0        0.5     
     4 = max # of 1-2 neighbors
     5 = max # of 1-3 neighbors
    12 = max # of 1-4 neighbors
    12 = max # of special neighbors
  special bonds CPU = 0.002 seconds
  read_restart CPU = 0.007 seconds
kspace_style    pppm 1.0e-4
neighbor        2.0 bin
neigh_modify    every 1 delay 0 check yes
timestep        1.0

thermo_style    custom step time temp press vol density pe ke etotal
thermo          100
variable        tracked_temperature_K equal temp
variable        tracked_density_g_cm3 equal density
variable        tracked_volume_A3 equal vol
variable        tracked_pressure_atm equal press
fix             NPT_EQ all npt temp 298.15 298.15 100.0 iso 1.0 1.0 1000.0
fix             NPT_TRACE all ave/time 100 1 100 v_tracked_temperature_K v_tracked_density_g_cm3 v_tracked_volume_A3 v_tracked_pressure_atm file ${thermo_trace}
fix             NPT_TRACE all ave/time 100 1 100 v_tracked_temperature_K v_tracked_density_g_cm3 v_tracked_volume_A3 v_tracked_pressure_atm file npt_thermo.3.dat
run             5000
PPPM initialization ...
  using 12-bit tables for long-range coulomb
  G vector (1/distance) = 0.21036967
  grid = 9 9 9
  stencil order = 5
  estimated absolute RMS force accuracy = 0.018632451
  estimated relative force accuracy = 5.6111072e-05
  using double precision FFTW3
  3d grid and FFT values/proc = 2744 729
Generated 21 of 21 mixed pair_coeff terms from arithmetic mixing rule
Neighbor list info ...
  update: every = 1 steps, delay = 0 steps, check = yes
  max neighbors/atom: 2000, page size: 100000
  master list distance cutoff = 14
  ghost atom cutoff = 14
  binsize = 7, bins = 4 4 4
  1 neighbor lists, perpetual/occasional/extra = 1 0 0
  (1) pair lj/cut/coul/long, perpetual
      attributes: half, newton on
      pair build: half/bin/newton
      stencil: half/bin/3d
      bin: standard
Per MPI rank memory allocation (min/avg/max) = 15.35 | 15.35 | 15.35 Mbytes
   Step          Time           Temp          Press          Volume        Density         PotEng         KinEng         TotEng    
     10447   10447          305.35513      1818.3255      13516.645      1.1089978      1016.6189      980.29148      1996.9103    
     10500   10500          302.31352     -769.44048      13521.178      1.108626       1016.0913      970.52688      1986.6182    
     10600   10600          296.06849      207.01055      13494.137      1.1108476      984.78453      950.47827      1935.2628    
     10700   10700          294.37558     -1407.6799      13490.242      1.1111683      976.87294      945.04346      1921.9164    
     10800   10800          306.97232     -1226.4485      13465.338      1.1132234      936.37816      985.48321      1921.8614    
     10900   10900          299.62268     -450.41869      13418.464      1.1171122      971.97264      961.88842      1933.8611    
     11000   11000          305.87628     -603.79968      13398.358      1.1187886      998.48747      981.96453      1980.452     
     11100   11100          304.52504     -850.33247      13364.191      1.1216489      1047.8327      977.62661      2025.4593    
     11200   11200          307.0725       52.739049      13390.583      1.1194382      1006.0782      985.80481      1991.883     
     11300   11300          295.10201      258.24068      13418.454      1.117113       979.52764      947.37555      1926.9032    
     11400   11400          283.34933     -154.17904      13460.38       1.1136335      1008.9332      909.64555      1918.5787    
     11500   11500          288.44102     -960.22056      13551.461      1.1061486      1013.3602      925.99155      1939.3517    
     11600   11600          300.51445     -1421.6184      13647.764      1.0983433      1013.1865      964.75127      1977.9377    
     11700   11700          303.64246     -2282.7583      13703.288      1.0938929      1018.9273      974.79322      1993.7205    
     11800   11800          294.1825      -1488.682       13632.915      1.0995396      1003.2825      944.4236       1947.7061    
     11900   11900          291.15567      533.69467      13448.791      1.1145931      968.87543      934.70649      1903.5819    
     12000   12000          293.90607      1438.6881      13226.189      1.1333521      979.78561      943.53619      1923.3218    
     12100   12100          309.77458      1185.9226      13076.829      1.146297       936.09247      994.47938      1930.5719    
     12200   12200          291.40392     -1300.0829      13014.758      1.151764       929.21819      935.50347      1864.7217    
     12300   12300          286.03625     -212.17203      12975.569      1.1552425      929.74057      918.27144      1848.012     
     12400   12400          290.39344     -1615.6104      13022.632      1.1510676      951.85754      932.25947      1884.117     
     12500   12500          300.91493     -971.51549      13117.38       1.1427533      944.16774      966.03694      1910.2047    
     12600   12600          298.81992      1259.0101      13193.008      1.1362026      965.11434      959.31129      1924.4256    
     12700   12700          305.55063      1540.2642      13255.955      1.1308072      984.53324      980.91909      1965.4523    
     12800   12800          317.19215      916.58557      13295.709      1.1274261      998.86419      1018.2922      2017.1564    
     12900   12900          315.21511     -1266.1139      13347.967      1.1230122      980.83264      1011.9453      1992.7779    
     13000   13000          293.99402      405.79782      13423.232      1.1167154      999.94388      943.81855      1943.7624    
     13100   13100          292.11499     -303.76677      13490.019      1.1111867      982.3113       937.78622      1920.0975    
     13200   13200          283.98516     -42.995455      13492.357      1.1109942      1000.2801      911.68675      1911.9669    
     13300   13300          292.92888      1290.0939      13383.013      1.1200713      981.71419      940.39909      1922.1133    
     13400   13400          307.6769       594.56612      13292.849      1.1276687      997.25881      987.74512      1985.0039    
     13500   13500          312.00642      991.11589      13284.298      1.1283946      985.17243      1001.6443      1986.8167    
     13600   13600          309.28637      1190.0861      13340.34       1.1236543      944.70428      992.91207      1937.6163    
     13700   13700          294.85893     -460.42991      13425.448      1.1165311      982.27601      946.59517      1928.8712    
     13800   13800          299.37225     -1705.3582      13376.785      1.1205929      965.9179       961.08444      1927.0023    
     13900   13900          301.16406     -482.86304      13264.669      1.1300644      954.96527      966.83673      1921.802     
     14000   14000          300.34065     -593.50376      13172.167      1.1380003      937.80189      964.19332      1901.9952    
     14100   14100          285.72321      433.21233      13084.312      1.1456414      945.71586      917.26649      1862.9824    
     14200   14200          295.9172       624.20672      13012.238      1.151987       910.86098      949.9926       1860.8536    
     14300   14300          307.17007      1575.1348      12971.653      1.1555913      923.56628      986.11804      1909.6843    
     14400   14400          306.54784      1171.6076      12992.882      1.1537032      944.69117      984.12048      1928.8117    
     14500   14500          304.06292      29.746075      13069.972      1.1468984      923.87494      976.14304      1900.018     
     14600   14600          292.50881     -1386.1159      13167.284      1.1384223      950.00913      939.05051      1889.0596    
     14700   14700          290.49838     -758.27488      13225.458      1.1334148      962.37109      932.59637      1894.9675    
     14800   14800          306.95416      281.7303       13242.862      1.1319253      924.19779      985.42488      1909.6227    
     14900   14900          299.51632     -1058.7619      13311.059      1.126126       986.07147      961.54696      1947.6184    
     15000   15000          309.08106      478.68249      13375.139      1.1207307      1001.9934      992.25294      1994.2464    
     15100   15100          308.972        42.824023      13398.558      1.1187719      1005.7568      991.90283      1997.6596    
     15200   15200          291.81823      2469.3192      13319.214      1.1254365      981.82431      936.83352      1918.6578    
     15300   15300          293.58051      189.8895       13226.636      1.1333138      963.06433      942.49102      1905.5553    
     15400   15400          295.04036      1059.9376      13110.641      1.1433407      961.52211      947.17763      1908.6997    
     15447   15447          301.44668      1422.2815      13054.628      1.1482464      943.32431      967.74405      1911.0684    
Loop time of 79.9466 on 1 procs for 5000 steps with 1078 atoms

Performance: 5.404 ns/day, 4.441 hours/ns, 62.542 timesteps/s, 67.420 katom-step/s
89.4% CPU use with 1 MPI tasks x no OpenMP threads

MPI task timing breakdown:
Section |  min time  |  avg time  |  max time  |%varavg| %total
---------------------------------------------------------------
Pair    | 68.792     | 68.792     | 68.792     |   0.0 | 86.05
Bond    | 3.2588     | 3.2588     | 3.2588     |   0.0 |  4.08
Kspace  | 3.1632     | 3.1632     | 3.1632     |   0.0 |  3.96
Neigh   | 3.1377     | 3.1377     | 3.1377     |   0.0 |  3.92
Comm    | 0.39041    | 0.39041    | 0.39041    |   0.0 |  0.49
Output  | 0.0036571  | 0.0036571  | 0.0036571  |   0.0 |  0.00
Modify  | 1.0798     | 1.0798     | 1.0798     |   0.0 |  1.35
Other   |            | 0.1206     |            |       |  0.15

Nlocal:           1078 ave        1078 max        1078 min
Histogram: 1 0 0 0 0 0 0 0 0 0
Nghost:          10108 ave       10108 max       10108 min
Histogram: 1 0 0 0 0 0 0 0 0 0
Neighs:         511173 ave      511173 max      511173 min
Histogram: 1 0 0 0 0 0 0 0 0 0

Total # of neighbors = 511173
Ave neighs/atom = 474.18646
Ave special neighs/atom = 6.9777365
Neighbor list builds = 116
Dangerous builds = 0
unfix           NPT_TRACE
unfix           NPT_EQ
write_restart   ${output_restart}
write_restart   ec_dmc_3_7_libob_0p8m_298K.npt.3.restart
System init for write_restart ...
PPPM initialization ...
  using 12-bit tables for long-range coulomb
  G vector (1/distance) = 0.21121807
  grid = 9 9 9
  stencil order = 5
  estimated absolute RMS force accuracy = 0.018007362
  estimated relative force accuracy = 5.4228635e-05
  using double precision FFTW3
  3d grid and FFT values/proc = 2744 729
Generated 21 of 21 mixed pair_coeff terms from arithmetic mixing rule
Total wall time: 0:01:20
