LAMMPS (22 Jul 2025 - Update 4)
# Restart continuation NPT chunk for composition tag=ec_dmc_3_7_libob_0p8m_298K
# Generated by scripts/curate_ff_md_data.py

read_restart    ${input_restart}
read_restart    ec_dmc_3_7_libob_0p8m_298K.npt.6.restart
Reading restart file ...
  restart file = 22 Jul 2025, LAMMPS = 22 Jul 2025
  restoring atom style full from restart
  orthogonal box = (-0.11594057 -0.11894058 -0.16994058) to (23.338153 23.335153 23.284153)
  1 by 2 by 2 MPI processor grid
  restoring pair style lj/cut/coul/long from restart
  restoring bond style harmonic from restart
  restoring angle style harmonic from restart
  restoring dihedral style opls from restart
  restoring improper style cvff from restart
  1078 atoms
  1021 bonds
  1628 angles
  1658 dihedrals
  336 impropers
Finding 1-2 1-3 1-4 neighbors ...
  special bond factors lj:    0        0        0.5     
  special bond factors coul:  0        0        0.5     
     4 = max # of 1-2 neighbors
     5 = max # of 1-3 neighbors
    12 = max # of 1-4 neighbors
    12 = max # of special neighbors
  special bonds CPU = 0.002 seconds
  read_restart CPU = 0.013 seconds
kspace_style    pppm 1.0e-4
neighbor        2.0 bin
neigh_modify    every 1 delay 0 check yes
timestep        1.0

thermo_style    custom step time temp press vol density pe ke etotal
thermo          100
variable        tracked_temperature_K equal temp
variable        tracked_density_g_cm3 equal density
variable        tracked_volume_A3 equal vol
variable        tracked_pressure_atm equal press
fix             NPT_EQ all npt temp 298.15 298.15 100.0 iso 1.0 1.0 1000.0
fix             NPT_TRACE all ave/time 100 1 100 v_tracked_temperature_K v_tracked_density_g_cm3 v_tracked_volume_A3 v_tracked_pressure_atm file ${thermo_trace}
fix             NPT_TRACE all ave/time 100 1 100 v_tracked_temperature_K v_tracked_density_g_cm3 v_tracked_volume_A3 v_tracked_pressure_atm file npt_thermo.7.dat
run             5000
PPPM initialization ...
  using 12-bit tables for long-range coulomb
  G vector (1/distance) = 0.21150446
  grid = 9 9 9
  stencil order = 5
  estimated absolute RMS force accuracy = 0.017800483
  estimated relative force accuracy = 5.3605626e-05
  using double precision FFTW3
  3d grid and FFT values/proc = 1400 225
Generated 21 of 21 mixed pair_coeff terms from arithmetic mixing rule
Neighbor list info ...
  update: every = 1 steps, delay = 0 steps, check = yes
  max neighbors/atom: 2000, page size: 100000
  master list distance cutoff = 14
  ghost atom cutoff = 14
  binsize = 7, bins = 4 4 4
  1 neighbor lists, perpetual/occasional/extra = 1 0 0
  (1) pair lj/cut/coul/long, perpetual
      attributes: half, newton on
      pair build: half/bin/newton
      stencil: half/bin/3d
      bin: standard
Per MPI rank memory allocation (min/avg/max) = 13.45 | 13.46 | 13.46 Mbytes
   Step          Time           Temp          Press          Volume        Density         PotEng         KinEng         TotEng    
     30447   30447          306.32496      2858.5084      12901.968      1.1618328      895.75223      983.40494      1879.1572    
     30500   30500          303.34194      733.5607       12900.08       1.1620029      909.06958      973.82848      1882.8981    
     30600   30600          306.75987      332.81844      12851.625      1.166384       922.72112      984.80116      1907.5223    
     30700   30700          309.46436      209.08924      12747.294      1.1759303      934.72088      993.48346      1928.2043    
     30800   30800          303.55573     -2328.8218      12627.889      1.1870495      916.43357      974.51481      1890.9484    
     30900   30900          292.18206     -1239.5662      12586.166      1.1909846      901.71272      938.00156      1839.7143    
     31000   31000          298.1547       516.59098      12591.142      1.1905139      876.61415      957.17571      1833.7899    
     31100   31100          301.13204      3504.9419      12663.662      1.1836963      896.92981      966.73396      1863.6638    
     31200   31200          297.69552      343.09631      12712.4        1.1791581      958.3783       955.70157      1914.0799    
     31300   31300          295.31472      623.84035      12733.266      1.1772259      969.68598      948.05843      1917.7444    
     31400   31400          296.70797     -1451.637       12807.247      1.1704256      952.15922      952.53122      1904.6904    
     31500   31500          298.23796     -1738.7388      12875.137      1.164254       923.90904      957.44299      1881.352     
     31600   31600          288.92195     -927.46829      12901.321      1.161891       934.011        927.53551      1861.5465    
     31700   31700          288.06765      1682.8703      12890.604      1.162857       916.28032      924.79292      1841.0732    
     31800   31800          302.00919      1658.0978      12895.709      1.1623967      896.44192      969.5499       1865.9918    
     31900   31900          298.58242      131.97301      12867.317      1.1649615      949.96101      958.54883      1908.5098    
     32000   32000          302.83039     -1530.4419      12811.788      1.1700107      928.05582      972.18622      1900.242     
     32100   32100          301.63454     -2302.9188      12790.234      1.1719825      897.70529      968.34715      1866.0524    
     32200   32200          293.00829      302.41441      12764.817      1.174316       883.02687      940.65403      1823.6809    
     32300   32300          295.49935     -736.24672      12738.722      1.1767217      876.12919      948.65115      1824.7803    
     32400   32400          306.24889      2423.9167      12688.187      1.1814084      904.81849      983.16075      1887.9792    
     32500   32500          299.02514      1773.3301      12699.372      1.1803678      962.29128      959.9701       1922.2614    
     32600   32600          306.8604      -1141.7541      12762.168      1.1745598      907.70404      985.1239       1892.8279    
     32700   32700          295.45603     -1602.596       12771.412      1.1737097      899.06491      948.51207      1847.577     
     32800   32800          288.3117      -3298.8343      12749.095      1.1757642      913.20641      925.5764       1838.7828    
     32900   32900          291.91575     -1837.319       12701.09       1.1802081      929.01739      937.14659      1866.164     
     33000   33000          316.05957      689.4204       12627.233      1.1871112      904.31783      1014.6563      1918.9741    
     33100   33100          297.3685       2014.6271      12543.511      1.1950346      952.67436      954.65175      1907.3261    
     33200   33200          308.19033     -850.90924      12547.988      1.1946082      894.86883      989.39339      1884.2622    
     33300   33300          295.23279      590.72475      12591.731      1.1904582      902.95998      947.79541      1850.7554    
     33400   33400          302.51531      562.48466      12694.136      1.1808547      876.94712      971.17471      1848.1218    
     33500   33500          292.27689      821.68424      12787.832      1.1722026      924.0997       938.30598      1862.4057    
     33600   33600          300.29292     -888.93885      12777.679      1.173134       918.73963      964.04011      1882.7797    
     33700   33700          318.15958      406.64157      12662.907      1.1837668      904.72911      1021.398       1926.1271    
     33800   33800          312.66797     -1698.0245      12565.601      1.1929337      964.83381      1003.7681      1968.6019    
     33900   33900          304.75881      1669.7872      12529.226      1.1963971      934.53744      978.37708      1912.9145    
     34000   34000          297.23115      950.46546      12620.32       1.1877615      923.02293      954.21079      1877.2337    
     34100   34100          296.36175     -148.86297      12821.831      1.1690943      903.6814       951.41972      1855.1011    
     34200   34200          297.66592     -2432.5857      12951.183      1.1574178      883.50851      955.60654      1839.1151    
     34300   34300          301.56501     -505.45537      12918.762      1.1603225      893.18795      968.12393      1861.3119    
     34400   34400          299.68694      2419.6679      12790.54       1.1719544      962.49452      962.09469      1924.5892    
     34500   34500          304.85047     -1408.1643      12695.666      1.1807124      943.87579      978.67134      1922.5471    
     34600   34600          304.97524     -3318.3019      12661.033      1.183942       902.19473      979.0719       1881.2666    
     34700   34700          298.54377      513.42055      12647.932      1.1851684      886.72724      958.42476      1845.152     
     34800   34800          296.1411       3690.5703      12660.863      1.1839579      887.87332      950.71138      1838.5847    
     34900   34900          298.71125     -264.94601      12707.676      1.1795964      902.24735      958.96241      1861.2098    
     35000   35000          295.38491      1850.902       12700.515      1.1802616      957.82699      948.28376      1906.1108    
     35100   35100          307.65338     -2041.7018      12662.66       1.1837899      964.64882      987.66962      1952.3184    
     35200   35200          311.56107     -480.71745      12620.515      1.1877431      932.30382      1000.2146      1932.5184    
     35300   35300          296.26272     -3048.9279      12602.356      1.1894545      947.40517      951.10182      1898.507     
     35400   35400          298.10297     -131.11847      12624.683      1.187351       905.40839      957.00964      1862.418     
     35447   35447          290.91728      3340.9669      12642.04       1.1857208      916.35695      933.94117      1850.2981    
Loop time of 32.1134 on 4 procs for 5000 steps with 1078 atoms

Performance: 13.452 ns/day, 1.784 hours/ns, 155.698 timesteps/s, 167.843 katom-step/s
83.2% CPU use with 4 MPI tasks x no OpenMP threads

MPI task timing breakdown:
Section |  min time  |  avg time  |  max time  |%varavg| %total
---------------------------------------------------------------
Pair    | 18.008     | 19.844     | 21.21      |  30.9 | 61.79
Bond    | 0.89976    | 0.95263    | 1.0384     |   5.3 |  2.97
Kspace  | 6.8854     | 8.2735     | 10.168     |  49.3 | 25.76
Neigh   | 0.80852    | 0.81095    | 0.81229    |   0.2 |  2.53
Comm    | 1.339      | 1.3488     | 1.3583     |   0.7 |  4.20
Output  | 0.013203   | 0.014254   | 0.014642   |   0.5 |  0.04
Modify  | 0.52641    | 0.57944    | 0.64628    |   5.8 |  1.80
Other   |            | 0.2899     |            |       |  0.90

Nlocal:          269.5 ave         274 max         262 min
Histogram: 1 0 0 0 0 0 0 2 0 1
Nghost:        6613.25 ave        6688 max        6514 min
Histogram: 1 0 0 0 0 0 2 0 0 1
Neighs:         132042 ave      142957 max      122146 min
Histogram: 2 0 0 0 0 0 0 0 1 1

Total # of neighbors = 528166
Ave neighs/atom = 489.94991
Ave special neighs/atom = 6.9777365
Neighbor list builds = 105
Dangerous builds = 0
unfix           NPT_TRACE
unfix           NPT_EQ
write_restart   ${output_restart}
write_restart   ec_dmc_3_7_libob_0p8m_298K.npt.7.restart
System init for write_restart ...
PPPM initialization ...
  using 12-bit tables for long-range coulomb
  G vector (1/distance) = 0.21199929
  grid = 9 9 9
  stencil order = 5
  estimated absolute RMS force accuracy = 0.017447862
  estimated relative force accuracy = 5.2543718e-05
  using double precision FFTW3
  3d grid and FFT values/proc = 1400 225
Generated 21 of 21 mixed pair_coeff terms from arithmetic mixing rule
Total wall time: 0:00:32
