LAMMPS (22 Jul 2025 - Update 4)
# Restart continuation NPT chunk for composition tag=ec_dmc_3_7_libob_0p8m_298K
# Generated by scripts/curate_ff_md_data.py

read_restart    ${input_restart}
read_restart    ec_dmc_3_7_libob_0p8m_298K.npt.7.restart
Reading restart file ...
  restart file = 22 Jul 2025, LAMMPS = 22 Jul 2025
  restoring atom style full from restart
  orthogonal box = (-0.036653203 -0.039653206 -0.090653213) to (23.258865 23.255865 23.204865)
  1 by 2 by 2 MPI processor grid
  restoring pair style lj/cut/coul/long from restart
  restoring bond style harmonic from restart
  restoring angle style harmonic from restart
  restoring dihedral style opls from restart
  restoring improper style cvff from restart
  1078 atoms
  1021 bonds
  1628 angles
  1658 dihedrals
  336 impropers
Finding 1-2 1-3 1-4 neighbors ...
  special bond factors lj:    0        0        0.5     
  special bond factors coul:  0        0        0.5     
     4 = max # of 1-2 neighbors
     5 = max # of 1-3 neighbors
    12 = max # of 1-4 neighbors
    12 = max # of special neighbors
  special bonds CPU = 0.004 seconds
  read_restart CPU = 0.021 seconds
kspace_style    pppm 1.0e-4
neighbor        2.0 bin
neigh_modify    every 1 delay 0 check yes
timestep        1.0

thermo_style    custom step time temp press vol density pe ke etotal
thermo          100
variable        tracked_temperature_K equal temp
variable        tracked_density_g_cm3 equal density
variable        tracked_volume_A3 equal vol
variable        tracked_pressure_atm equal press
fix             NPT_EQ all npt temp 298.15 298.15 100.0 iso 1.0 1.0 1000.0
fix             NPT_TRACE all ave/time 100 1 100 v_tracked_temperature_K v_tracked_density_g_cm3 v_tracked_volume_A3 v_tracked_pressure_atm file ${thermo_trace}
fix             NPT_TRACE all ave/time 100 1 100 v_tracked_temperature_K v_tracked_density_g_cm3 v_tracked_volume_A3 v_tracked_pressure_atm file npt_thermo.8.dat
run             5000
PPPM initialization ...
  using 12-bit tables for long-range coulomb
  G vector (1/distance) = 0.21199929
  grid = 9 9 9
  stencil order = 5
  estimated absolute RMS force accuracy = 0.017447862
  estimated relative force accuracy = 5.2543718e-05
  using double precision FFTW3
  3d grid and FFT values/proc = 1400 225
Generated 21 of 21 mixed pair_coeff terms from arithmetic mixing rule
Neighbor list info ...
  update: every = 1 steps, delay = 0 steps, check = yes
  max neighbors/atom: 2000, page size: 100000
  master list distance cutoff = 14
  ghost atom cutoff = 14
  binsize = 7, bins = 4 4 4
  1 neighbor lists, perpetual/occasional/extra = 1 0 0
  (1) pair lj/cut/coul/long, perpetual
      attributes: half, newton on
      pair build: half/bin/newton
      stencil: half/bin/3d
      bin: standard
Per MPI rank memory allocation (min/avg/max) = 13.45 | 13.46 | 13.46 Mbytes
   Step          Time           Temp          Press          Volume        Density         PotEng         KinEng         TotEng    
     35447   35447          290.91728      3340.9914      12642.04       1.1857208      916.3584       933.94117      1850.2996    
     35500   35500          298.2238      -398.2198       12663.53       1.1837087      900.49317      957.39753      1857.8907    
     35600   35600          294.25999     -994.35447      12677.594      1.1823955      944.5143       944.67238      1889.1867    
     35700   35700          307.18878     -2954.985       12614.408      1.1883181      943.50478      986.17809      1929.6829    
     35800   35800          303.64539     -2834.5971      12494.815      1.199692       942.63958      974.80264      1917.4422    
     35900   35900          298.03123     -946.37209      12387.825      1.2100534      892.07376      956.77931      1848.8531    
     36000   36000          297.16211      1676.4164      12418.885      1.2070271      870.29977      953.98917      1824.2889    
     36100   36100          296.97748     -1158.8473      12506.617      1.1985599      873.47622      953.39644      1826.8727    
     36200   36200          303.83976     -1569.889       12550.474      1.1943716      875.83431      975.42664      1851.261     
     36300   36300          309.00542     -779.97001      12592.438      1.1903914      899.46221      992.01011      1891.4723    
     36400   36400          309.32342      1563.3592      12631.623      1.1866986      894.60785      993.031        1887.6389    
     36500   36500          303.0237      -345.91346      12673.478      1.1827795      858.87177      972.8068       1831.6786    
     36600   36600          297.20197     -720.1985       12706.962      1.1796628      856.14328      954.11711      1810.2604    
     36700   36700          296.85068     -2069.9878      12687.386      1.1814829      877.75675      952.98936      1830.7461    
     36800   36800          296.83202      1369.6166      12622.246      1.1875803      925.62713      952.92945      1878.5566    
     36900   36900          302.92975      3047.7316      12559.983      1.1934673      929.84372      972.5052       1902.3489    
     37000   37000          291.31178      1826.9519      12531.21       1.1962077      950.41223      935.20767      1885.6199    
     37100   37100          301.89913     -1664.7113      12574.956      1.1920463      895.94691      969.19657      1865.1435    
     37200   37200          298.73084     -2129.4198      12631.227      1.1867358      875.17219      959.02529      1834.1975    
     37300   37300          284.77932      130.77         12632.388      1.1866268      903.77025      914.23627      1818.0065    
     37400   37400          301.13298     -182.86469      12616.628      1.188109       895.01155      966.73697      1861.7485    
     37500   37500          305.11681     -176.48081      12608.036      1.1889187      923.94994      979.52638      1903.4763    
     37600   37600          300.7234      -873.92629      12623.448      1.1874672      923.91005      965.42207      1889.3321    
     37700   37700          296.10709     -2587.7306      12627.433      1.1870924      911.11558      950.6022       1861.7178    
     37800   37800          303.01472     -891.59522      12624.815      1.1873386      871.56738      972.778        1844.3454    
     37900   37900          298.30693      431.09973      12604.492      1.189253       866.84983      957.6644       1824.5142    
     38000   38000          281.94651      2478.9451      12623.756      1.1874382      853.67055      905.14204      1758.8126    
     38100   38100          284.39857     -994.17214      12647.352      1.1852228      837.50551      913.01396      1750.5195    
     38200   38200          286.1489      -460.11281      12661.792      1.1838711      891.86101      918.6331       1810.4941    
     38300   38300          295.15024     -2343.8668      12649.134      1.1850558      902.21536      947.53039      1849.7457    
     38400   38400          306.16276      1187.381       12669.388      1.1831613      906.85851      982.88424      1889.7427    
     38500   38500          305.65394      814.06881      12681.26       1.1820537      908.78498      981.25077      1890.0357    
     38600   38600          288.72067      2312.0874      12680.944      1.1820832      911.90447      926.88932      1838.7938    
     38700   38700          300.97213     -1111.1293      12616.308      1.1881392      853.91851      966.22057      1820.1391    
     38800   38800          302.90969      1612.1913      12520.301      1.1972499      861.91161      972.44082      1834.3524    
     38900   38900          307.27708      1938.8199      12457.64       1.203272       859.36624      986.46158      1845.8278    
     39000   39000          293.73561      3985.5302      12493.882      1.1997816      911.32941      942.98894      1854.3184    
     39100   39100          310.48366      276.8697       12587.965      1.1908144      868.73981      996.75578      1865.4956    
     39200   39200          308.8414       299.6908       12652.084      1.1847795      923.27185      991.48358      1914.7554    
     39300   39300          306.89924     -717.41224      12690.898      1.181156       957.17307      985.24859      1942.4217    
     39400   39400          308.82512     -2074.7038      12742.143      1.1764057      897.57263      991.43128      1889.0039    
     39500   39500          290.55781     -2086.9326      12715.882      1.1788352      912.91769      932.78717      1845.7049    
     39600   39600          285.24202      1316.1         12588.755      1.1907396      920.65498      915.7217       1836.3767    
     39700   39700          294.09167      960.72959      12504.76       1.1987379      920.23954      944.13201      1864.3716    
     39800   39800          293.37184     -1202.6224      12486.071      1.2005321      962.5633       941.82112      1904.3844    
     39900   39900          299.48915      711.70246      12501.631      1.199038       937.8153       961.45972      1899.275     
     40000   40000          299.96489      2466.6486      12548.948      1.1945168      862.91436      962.98702      1825.9014    
     40100   40100          285.49732      1653.3536      12559.62       1.1935019      900.79419      916.5413       1817.3355    
     40200   40200          296.1249      -704.57211      12572.014      1.1923252      900.08327      950.65938      1850.7427    
     40300   40300          298.15839      392.69407      12603.881      1.1893106      927.85138      957.18756      1885.0389    
     40400   40400          297.92846     -1564.2486      12656.403      1.1843752      920.6415       956.44939      1877.0909    
     40447   40447          292.94428      302.85848      12661.168      1.1839294      931.53705      940.44852      1871.9856    
Loop time of 40.5345 on 4 procs for 5000 steps with 1078 atoms

Performance: 10.658 ns/day, 2.252 hours/ns, 123.352 timesteps/s, 132.973 katom-step/s
75.2% CPU use with 4 MPI tasks x no OpenMP threads

MPI task timing breakdown:
Section |  min time  |  avg time  |  max time  |%varavg| %total
---------------------------------------------------------------
Pair    | 19.677     | 21.474     | 23.368     |  29.6 | 52.98
Bond    | 0.95435    | 1.0651     | 1.2027     |   9.2 |  2.63
Kspace  | 11.862     | 13.65      | 15.497     |  37.1 | 33.68
Neigh   | 1.0495     | 1.0501     | 1.0511     |   0.1 |  2.59
Comm    | 1.9276     | 1.9798     | 2.0158     |   2.3 |  4.88
Output  | 0.0029834  | 0.0041059  | 0.0045057  |   1.0 |  0.01
Modify  | 0.89218    | 0.95602    | 1.0031     |   4.3 |  2.36
Other   |            | 0.3554     |            |       |  0.88

Nlocal:          269.5 ave         280 max         261 min
Histogram: 1 1 0 0 0 0 1 0 0 1
Nghost:         6565.5 ave        6611 max        6518 min
Histogram: 1 0 1 0 0 0 0 1 0 1
Neighs:         131714 ave      140912 max      118959 min
Histogram: 1 0 0 0 1 0 0 0 1 1

Total # of neighbors = 526855
Ave neighs/atom = 488.73377
Ave special neighs/atom = 6.9777365
Neighbor list builds = 104
Dangerous builds = 0
unfix           NPT_TRACE
unfix           NPT_EQ
write_restart   ${output_restart}
write_restart   ec_dmc_3_7_libob_0p8m_298K.npt.8.restart
System init for write_restart ...
PPPM initialization ...
  using 12-bit tables for long-range coulomb
  G vector (1/distance) = 0.21196256
  grid = 9 9 9
  stencil order = 5
  estimated absolute RMS force accuracy = 0.017473828
  estimated relative force accuracy = 5.2621914e-05
  using double precision FFTW3
  3d grid and FFT values/proc = 1400 225
Generated 21 of 21 mixed pair_coeff terms from arithmetic mixing rule
Total wall time: 0:00:40
