LAMMPS (22 Jul 2025 - Update 4)
# Restart continuation NPT chunk for composition tag=ec_dmc_3_7_libob_0p8m_298K
# Generated by scripts/curate_ff_md_data.py

read_restart    ${input_restart}
read_restart    ec_dmc_3_7_libob_0p8m_298K.npt.4.restart
Reading restart file ...
  restart file = 22 Jul 2025, LAMMPS = 22 Jul 2025
  restoring atom style full from restart
  orthogonal box = (-0.21677164 -0.21977165 -0.27077165) to (23.438984 23.435984 23.384984)
  1 by 2 by 2 MPI processor grid
  restoring pair style lj/cut/coul/long from restart
  restoring bond style harmonic from restart
  restoring angle style harmonic from restart
  restoring dihedral style opls from restart
  restoring improper style cvff from restart
  1078 atoms
  1021 bonds
  1628 angles
  1658 dihedrals
  336 impropers
Finding 1-2 1-3 1-4 neighbors ...
  special bond factors lj:    0        0        0.5     
  special bond factors coul:  0        0        0.5     
     4 = max # of 1-2 neighbors
     5 = max # of 1-3 neighbors
    12 = max # of 1-4 neighbors
    12 = max # of special neighbors
  special bonds CPU = 0.017 seconds
  read_restart CPU = 0.060 seconds
kspace_style    pppm 1.0e-4
neighbor        2.0 bin
neigh_modify    every 1 delay 0 check yes
timestep        1.0

thermo_style    custom step time temp press vol density pe ke etotal
thermo          100
variable        tracked_temperature_K equal temp
variable        tracked_density_g_cm3 equal density
variable        tracked_volume_A3 equal vol
variable        tracked_pressure_atm equal press
fix             NPT_EQ all npt temp 298.15 298.15 100.0 iso 1.0 1.0 1000.0
fix             NPT_TRACE all ave/time 100 1 100 v_tracked_temperature_K v_tracked_density_g_cm3 v_tracked_volume_A3 v_tracked_pressure_atm file ${thermo_trace}
fix             NPT_TRACE all ave/time 100 1 100 v_tracked_temperature_K v_tracked_density_g_cm3 v_tracked_volume_A3 v_tracked_pressure_atm file npt_thermo.5.dat
run             5000
PPPM initialization ...
  using 12-bit tables for long-range coulomb
  G vector (1/distance) = 0.21087876
  grid = 9 9 9
  stencil order = 5
  estimated absolute RMS force accuracy = 0.018255149
  estimated relative force accuracy = 5.4974839e-05
  using double precision FFTW3
  3d grid and FFT values/proc = 1400 225
Generated 21 of 21 mixed pair_coeff terms from arithmetic mixing rule
Neighbor list info ...
  update: every = 1 steps, delay = 0 steps, check = yes
  max neighbors/atom: 2000, page size: 100000
  master list distance cutoff = 14
  ghost atom cutoff = 14
  binsize = 7, bins = 4 4 4
  1 neighbor lists, perpetual/occasional/extra = 1 0 0
  (1) pair lj/cut/coul/long, perpetual
      attributes: half, newton on
      pair build: half/bin/newton
      stencil: half/bin/3d
      bin: standard
Per MPI rank memory allocation (min/avg/max) = 13.44 | 13.45 | 13.45 Mbytes
   Step          Time           Temp          Press          Volume        Density         PotEng         KinEng         TotEng    
     20447   20447          292.06616      2422.0705      13237.637      1.132372       977.66711      937.62945      1915.2966    
     20500   20500          297.85696     -290.11344      13227.35       1.1332527      959.74479      956.21986      1915.9647    
     20600   20600          306.03982      90.085805      13178.895      1.1374193      913.36923      982.48956      1895.8588    
     20700   20700          287.47086     -1974.7255      13156.247      1.1393773      922.59608      922.87703      1845.4731    
     20800   20800          287.97059      1692.2633      13104.925      1.1438394      928.16815      924.48134      1852.6495    
     20900   20900          303.61503      457.46866      13038.96       1.1496262      927.41609      974.70516      1902.1213    
     21000   21000          289.96536     -140.67538      13010.38       1.1521516      976.5493       930.88519      1907.4345    
     21100   21100          294.00494     -653.00433      13076.66       1.1463118      964.33932      943.8536       1908.1929    
     21200   21200          292.12975      693.0387       13234.839      1.1326114      952.5588       937.8336       1890.3924    
     21300   21300          286.16627     -196.44096      13390.461      1.1194484      964.18236      918.68887      1882.8712    
     21400   21400          297.4138      -1408.0085      13470.363      1.1128081      955.21197      954.79716      1910.0091    
     21500   21500          295.24187     -573.93831      13460.001      1.1136648      1007.076       947.82454      1954.9006    
     21600   21600          309.39975      1132.0196      13405.057      1.1182294      978.35232      993.27603      1971.6284    
     21700   21700          305.75612      192.28542      13338.653      1.1237964      964.52459      981.57879      1946.1034    
     21800   21800          289.40451      1835.9239      13254.803      1.1309055      959.49541      929.08467      1888.5801    
     21900   21900          296.10708      534.39787      13155.281      1.139461       940.83073      950.60216      1891.4329    
     22000   22000          299.20262      727.89809      13113.466      1.1430944      948.90371      960.53987      1909.4436    
     22100   22100          306.48521      726.26923      13093.38       1.144848       906.92504      983.91939      1890.8444    
     22200   22200          290.57692      812.86874      13102.482      1.1440527      901.73058      932.8485       1834.5791    
     22300   22300          289.72698      2470.4574      13091.52       1.1450106      900.70246      930.11991      1830.8224    
     22400   22400          289.54614      1846.0883      13111.859      1.1432345      926.95397      929.53935      1856.4933    
     22500   22500          291.48742     -1218.0425      13104.042      1.1439165      953.93356      935.77153      1889.7051    
     22600   22600          288.88129     -1470.0821      13086.448      1.1454545      987.50245      927.40497      1914.9074    
     22700   22700          296.17155      169.40838      13054.18       1.1482858      978.52954      950.80912      1929.3387    
     22800   22800          305.6414       3442.7145      13107.419      1.1436217      978.71406      981.2105       1959.9246    
     22900   22900          297.37095     -2324.5613      13192.043      1.1362857      1029.5954      954.6596       1984.255     
     23000   23000          297.48017      1536.4604      13261.819      1.1303072      979.27175      955.01024      1934.282     
     23100   23100          306.34047     -367.64565      13293.322      1.1276285      909.18751      983.45474      1892.6422    
     23200   23200          290.91829     -396.4889       13272.131      1.129429       964.31817      933.94443      1898.2626    
     23300   23300          287.65812     -828.33223      13188.325      1.136606       996.84222      923.47818      1920.3204    
     23400   23400          301.83816      2173.1573      13160.397      1.139018       978.4475       969.00085      1947.4484    
     23500   23500          317.3477       490.81043      13222.166      1.133697       955.7687       1018.7916      1974.5603    
     23600   23600          306.43148     -188.77273      13304.713      1.1266631      938.40189      983.7469       1922.1488    
     23700   23700          282.03262     -1266.975       13315.127      1.125782       979.70717      905.41848      1885.1257    
     23800   23800          290.45479      2303.1869      13266.478      1.1299103      975.43511      932.45643      1907.8915    
     23900   23900          305.42949     -1065.6935      13231.202      1.1329227      967.26737      980.53018      1947.7976    
     24000   24000          306.5384       332.36449      13120.562      1.1424762      959.77452      984.09017      1943.8647    
     24100   24100          300.1466       2438.0878      12969.548      1.1557789      945.83254      963.57037      1909.4029    
     24200   24200          296.36603     -31.121292      12814.968      1.1697204      941.62783      951.43347      1893.0613    
     24300   24300          289.16886      2595.1278      12656.965      1.1843226      956.83249      928.32817      1885.1607    
     24400   24400          302.2802       294.65614      12598.543      1.1898146      913.42788      970.41992      1883.8478    
     24500   24500          299.67238     -252.85362      12662.199      1.183833       915.18606      962.04795      1877.234     
     24600   24600          295.01659     -93.020439      12828.037      1.1685287      912.06802      947.10133      1859.1693    
     24700   24700          289.89812      1461.1821      12990.347      1.1539283      916.85754      930.66934      1847.5269    
     24800   24800          298.7213       2242.9395      13071.21       1.1467898      934.44124      958.99468      1893.4359    
     24900   24900          305.60049      463.67818      13121.494      1.142395       951.3006       981.07916      1932.3798    
     25000   25000          305.31337     -1686.4436      13106.224      1.1437261      940.3167       980.1574       1920.4741    
     25100   25100          285.64674     -382.98237      13023.194      1.1510179      970.84673      917.02098      1887.8677    
     25200   25200          288.15943     -1263.0192      12996.363      1.1533942      944.27443      925.08757      1869.362     
     25300   25300          291.60553     -902.63289      13030.304      1.1503898      940.31678      936.1507       1876.4675    
     25400   25400          299.54783      155.34295      13083.055      1.1457515      964.10334      961.64811      1925.7514    
     25447   25447          308.82357     -409.33285      13084.573      1.1456185      945.6842       991.42631      1937.1105    
Loop time of 30.313 on 4 procs for 5000 steps with 1078 atoms

Performance: 14.251 ns/day, 1.684 hours/ns, 164.945 timesteps/s, 177.811 katom-step/s
85.4% CPU use with 4 MPI tasks x no OpenMP threads

MPI task timing breakdown:
Section |  min time  |  avg time  |  max time  |%varavg| %total
---------------------------------------------------------------
Pair    | 17.309     | 18.663     | 20.121     |  27.7 | 61.57
Bond    | 0.80887    | 0.9127     | 1.0068     |   7.5 |  3.01
Kspace  | 6.2114     | 7.6353     | 9.0723     |  44.5 | 25.19
Neigh   | 0.90991    | 0.9114     | 0.91276    |   0.1 |  3.01
Comm    | 1.2368     | 1.2736     | 1.3116     |   2.3 |  4.20
Output  | 0.0068422  | 0.0080896  | 0.010371   |   1.6 |  0.03
Modify  | 0.61169    | 0.63835    | 0.66702    |   3.0 |  2.11
Other   |            | 0.2702     |            |       |  0.89

Nlocal:          269.5 ave         274 max         266 min
Histogram: 1 1 0 0 0 0 1 0 0 1
Nghost:        6394.75 ave        6445 max        6347 min
Histogram: 1 0 1 0 0 0 0 1 0 1
Neighs:         127470 ave      136386 max      115250 min
Histogram: 1 0 0 1 0 0 0 0 0 2

Total # of neighbors = 509880
Ave neighs/atom = 472.98701
Ave special neighs/atom = 6.9777365
Neighbor list builds = 115
Dangerous builds = 0
unfix           NPT_TRACE
unfix           NPT_EQ
write_restart   ${output_restart}
write_restart   ec_dmc_3_7_libob_0p8m_298K.npt.5.restart
System init for write_restart ...
PPPM initialization ...
  using 12-bit tables for long-range coulomb
  G vector (1/distance) = 0.21116225
  grid = 9 9 9
  stencil order = 5
  estimated absolute RMS force accuracy = 0.018047923
  estimated relative force accuracy = 5.4350785e-05
  using double precision FFTW3
  3d grid and FFT values/proc = 1400 225
Generated 21 of 21 mixed pair_coeff terms from arithmetic mixing rule
Total wall time: 0:00:30
