LAMMPS (22 Jul 2025 - Update 4)
# Restart continuation NPT chunk for composition tag=ec_dmc_3_7_libob_0p8m_298K
# Generated by scripts/curate_ff_md_data.py

read_restart    ${input_restart}
read_restart    ec_dmc_3_7_libob_0p8m_298K.npt.5.restart
Reading restart file ...
  restart file = 22 Jul 2025, LAMMPS = 22 Jul 2025
  restoring atom style full from restart
  orthogonal box = (-0.17100716 -0.17400716 -0.22500717) to (23.393219 23.390219 23.339219)
  1 by 2 by 2 MPI processor grid
  restoring pair style lj/cut/coul/long from restart
  restoring bond style harmonic from restart
  restoring angle style harmonic from restart
  restoring dihedral style opls from restart
  restoring improper style cvff from restart
  1078 atoms
  1021 bonds
  1628 angles
  1658 dihedrals
  336 impropers
Finding 1-2 1-3 1-4 neighbors ...
  special bond factors lj:    0        0        0.5     
  special bond factors coul:  0        0        0.5     
     4 = max # of 1-2 neighbors
     5 = max # of 1-3 neighbors
    12 = max # of 1-4 neighbors
    12 = max # of special neighbors
  special bonds CPU = 0.002 seconds
  read_restart CPU = 0.027 seconds
kspace_style    pppm 1.0e-4
neighbor        2.0 bin
neigh_modify    every 1 delay 0 check yes
timestep        1.0

thermo_style    custom step time temp press vol density pe ke etotal
thermo          100
variable        tracked_temperature_K equal temp
variable        tracked_density_g_cm3 equal density
variable        tracked_volume_A3 equal vol
variable        tracked_pressure_atm equal press
fix             NPT_EQ all npt temp 298.15 298.15 100.0 iso 1.0 1.0 1000.0
fix             NPT_TRACE all ave/time 100 1 100 v_tracked_temperature_K v_tracked_density_g_cm3 v_tracked_volume_A3 v_tracked_pressure_atm file ${thermo_trace}
fix             NPT_TRACE all ave/time 100 1 100 v_tracked_temperature_K v_tracked_density_g_cm3 v_tracked_volume_A3 v_tracked_pressure_atm file npt_thermo.6.dat
run             5000
PPPM initialization ...
  using 12-bit tables for long-range coulomb
  G vector (1/distance) = 0.21116225
  grid = 9 9 9
  stencil order = 5
  estimated absolute RMS force accuracy = 0.018047923
  estimated relative force accuracy = 5.4350785e-05
  using double precision FFTW3
  3d grid and FFT values/proc = 1400 225
Generated 21 of 21 mixed pair_coeff terms from arithmetic mixing rule
Neighbor list info ...
  update: every = 1 steps, delay = 0 steps, check = yes
  max neighbors/atom: 2000, page size: 100000
  master list distance cutoff = 14
  ghost atom cutoff = 14
  binsize = 7, bins = 4 4 4
  1 neighbor lists, perpetual/occasional/extra = 1 0 0
  (1) pair lj/cut/coul/long, perpetual
      attributes: half, newton on
      pair build: half/bin/newton
      stencil: half/bin/3d
      bin: standard
Per MPI rank memory allocation (min/avg/max) = 13.44 | 13.45 | 13.46 Mbytes
   Step          Time           Temp          Press          Volume        Density         PotEng         KinEng         TotEng    
     25447   25447          308.82357     -409.28702      13084.573      1.1456185      945.68683      991.42631      1937.1131    
     25500   25500          297.84582      99.769078      13066.168      1.1472323      975.60426      956.18408      1931.7883    
     25600   25600          301.23185      1706.765       12996.387      1.1533921      943.78159      967.05436      1910.836     
     25700   25700          290.43519     -749.65485      12978.81       1.1549541      916.35416      932.3935       1848.7477    
     25800   25800          282.41772      473.71743      13006.09       1.1525316      946.28377      906.65477      1852.9385    
     25900   25900          289.86586      1258.5357      13068.188      1.147055       966.30883      930.56577      1896.8746    
     26000   26000          285.08055      1756.9801      13124.393      1.1421427      1008.0892      915.20334      1923.2926    
     26100   26100          298.29856     -764.63973      13079.679      1.1460472      966.22746      957.63753      1923.865     
     26200   26200          296.80058     -1239.6133      12975.011      1.1552923      933.32755      952.82852      1886.1561    
     26300   26300          291.82471     -907.56121      12875.229      1.1642457      896.58677      936.85431      1833.4411    
     26400   26400          298.06643     -659.0905       12806.777      1.1704686      886.84748      956.89234      1843.7398    
     26500   26500          305.43306      776.80689      12730.999      1.1774355      899.9356       980.54166      1880.4773    
     26600   26600          304.81952      2423.8813      12724.864      1.1780031      926.95515      978.57198      1905.5271    
     26700   26700          307.88325     -311.48929      12766.558      1.1741559      912.04489      988.40757      1900.4525    
     26800   26800          298.75979     -28.627214      12793.564      1.1716774      923.52778      959.11824      1882.646     
     26900   26900          308.09268     -658.59344      12829.457      1.1683994      893.4781       989.0799       1882.558     
     27000   27000          296.74171      293.30375      12838.929      1.1675374      913.36119      952.63953      1866.0007    
     27100   27100          296.34395     -1128.2808      12904.878      1.1615708      924.84679      951.3626       1876.2094    
     27200   27200          301.06875     -1300.1647      12957.605      1.1568442      973.58207      966.53078      1940.1128    
     27300   27300          306.69559      1104.9914      12968.58       1.1558651      962.18831      984.59481      1946.7831    
     27400   27400          296.18649      1368.4981      12968.704      1.1558541      970.83127      950.85709      1921.6884    
     27500   27500          299.00305     -1307.3552      12940.957      1.1583324      940.63956      959.89917      1900.5387    
     27600   27600          300.75643      194.90333      12867.985      1.1649011      925.88083      965.52812      1891.409     
     27700   27700          299.26824     -552.01931      12811.154      1.1700687      925.09974      960.75053      1885.8503    
     27800   27800          293.80818      2757.0916      12844.886      1.1669959      943.77199      943.22193      1886.9939    
     27900   27900          289.26066      3436.6232      13044.854      1.1491067      970.06937      928.62287      1898.6922    
     28000   28000          298.72394     -492.83265      13294.094      1.1275631      981.80739      959.00314      1940.8105    
     28100   28100          317.12881     -1605.7985      13367.375      1.1213817      977.62422      1018.0889      1995.7131    
     28200   28200          310.95993     -1840.669       13223.017      1.133624       983.25936      998.28473      1981.5441    
     28300   28300          318.68406      94.868795      12987.831      1.1541519      919.99052      1023.0818      1943.0723    
     28400   28400          319.45016      1274.7641      12830.196      1.1683321      872.38713      1025.5412      1897.9283    
     28500   28500          295.18027      2420.2064      12758.363      1.1749102      925.65226      947.62678      1873.279     
     28600   28600          300.37522      1282.9733      12761.448      1.1746261      906.03202      964.30432      1870.3363    
     28700   28700          297.03667      202.6387       12766.806      1.1741331      902.86275      953.58645      1856.4492    
     28800   28800          285.48976     -2025.9543      12743.903      1.1762432      895.40106      916.51704      1811.9181    
     28900   28900          294.19936     -937.15561      12737.951      1.1767928      854.81297      944.47773      1799.2907    
     29000   29000          295.91718     -465.5537       12699.87       1.1803215      902.35171      949.99252      1852.3442    
     29100   29100          305.97209      3823.3574      12678.572      1.1823043      894.48024      982.27212      1876.7524    
     29200   29200          293.96742      1910.3732      12736.427      1.1769337      934.76505      943.73315      1878.4982    
     29300   29300          298.51296     -732.19225      12814.022      1.1698068      930.09892      958.32582      1888.4247    
     29400   29400          303.49219     -2250.1099      12860.532      1.1655761      929.27425      974.31081      1903.5851    
     29500   29500          304.81317     -2308.6187      12865.638      1.1651136      948.25559      978.55159      1926.8072    
     29600   29600          304.21856     -2055.708       12867.214      1.1649709      942.05424      976.64271      1918.697     
     29700   29700          300.15903      2494.2366      12861.424      1.1654953      895.97799      963.61025      1859.5882    
     29800   29800          292.87472      460.72159      12795.396      1.1715097      899.60286      940.22522      1839.8281    
     29900   29900          295.59604      2328.174       12728.872      1.1776322      912.1149       948.96155      1861.0764    
     30000   30000          305.15095      874.45011      12682.675      1.1819218      908.5466       979.63598      1888.1826    
     30100   30100          301.13575      194.48072      12678.824      1.1822808      969.13156      966.74585      1935.8774    
     30200   30200          315.97134     -867.59992      12741.731      1.1764438      952.71273      1014.3731      1967.0858    
     30300   30300          299.47794      2166.4474      12836.933      1.1677189      939.44774      961.42374      1900.8715    
     30400   30400          296.99222     -1078.5469      12896.69       1.1623083      924.83887      953.44374      1878.2826    
     30447   30447          306.32496      2858.4284      12901.968      1.1618328      895.74852      983.40494      1879.1535    
Loop time of 35.155 on 4 procs for 5000 steps with 1078 atoms

Performance: 12.288 ns/day, 1.953 hours/ns, 142.227 timesteps/s, 153.321 katom-step/s
79.0% CPU use with 4 MPI tasks x no OpenMP threads

MPI task timing breakdown:
Section |  min time  |  avg time  |  max time  |%varavg| %total
---------------------------------------------------------------
Pair    | 19.071     | 20.002     | 20.773     |  14.8 | 56.90
Bond    | 0.83964    | 0.97116    | 1.0827     |   9.3 |  2.76
Kspace  | 9.5434     | 10.409     | 11.467     |  22.6 | 29.61
Neigh   | 0.92479    | 0.92581    | 0.9265     |   0.1 |  2.63
Comm    | 1.7142     | 1.729      | 1.7381     |   0.7 |  4.92
Output  | 0.0059183  | 0.0062704  | 0.0063988  |   0.3 |  0.02
Modify  | 0.72922    | 0.78002    | 0.83814    |   4.4 |  2.22
Other   |            | 0.3315     |            |       |  0.94

Nlocal:          269.5 ave         276 max         265 min
Histogram: 2 0 0 0 0 1 0 0 0 1
Nghost:        6543.25 ave        6554 max        6516 min
Histogram: 1 0 0 0 0 0 0 0 1 2
Neighs:         129302 ave      136897 max      117276 min
Histogram: 1 0 0 0 1 0 0 0 0 2

Total # of neighbors = 517210
Ave neighs/atom = 479.78664
Ave special neighs/atom = 6.9777365
Neighbor list builds = 110
Dangerous builds = 0
unfix           NPT_TRACE
unfix           NPT_EQ
write_restart   ${output_restart}
write_restart   ec_dmc_3_7_libob_0p8m_298K.npt.6.restart
System init for write_restart ...
PPPM initialization ...
  using 12-bit tables for long-range coulomb
  G vector (1/distance) = 0.21150446
  grid = 9 9 9
  stencil order = 5
  estimated absolute RMS force accuracy = 0.017800483
  estimated relative force accuracy = 5.3605626e-05
  using double precision FFTW3
  3d grid and FFT values/proc = 1400 225
Generated 21 of 21 mixed pair_coeff terms from arithmetic mixing rule
Total wall time: 0:00:35
