LAMMPS (22 Jul 2025 - Update 4)
# Initial NPT chunk for composition tag=ec_dmc_3_7_libob_0p8m_298K
# Generated by scripts/curate_ff_md_data.py

units           real
boundary        p p p
atom_style      full
bond_style      harmonic
angle_style     harmonic
dihedral_style  opls
improper_style  cvff

pair_style      lj/cut/coul/long 12.0 12.0
pair_modify     mix arithmetic
special_bonds   lj/coul 0.0 0.0 0.5

read_data       ec_dmc_3_7_libob_0p8m_298K.lmp
Reading data file ...
  triclinic box = (-0.046 -0.049000002 -0.10000001) to (23.268212 23.265212 23.214212) with tilt (0 0 0)
  1 by 1 by 1 MPI processor grid
  reading atoms ...
  1078 atoms
  scanning bonds ...
  4 = max bonds/atom
  scanning angles ...
  6 = max angles/atom
  scanning dihedrals ...
  10 = max dihedrals/atom
  scanning impropers ...
  1 = max impropers/atom
  triclinic box = (-0.046 -0.049000002 -0.10000001) to (23.268212 23.265212 23.214212) with tilt (0 0 0)
  1 by 1 by 1 MPI processor grid
  reading bonds ...
  1021 bonds
  reading angles ...
  1628 angles
  reading dihedrals ...
  1658 dihedrals
  reading impropers ...
  336 impropers
Finding 1-2 1-3 1-4 neighbors ...
  special bond factors lj:    0        0        0.5     
  special bond factors coul:  0        0        0.5     
     4 = max # of 1-2 neighbors
     5 = max # of 1-3 neighbors
    12 = max # of 1-4 neighbors
    12 = max # of special neighbors
  special bonds CPU = 0.002 seconds
  read_data CPU = 0.052 seconds

# openff-interchange writes the box as triclinic with zero tilt; PPPM stalls
# indefinitely in triclinic mode on this brew LAMMPS build, but works fine
# after change_box all ortho converts the zero-tilt box to orthogonal.
change_box      all ortho
Changing box ...
  orthogonal box = (-0.046 -0.049000002 -0.10000001) to (23.268212 23.265212 23.214212)
kspace_style    pppm 1.0e-4

min_style       cg
minimize        1.0e-4 1.0e-6 10000 100000
PPPM initialization ...
  using 12-bit tables for long-range coulomb
  G vector (1/distance) = 0.21194083
  grid = 9 9 9
  stencil order = 5
  estimated absolute RMS force accuracy = 0.017489207
  estimated relative force accuracy = 5.2668226e-05
  using double precision FFTW3
  3d grid and FFT values/proc = 2744 729
Generated 21 of 21 mixed pair_coeff terms from arithmetic mixing rule
Neighbor list info ...
  update: every = 1 steps, delay = 0 steps, check = yes
  max neighbors/atom: 2000, page size: 100000
  master list distance cutoff = 14
  ghost atom cutoff = 14
  binsize = 7, bins = 4 4 4
  1 neighbor lists, perpetual/occasional/extra = 1 0 0
  (1) pair lj/cut/coul/long, perpetual
      attributes: half, newton on
      pair build: half/bin/newton
      stencil: half/bin/3d
      bin: standard
Per MPI rank memory allocation (min/avg/max) = 16.59 | 16.59 | 16.59 Mbytes
   Step          Temp          E_pair         E_mol          TotEng         Press     
         0   0              4130.0626      24190.648      28320.71       129130.87    
       447   0             -3088.52        3670.77        582.24991      4936.5499    
Loop time of 22.9954 on 1 procs for 447 steps with 1078 atoms

87.3% CPU use with 1 MPI tasks x no OpenMP threads

Minimization stats:
  Stopping criterion = energy tolerance
  Energy initial, next-to-last, final = 
      28320.7104326254   582.261641700857   582.249913998537
  Force two-norm initial, final = 8085.8059 168.98485
  Force max component initial, final = 1106.7315 105.0738
  Final line search alpha, max atom move = 0.0026598599 0.2794816
  Iterations, force evaluations = 447 898

MPI task timing breakdown:
Section |  min time  |  avg time  |  max time  |%varavg| %total
---------------------------------------------------------------
Pair    | 21.29      | 21.29      | 21.29      |   0.0 | 92.58
Bond    | 0.69663    | 0.69663    | 0.69663    |   0.0 |  3.03
Kspace  | 0.62176    | 0.62176    | 0.62176    |   0.0 |  2.70
Neigh   | 0.2517     | 0.2517     | 0.2517     |   0.0 |  1.09
Comm    | 0.086769   | 0.086769   | 0.086769   |   0.0 |  0.38
Output  | 0          | 0          | 0          |   0.0 |  0.00
Modify  | 0          | 0          | 0          |   0.0 |  0.00
Other   |            | 0.04896    |            |       |  0.21

Nlocal:           1078 ave        1078 max        1078 min
Histogram: 1 0 0 0 0 0 0 0 0 0
Nghost:          10516 ave       10516 max       10516 min
Histogram: 1 0 0 0 0 0 0 0 0 0
Neighs:         527394 ave      527394 max      527394 min
Histogram: 1 0 0 0 0 0 0 0 0 0

Total # of neighbors = 527394
Ave neighs/atom = 489.23377
Ave special neighs/atom = 6.9777365
Neighbor list builds = 10
Dangerous builds = 0
velocity        all create 298.15 155939 dist gaussian
neighbor        2.0 bin
neigh_modify    every 1 delay 0 check yes
timestep        1.0

thermo_style    custom step time temp press vol density pe ke etotal
thermo          100
variable        tracked_temperature_K equal temp
variable        tracked_density_g_cm3 equal density
variable        tracked_volume_A3 equal vol
variable        tracked_pressure_atm equal press
fix             NPT_EQ all npt temp 298.15 298.15 100.0 iso 1.0 1.0 1000.0
fix             NPT_TRACE all ave/time 100 1 100 v_tracked_temperature_K v_tracked_density_g_cm3 v_tracked_volume_A3 v_tracked_pressure_atm file ${thermo_trace}
fix             NPT_TRACE all ave/time 100 1 100 v_tracked_temperature_K v_tracked_density_g_cm3 v_tracked_volume_A3 v_tracked_pressure_atm file npt_thermo.1.dat
run             5000
PPPM initialization ...
  using 12-bit tables for long-range coulomb
  G vector (1/distance) = 0.21194083
  grid = 9 9 9
  stencil order = 5
  estimated absolute RMS force accuracy = 0.017489207
  estimated relative force accuracy = 5.2668226e-05
  using double precision FFTW3
  3d grid and FFT values/proc = 2744 729
Generated 21 of 21 mixed pair_coeff terms from arithmetic mixing rule
Per MPI rank memory allocation (min/avg/max) = 15.47 | 15.47 | 15.47 Mbytes
   Step          Time           Temp          Press          Volume        Density         PotEng         KinEng         TotEng    
       447   447            298.15         8389.2228      12672.498      1.1828709      582.24991      957.16061      1539.4105    
       500   500            180.33472      9813.3011      12768.992      1.1739321      1006.1495      578.93441      1585.0839    
       600   600            201.25186      7909.4164      13340.258      1.1236612      1044.4205      646.08539      1690.5059    
       700   700            230.52582      4483.9348      13838.313      1.0832195      1111.5072      740.0645       1851.5717    
       800   800            262.34756      1196.8165      14224.287      1.0538264      1170.0765      842.22287      2012.2994    
       900   900            287.40808      1923.1815      14584.914      1.0277695      1227.1722      922.67548      2149.8477    
      1000   1000           319.82156      2842.3136      14899.282      1.006084       1176.4482      1026.7335      2203.1818    
      1100   1100           307.0394       2377.9185      15172.972      0.98793629     1177.0955      985.69856      2162.794     
      1200   1200           296.37463      1651.1726      15402.794      0.97319551     1143.5527      951.46108      2095.0138    
      1300   1300           300.88771      21.79808       15555.982      0.96361194     1121.4771      965.94956      2087.4266    
      1400   1400           297.31488     -940.36493      15596.28       0.96112211     1150.1631      954.47961      2104.6427    
      1500   1500           300.10637     -845.667        15565.068      0.96304943     1174.9095      963.44122      2138.3507    
      1600   1600           287.06557      370.93867      15502.483      0.96693732     1242.634       921.57591      2164.2099    
      1700   1700           310.18654      751.34643      15456.738      0.96979904     1184.4151      995.80189      2180.217     
      1800   1800           301.2575       1289.0529      15457.654      0.96974159     1182.5088      967.13673      2149.6456    
      1900   1900           289.80501     -1189.9696      15472.948      0.96878306     1174.2913      930.37041      2104.6617    
      2000   2000           290.04384     -2887.7296      15387.09       0.97418875     1139.4054      931.13713      2070.5425    
      2100   2100           283.77424      100.33769      15222.072      0.98474962     1154.1665      911.00965      2065.1761    
      2200   2200           293.47809      618.23537      15046.628      0.99623185     1143.6331      942.16222      2085.7954    
      2300   2300           297.60112     -784.30572      14880.942      1.007324       1144.256       955.39852      2099.6545    
      2400   2400           293.64276      33.149293      14752.553      1.0160906      1160.0463      942.69086      2102.7372    
      2500   2500           308.96288      228.38748      14726.797      1.0178676      1093.3306      991.87354      2085.2041    
      2600   2600           288.35342      499.59711      14738.883      1.0170329      1130.9235      925.71032      2056.6338    
      2700   2700           293.39462      1213.1259      14745.329      1.0165883      1097.5182      941.89426      2039.4124    
      2800   2800           294.05264      899.46555      14712.198      1.0188776      1098.1011      944.00674      2042.1079    
      2900   2900           298.94501     -686.56715      14653.678      1.0229466      1106.7638      959.71286      2066.4767    
      3000   3000           316.93081     -824.11567      14586.274      1.0276737      1048.9485      1017.4533      2066.4018    
      3100   3100           305.33955      1738.3322      14530.951      1.0315863      1046.2032      980.24145      2026.4446    
      3200   3200           295.65454      1070.879       14523.479      1.032117       1039.1673      949.14934      1988.3167    
      3300   3300           289.78115     -2302.3915      14502.078      1.0336401      1061.9432      930.29383      1992.237     
      3400   3400           304.48037     -1099.6669      14452.826      1.0371625      1071.3518      977.4832       2048.835     
      3500   3500           304.59043      1347.4045      14468.813      1.0360165      1081.7307      977.83654      2059.5672    
      3600   3600           291.60168     -349.13118      14551.163      1.0301534      1112.8074      936.13833      2048.9457    
      3700   3700           296.4176       1642.0037      14611.362      1.0259092      1065.1939      951.59903      2016.7929    
      3800   3800           284.07974      1730.0675      14606.291      1.0262653      1057.2865      911.99041      1969.2769    
      3900   3900           293.23093     -124.85855      14544.765      1.0306066      1037.0122      941.36875      1978.381     
      4000   4000           296.144       -3800.2569      14480.522      1.0351788      1059.7077      950.72067      2010.4284    
      4100   4100           293.72706     -104.34201      14426.214      1.0390758      1083.966       942.96152      2026.9275    
      4200   4200           299.42061     -525.88591      14422.895      1.0393149      1083.2302      961.23968      2044.4699    
      4300   4300           300.58755     -263.66439      14394.287      1.0413805      1111.2464      964.98597      2076.2324    
      4400   4400           302.55586     -597.67472      14337.295      1.0455201      1158.284       971.30489      2129.5889    
      4500   4500           307.49766      1790.867       14282.705      1.0495162      1130.5213      987.16971      2117.691     
      4600   4600           300.49196     -1257.385       14357.902      1.0440195      1082.8357      964.6791       2047.5148    
      4700   4700           308.17192     -523.73116      14528.697      1.0317464      1038.107       989.3343       2027.4413    
      4800   4800           296.68964     -708.05776      14630.564      1.0245627      1055.9113      952.47236      2008.3837    
      4900   4900           290.51208      1572.1226      14607.739      1.0261636      1068.43        932.64036      2001.0703    
      5000   5000           294.99757     -715.0012       14526.935      1.0318715      1105.7924      947.04028      2052.8327    
      5100   5100           312.10949      1002.7241      14442.275      1.0379203      1081.511       1001.9752      2083.4862    
      5200   5200           298.89013     -1897.8031      14386.313      1.0419577      1111.6609      959.53667      2071.1976    
      5300   5300           297.39584     -105.15357      14337.179      1.0455285      1083.1992      954.73951      2037.9387    
      5400   5400           293.65833     -828.74642      14310.195      1.0475         1090.1759      942.74086      2032.9168    
      5447   5447           292.5886      -803.18919      14291.864      1.0488435      1099.6531      939.30665      2038.9597    
Loop time of 75.717 on 1 procs for 5000 steps with 1078 atoms

Performance: 5.705 ns/day, 4.206 hours/ns, 66.035 timesteps/s, 71.186 katom-step/s
88.8% CPU use with 1 MPI tasks x no OpenMP threads

MPI task timing breakdown:
Section |  min time  |  avg time  |  max time  |%varavg| %total
---------------------------------------------------------------
Pair    | 63.63      | 63.63      | 63.63      |   0.0 | 84.04
Bond    | 3.5218     | 3.5218     | 3.5218     |   0.0 |  4.65
Kspace  | 3.42       | 3.42       | 3.42       |   0.0 |  4.52
Neigh   | 3.308      | 3.308      | 3.308      |   0.0 |  4.37
Comm    | 0.46867    | 0.46867    | 0.46867    |   0.0 |  0.62
Output  | 0.003973   | 0.003973   | 0.003973   |   0.0 |  0.01
Modify  | 1.1978     | 1.1978     | 1.1978     |   0.0 |  1.58
Other   |            | 0.167      |            |       |  0.22

Nlocal:           1078 ave        1078 max        1078 min
Histogram: 1 0 0 0 0 0 0 0 0 0
Nghost:           9778 ave        9778 max        9778 min
Histogram: 1 0 0 0 0 0 0 0 0 0
Neighs:         466528 ave      466528 max      466528 min
Histogram: 1 0 0 0 0 0 0 0 0 0

Total # of neighbors = 466528
Ave neighs/atom = 432.7718
Ave special neighs/atom = 6.9777365
Neighbor list builds = 131
Dangerous builds = 0
unfix           NPT_TRACE
unfix           NPT_EQ
write_restart   ${output_restart}
write_restart   ec_dmc_3_7_libob_0p8m_298K.npt.1.restart
System init for write_restart ...
PPPM initialization ...
  using 12-bit tables for long-range coulomb
  G vector (1/distance) = 0.20900419
  grid = 9 9 9
  stencil order = 5
  estimated absolute RMS force accuracy = 0.019677773
  estimated relative force accuracy = 5.9259028e-05
  using double precision FFTW3
  3d grid and FFT values/proc = 2744 729
Generated 21 of 21 mixed pair_coeff terms from arithmetic mixing rule
Total wall time: 0:01:38
