LAMMPS (22 Jul 2025 - Update 4)
# Restart continuation NPT chunk for composition tag=ec_dmc_3_7_libob_0p8m_298K
# Generated by scripts/curate_ff_md_data.py

read_restart    ${input_restart}
read_restart    ec_dmc_3_7_libob_0p8m_298K.npt.3.restart
Reading restart file ...
  restart file = 22 Jul 2025, LAMMPS = 22 Jul 2025
  restoring atom style full from restart
  orthogonal box = (-0.21146143 -0.21446143 -0.26546144) to (23.433674 23.430674 23.379674)
  1 by 2 by 2 MPI processor grid
  restoring pair style lj/cut/coul/long from restart
  restoring bond style harmonic from restart
  restoring angle style harmonic from restart
  restoring dihedral style opls from restart
  restoring improper style cvff from restart
  1078 atoms
  1021 bonds
  1628 angles
  1658 dihedrals
  336 impropers
Finding 1-2 1-3 1-4 neighbors ...
  special bond factors lj:    0        0        0.5     
  special bond factors coul:  0        0        0.5     
     4 = max # of 1-2 neighbors
     5 = max # of 1-3 neighbors
    12 = max # of 1-4 neighbors
    12 = max # of special neighbors
  special bonds CPU = 0.003 seconds
  read_restart CPU = 0.019 seconds
kspace_style    pppm 1.0e-4
neighbor        2.0 bin
neigh_modify    every 1 delay 0 check yes
timestep        1.0

thermo_style    custom step time temp press vol density pe ke etotal
thermo          100
variable        tracked_temperature_K equal temp
variable        tracked_density_g_cm3 equal density
variable        tracked_volume_A3 equal vol
variable        tracked_pressure_atm equal press
fix             NPT_EQ all npt temp 298.15 298.15 100.0 iso 1.0 1.0 1000.0
fix             NPT_TRACE all ave/time 100 1 100 v_tracked_temperature_K v_tracked_density_g_cm3 v_tracked_volume_A3 v_tracked_pressure_atm file ${thermo_trace}
fix             NPT_TRACE all ave/time 100 1 100 v_tracked_temperature_K v_tracked_density_g_cm3 v_tracked_volume_A3 v_tracked_pressure_atm file npt_thermo.4.dat
run             5000
PPPM initialization ...
  using 12-bit tables for long-range coulomb
  G vector (1/distance) = 0.21091162
  grid = 9 9 9
  stencil order = 5
  estimated absolute RMS force accuracy = 0.01823103
  estimated relative force accuracy = 5.4902206e-05
  using double precision FFTW3
  3d grid and FFT values/proc = 1400 225
Generated 21 of 21 mixed pair_coeff terms from arithmetic mixing rule
Neighbor list info ...
  update: every = 1 steps, delay = 0 steps, check = yes
  max neighbors/atom: 2000, page size: 100000
  master list distance cutoff = 14
  ghost atom cutoff = 14
  binsize = 7, bins = 4 4 4
  1 neighbor lists, perpetual/occasional/extra = 1 0 0
  (1) pair lj/cut/coul/long, perpetual
      attributes: half, newton on
      pair build: half/bin/newton
      stencil: half/bin/3d
      bin: standard
Per MPI rank memory allocation (min/avg/max) = 13.44 | 13.45 | 13.46 Mbytes
   Step          Time           Temp          Press          Volume        Density         PotEng         KinEng         TotEng    
     15447   15447          295.17441     -1703.876       13219.816      1.1338986      918.94461      947.60797      1866.5526    
     15500   15500          284.20035      1932.1998      13203.592      1.1352918      960.82778      912.37761      1873.2054    
     15600   15600          290.55303     -334.47236      13132.918      1.1414013      984.28254      932.77182      1917.0544    
     15700   15700          305.45841      2353.331       13064.67       1.1473639      972.54107      980.62304      1953.1641    
     15800   15800          295.21061      143.91738      13060.388      1.14774        991.54582      947.72418      1939.27      
     15900   15900          303.40204      24.526198      13143.168      1.1405111      940.88084      974.02141      1914.9023    
     16000   16000          298.92926     -3596.9179      13271.716      1.1294643      931.18947      959.66229      1890.8518    
     16100   16100          286.842        1096.3631      13298.884      1.127157       958.70544      920.85816      1879.5636    
     16200   16200          304.30438     -303.08935      13278.035      1.1289268      943.75931      976.91823      1920.6775    
     16300   16300          308.07194      548.56064      13246.273      1.1316337      973.90001      989.01335      1962.9134    
     16400   16400          300.29404     -306.37988      13242.815      1.1319293      996.71933      964.0437       1960.763     
     16500   16500          301.3948       1025.6407      13254.324      1.1309464      941.45209      967.57749      1909.0296    
     16600   16600          291.91475     -976.97154      13285.541      1.128289       943.02519      937.14339      1880.1686    
     16700   16700          298.02637     -156.00039      13337.472      1.1238959      935.73268      956.76371      1892.4964    
     16800   16800          307.90679      129.74014      13383.791      1.1200062      930.51506      988.48314      1918.9982    
     16900   16900          298.91245     -1586.228       13386.258      1.1197999      976.30522      959.60832      1935.9135    
     17000   17000          301.68115     -816.559        13347.247      1.1230728      973.42876      968.49677      1941.9255    
     17100   17100          305.22732     -546.64738      13282.517      1.1285459      955.15547      979.88117      1935.0366    
     17200   17200          299.50504      1164.6064      13190.44       1.1364238      954.72211      961.51075      1916.2329    
     17300   17300          292.07872      609.57849      13154.231      1.1395519      984.88337      937.66979      1922.5532    
     17400   17400          314.3703       515.97495      13186.765      1.1367405      949.04087      1009.2332      1958.274     
     17500   17500          306.22663     -302.13344      13214.257      1.1343755      976.7494       983.08928      1959.8387    
     17600   17600          294.28394     -776.31261      13195.089      1.1360234      958.07553      944.74927      1902.8248    
     17700   17700          303.39687     -284.17742      13179.851      1.1373368      899.15226      974.0048       1873.1571    
     17800   17800          296.96582     -17.846927      13148.496      1.140049       927.51541      953.35902      1880.8744    
     17900   17900          306.9325       1270.5017      13118.153      1.142686       937.18071      985.35536      1922.5361    
     18000   18000          306.4161       1230.9072      13080.7        1.1459578      968.99178      983.69754      1952.6893    
     18100   18100          299.09575      941.46947      13051.261      1.1485427      1030.3964      960.19679      1990.5932    
     18200   18200          309.97729     -2174.9638      13085.448      1.145542       1002.5554      995.13016      1997.6855    
     18300   18300          294.61316     -863.7158       13136.978      1.1410486      981.8756       945.80617      1927.6818    
     18400   18400          291.10823     -788.24145      13142.927      1.1405321      964.84986      934.5542       1899.4041    
     18500   18500          295.02501      645.8501       13176.126      1.1376583      960.48812      947.12834      1907.6165    
     18600   18600          301.31249      96.435894      13208.381      1.1348802      980.54993      967.31326      1947.8632    
     18700   18700          312.59712      1306.6497      13225.699      1.1333941      963.99073      1003.5407      1967.5314    
     18800   18800          296.09989      135.1595       13209.397      1.1347929      976.88358      950.57908      1927.4627    
     18900   18900          290.40532     -435.38434      13176.217      1.1376505      945.32499      932.29761      1877.6226    
     19000   19000          297.48114      345.74413      13122.683      1.1422915      927.30473      955.01333      1882.3181    
     19100   19100          304.56818     -726.60787      13124.286      1.142152       936.70361      977.76509      1914.4687    
     19200   19200          305.83461      1193.8327      13105.984      1.143747       974.07672      981.83077      1955.9075    
     19300   19300          297.96128      1794.2354      13116.298      1.1428476      996.19998      956.55477      1952.7547    
     19400   19400          292.20988     -1008.611       13152.364      1.1397137      938.00697      938.09084      1876.0978    
     19500   19500          295.3779      -723.51086      13178.69       1.137437       913.34314      948.26125      1861.6044    
     19600   19600          296.97544      625.90798      13154.856      1.1394978      930.089        953.38987      1883.4789    
     19700   19700          309.23214     -969.78528      13186.363      1.1367751      937.10872      992.73796      1929.8467    
     19800   19800          314.15027     -1426.4623      13209.452      1.1347882      927.05225      1008.5268      1935.5791    
     19900   19900          302.80077     -1017.8987      13210.378      1.1347086      925.18975      972.09113      1897.2809    
     20000   20000          290.0518       460.84316      13231.096      1.1329318      951.37783      931.16271      1882.5405    
     20100   20100          291.71311     -1450.277       13217.336      1.1341112      953.31086      936.49606      1889.8069    
     20200   20200          305.10383      501.02774      13189.221      1.1365288      929.70802      979.48472      1909.1927    
     20300   20300          308.09375      1473.9934      13195.665      1.1359738      948.07721      989.08335      1937.1606    
     20400   20400          298.19962      1626.1812      13229.398      1.1330773      979.3641       957.31992      1936.684     
     20447   20447          292.06616      2422.0838      13237.637      1.132372       977.66769      937.62945      1915.2971    
Loop time of 26.5458 on 4 procs for 5000 steps with 1078 atoms

Performance: 16.274 ns/day, 1.475 hours/ns, 188.354 timesteps/s, 203.045 katom-step/s
89.8% CPU use with 4 MPI tasks x no OpenMP threads

MPI task timing breakdown:
Section |  min time  |  avg time  |  max time  |%varavg| %total
---------------------------------------------------------------
Pair    | 16.341     | 17.618     | 18.422     |  19.3 | 66.37
Bond    | 0.78458    | 0.86478    | 0.90646    |   5.1 |  3.26
Kspace  | 4.6439     | 5.4711     | 6.8318     |  36.6 | 20.61
Neigh   | 0.80389    | 0.80591    | 0.80781    |   0.2 |  3.04
Comm    | 1.0666     | 1.08       | 1.0888     |   0.8 |  4.07
Output  | 0.0037459  | 0.0051576  | 0.0057159  |   1.1 |  0.02
Modify  | 0.4334     | 0.49067    | 0.56372    |   6.7 |  1.85
Other   |            | 0.2104     |            |       |  0.79

Nlocal:          269.5 ave         278 max         260 min
Histogram: 1 1 0 0 0 0 0 0 0 2
Nghost:        6349.75 ave        6419 max        6308 min
Histogram: 2 0 0 0 1 0 0 0 0 1
Neighs:         126146 ave      138023 max      115782 min
Histogram: 2 0 0 0 0 0 0 0 1 1

Total # of neighbors = 504583
Ave neighs/atom = 468.07328
Ave special neighs/atom = 6.9777365
Neighbor list builds = 115
Dangerous builds = 0
unfix           NPT_TRACE
unfix           NPT_EQ
write_restart   ${output_restart}
write_restart   ec_dmc_3_7_libob_0p8m_298K.npt.4.restart
System init for write_restart ...
PPPM initialization ...
  using 12-bit tables for long-range coulomb
  G vector (1/distance) = 0.21087876
  grid = 9 9 9
  stencil order = 5
  estimated absolute RMS force accuracy = 0.018255149
  estimated relative force accuracy = 5.4974839e-05
  using double precision FFTW3
  3d grid and FFT values/proc = 1400 225
Generated 21 of 21 mixed pair_coeff terms from arithmetic mixing rule
Total wall time: 0:00:26
