LAMMPS (22 Jul 2025 - Update 4)
# Restart continuation NPT chunk for composition tag=ec_dmc_3_7_libob_0p8m_298K
# Generated by scripts/curate_ff_md_data.py

read_restart    ${input_restart}
read_restart    ec_dmc_3_7_libob_0p8m_298K.npt.1.restart
Reading restart file ...
  restart file = 22 Jul 2025, LAMMPS = 22 Jul 2025
  restoring atom style full from restart
  orthogonal box = (-0.5695718 -0.57257181 -0.62357181) to (23.791784 23.788784 23.737784)
  1 by 2 by 2 MPI processor grid
  restoring pair style lj/cut/coul/long from restart
  restoring bond style harmonic from restart
  restoring angle style harmonic from restart
  restoring dihedral style opls from restart
  restoring improper style cvff from restart
  1078 atoms
  1021 bonds
  1628 angles
  1658 dihedrals
  336 impropers
Finding 1-2 1-3 1-4 neighbors ...
  special bond factors lj:    0        0        0.5     
  special bond factors coul:  0        0        0.5     
     4 = max # of 1-2 neighbors
     5 = max # of 1-3 neighbors
    12 = max # of 1-4 neighbors
    12 = max # of special neighbors
  special bonds CPU = 0.001 seconds
  read_restart CPU = 0.013 seconds
kspace_style    pppm 1.0e-4
neighbor        2.0 bin
neigh_modify    every 1 delay 0 check yes
timestep        1.0

thermo_style    custom step time temp press vol density pe ke etotal
thermo          100
variable        tracked_temperature_K equal temp
variable        tracked_density_g_cm3 equal density
variable        tracked_volume_A3 equal vol
variable        tracked_pressure_atm equal press
fix             NPT_EQ all npt temp 298.15 298.15 100.0 iso 1.0 1.0 1000.0
fix             NPT_TRACE all ave/time 100 1 100 v_tracked_temperature_K v_tracked_density_g_cm3 v_tracked_volume_A3 v_tracked_pressure_atm file ${thermo_trace}
fix             NPT_TRACE all ave/time 100 1 100 v_tracked_temperature_K v_tracked_density_g_cm3 v_tracked_volume_A3 v_tracked_pressure_atm file npt_thermo.2.dat
run             5000
PPPM initialization ...
  using 12-bit tables for long-range coulomb
  G vector (1/distance) = 0.20872066
  grid = 9 9 9
  stencil order = 5
  estimated absolute RMS force accuracy = 0.019901035
  estimated relative force accuracy = 5.9931376e-05
  using double precision FFTW3
  3d grid and FFT values/proc = 1400 225
Generated 21 of 21 mixed pair_coeff terms from arithmetic mixing rule
Neighbor list info ...
  update: every = 1 steps, delay = 0 steps, check = yes
  max neighbors/atom: 2000, page size: 100000
  master list distance cutoff = 14
  ghost atom cutoff = 14
  binsize = 7, bins = 4 4 4
  1 neighbor lists, perpetual/occasional/extra = 1 0 0
  (1) pair lj/cut/coul/long, perpetual
      attributes: half, newton on
      pair build: half/bin/newton
      stencil: half/bin/3d
      bin: standard
Per MPI rank memory allocation (min/avg/max) = 13.42 | 13.43 | 13.44 Mbytes
   Step          Time           Temp          Press          Volume        Density         PotEng         KinEng         TotEng    
      5447   5447           308.21932     -437.28695      14457.872      1.0368006      1096.5072      989.48649      2085.9937    
      5500   5500           301.57914     -882.23983      14448.056      1.037505       1108.9109      968.1693       2077.0802    
      5600   5600           292.39472     -787.74996      14441.151      1.038001       1091.8433      938.68424      2030.5275    
      5700   5700           295.72963      624.49275      14376.38       1.0426776      1054.4145      949.39042      2003.805     
      5800   5800           294.86046      1296.3853      14293.496      1.0487238      1053.8751      946.60008      2000.4752    
      5900   5900           293.97438      1362.0989      14173.813      1.0575792      1062.8055      943.7555       2006.561     
      6000   6000           305.63777     -421.56425      14062.018      1.0659871      1044.8311      981.19884      2026.0299    
      6100   6100           298.85124     -761.68574      13998.939      1.0707904      1080.653       959.41183      2040.0648    
      6200   6200           299.75         545.05704      13949.169      1.0746109      1041.9657      962.29714      2004.2628    
      6300   6300           291.80487      1998.9573      13932.619      1.0758874      1026.2633      936.79065      1963.0539    
      6400   6400           290.18207      560.33506      13925.623      1.076428       1036.671       931.5809       1968.2519    
      6500   6500           294.22807     -618.03777      13968.776      1.0731026      1074.6122      944.56992      2019.1821    
      6600   6600           285.50584      217.23156      14034.921      1.0680452      1111.1261      916.56865      2027.6947    
      6700   6700           292.82416      3128.9264      14156.281      1.058889       1092.8352      940.06289      2032.8981    
      6800   6800           294.12168      368.89618      14243.096      1.0524348      1084.1359      944.22837      2028.3643    
      6900   6900           295.33896     -2753.7942      14289.864      1.0489904      1079.3663      948.13623      2027.5026    
      7000   7000           310.89937     -2597.8215      14210.346      1.0548603      1071.8724      998.09034      2069.9628    
      7100   7100           309.226       -603.63537      14094.924      1.0634985      1090.422       992.71824      2083.1402    
      7200   7200           309.67715     -389.39576      14033.198      1.0681764      1028.4794      994.1666       2022.646     
      7300   7300           300.75984      2688.476       13959.003      1.0738539      1021.4083      965.53905      1986.9474    
      7400   7400           290.04845      3185.2451      13872.821      1.080525       1041.014       931.15195      1972.166     
      7500   7500           296.00754      1573.3731      13803.756      1.0859312      1019.7087      950.28262      1969.9913    
      7600   7600           300.58857      864.99318      13735.218      1.09135        1031.24        964.98922      1996.2292    
      7700   7700           315.94088     -694.85399      13773.976      1.0882791      1010.5873      1014.2753      2024.8625    
      7800   7800           298.31786      1004.224       13825.194      1.0842474      1030.4301      957.69949      1988.1296    
      7900   7900           295.39517     -105.12511      13876.412      1.0802454      995.18512      948.31668      1943.5018    
      8000   8000           294.73626     -381.88657      13922.105      1.0767         1007.4543      946.20137      1953.6557    
      8100   8100           302.51728     -1015.3569      13935.296      1.0756808      1024.8861      971.18104      1996.0671    
      8200   8200           306.12274      726.99777      13864.673      1.08116        1026.6364      982.75574      2009.3921    
      8300   8300           302.87931     -1996.6772      13760.314      1.0893595      1037.4759      972.34326      2009.8191    
      8400   8400           289.52628      1091.4324      13669.375      1.0966068      1072.4207      929.4756       2001.8963    
      8500   8500           302.58345     -1529.177       13728.647      1.0918724      1027.3905      971.39346      1998.7839    
      8600   8600           300.3575      -994.68864      13851.953      1.0821528      1036.7415      964.24742      2000.9889    
      8700   8700           293.03987     -2852.7808      13858.109      1.0816721      1038.1497      940.7554       1978.9051    
      8800   8800           295.16387      2035.5652      13750.452      1.0901409      1033.1733      947.57414      1980.7475    
      8900   8900           304.74116     -675.51726      13678.221      1.0958976      1045.8887      978.32042      2024.2091    
      9000   9000           316.09246      2131.7353      13642.266      1.0987859      1024.086       1014.7619      2038.8478    
      9100   9100           292.90505     -748.52362      13695.384      1.0945243      1034.4981      940.32258      1974.8207    
      9200   9200           293.02159      549.60313      13707.721      1.0935391      1012.2589      940.69672      1952.9556    
      9300   9300           297.51394     -987.2179       13719.406      1.0926078      1009.5981      955.11866      1964.7168    
      9400   9400           297.6          245.3134       13717.256      1.0927791      1029.2752      955.39493      1984.6701    
      9500   9500           315.63247     -2140.7146      13773.224      1.0883385      1029.918       1013.2852      2043.2032    
      9600   9600           312.23232     -4101.6065      13816.479      1.0849312      1042.0089      1002.3695      2044.3784    
      9700   9700           296.44879      635.1666       13809.405      1.085487       1057.1196      951.69915      2008.8188    
      9800   9800           302.90996      602.96811      13816.504      1.0849293      1013.1823      972.44168      1985.6239    
      9900   9900           297.46362      1954.636       13815.205      1.0850313      1005.3144      954.95709      1960.2715    
     10000   10000          294.49019     -620.85966      13782.099      1.0876376      999.85514      945.41142      1945.2666    
     10100   10100          294.07853     -1305.1498      13763.979      1.0890695      1019.1357      944.08985      1963.2255    
     10200   10200          297.96319     -2344.6557      13754.347      1.0898322      1057.9847      956.5609       2014.5456    
     10300   10300          306.40158     -524.21165      13705.987      1.0936775      1030.443       983.65092      2014.0939    
     10400   10400          297.28901     -82.503397      13598.013      1.1023618      1008.1275      954.39655      1962.524     
     10447   10447          286.74736      1810.0488      13562.678      1.1052338      1026.4112      920.55434      1946.9656    
Loop time of 24.0335 on 4 procs for 5000 steps with 1078 atoms

Performance: 17.975 ns/day, 1.335 hours/ns, 208.043 timesteps/s, 224.270 katom-step/s
92.3% CPU use with 4 MPI tasks x no OpenMP threads

MPI task timing breakdown:
Section |  min time  |  avg time  |  max time  |%varavg| %total
---------------------------------------------------------------
Pair    | 15.273     | 16.335     | 17.212     |  19.7 | 67.97
Bond    | 0.81525    | 0.84391    | 0.91955    |   4.8 |  3.51
Kspace  | 3.619      | 4.4703     | 5.5551     |  38.7 | 18.60
Neigh   | 0.80059    | 0.802      | 0.80323    |   0.1 |  3.34
Comm    | 0.92111    | 0.92479    | 0.93323    |   0.5 |  3.85
Output  | 0.0082505  | 0.0099506  | 0.011076   |   1.0 |  0.04
Modify  | 0.39597    | 0.44753    | 0.50807    |   6.0 |  1.86
Other   |            | 0.2004     |            |       |  0.83

Nlocal:          269.5 ave         278 max         258 min
Histogram: 1 0 0 0 1 0 0 0 0 2
Nghost:        6308.75 ave        6348 max        6287 min
Histogram: 1 1 0 1 0 0 0 0 0 1
Neighs:         122933 ave      130015 max      113256 min
Histogram: 1 0 0 1 0 0 0 0 0 2

Total # of neighbors = 491731
Ave neighs/atom = 456.15121
Ave special neighs/atom = 6.9777365
Neighbor list builds = 124
Dangerous builds = 0
unfix           NPT_TRACE
unfix           NPT_EQ
write_restart   ${output_restart}
write_restart   ec_dmc_3_7_libob_0p8m_298K.npt.2.restart
System init for write_restart ...
PPPM initialization ...
  using 12-bit tables for long-range coulomb
  G vector (1/distance) = 0.2102866
  grid = 9 9 9
  stencil order = 5
  estimated absolute RMS force accuracy = 0.018694647
  estimated relative force accuracy = 5.6298373e-05
  using double precision FFTW3
  3d grid and FFT values/proc = 1400 225
Generated 21 of 21 mixed pair_coeff terms from arithmetic mixing rule
Total wall time: 0:00:24
