LAMMPS (22 Jul 2025 - Update 4)
# Initial NPT chunk for composition tag=ec_dmc_3_7_lipf6_1m_tmspi_1wt_298K
# Generated by scripts/curate_ff_md_data.py

units           real
boundary        p p p
atom_style      full
bond_style      harmonic
angle_style     harmonic
dihedral_style  opls
improper_style  cvff

pair_style      lj/cut/coul/long 12.0 12.0
pair_modify     mix arithmetic
special_bonds   lj/coul 0.0 0.0 0.5

read_data       ec_dmc_3_7_lipf6_1m_tmspi_1wt_298K.lmp
Reading data file ...
  triclinic box = (-0.023 -0.033 -0.0050000004) to (23.272548 23.262548 23.290548) with tilt (0 0 0)
  2 by 1 by 2 MPI processor grid
  reading atoms ...
  1059 atoms
  scanning bonds ...
  5 = max bonds/atom
  scanning angles ...
  15 = max angles/atom
  scanning dihedrals ...
  33 = max dihedrals/atom
  scanning impropers ...
  1 = max impropers/atom
  triclinic box = (-0.023 -0.033 -0.0050000004) to (23.272548 23.262548 23.290548) with tilt (0 0 0)
  2 by 1 by 2 MPI processor grid
  reading bonds ...
  989 bonds
  reading angles ...
  1628 angles
  reading dihedrals ...
  1557 dihedrals
  reading impropers ...
  255 impropers
Finding 1-2 1-3 1-4 neighbors ...
  special bond factors lj:    0        0        0.5     
  special bond factors coul:  0        0        0.5     
     6 = max # of 1-2 neighbors
    10 = max # of 1-3 neighbors
    16 = max # of 1-4 neighbors
    18 = max # of special neighbors
  special bonds CPU = 0.001 seconds
  read_data CPU = 0.038 seconds

# openff-interchange writes the box as triclinic with zero tilt; PPPM stalls
# indefinitely in triclinic mode on this brew LAMMPS build, but works fine
# after change_box all ortho converts the zero-tilt box to orthogonal.
change_box      all ortho
Changing box ...
  orthogonal box = (-0.023 -0.033 -0.0050000004) to (23.272548 23.262548 23.290548)
kspace_style    pppm 1.0e-4

min_style       cg
minimize        1.0e-4 1.0e-6 10000 100000
PPPM initialization ...
  using 12-bit tables for long-range coulomb
  G vector (1/distance) = 0.20329199
  grid = 8 8 8
  stencil order = 5
  estimated absolute RMS force accuracy = 0.024435845
  estimated relative force accuracy = 7.3587821e-05
  using double precision FFTW3
  3d grid and FFT values/proc = 1053 128
Generated 45 of 45 mixed pair_coeff terms from arithmetic mixing rule
Neighbor list info ...
  update: every = 1 steps, delay = 0 steps, check = yes
  max neighbors/atom: 2000, page size: 100000
  master list distance cutoff = 14
  ghost atom cutoff = 14
  binsize = 7, bins = 4 4 4
  1 neighbor lists, perpetual/occasional/extra = 1 0 0
  (1) pair lj/cut/coul/long, perpetual
      attributes: half, newton on
      pair build: half/bin/newton
      stencil: half/bin/3d
      bin: standard
Per MPI rank memory allocation (min/avg/max) = 24.48 | 24.49 | 24.49 Mbytes
   Step          Temp          E_pair         E_mol          TotEng         Press     
         0   0              2055.9505      24669.135      26725.086      92909.168    
      1147   0             -3903.8694      5158.1409      1254.2715     -985.21473    
Loop time of 14.7896 on 4 procs for 1147 steps with 1059 atoms

95.8% CPU use with 4 MPI tasks x no OpenMP threads

Minimization stats:
  Stopping criterion = energy tolerance
  Energy initial, next-to-last, final = 
      26725.0858777368   1254.35977317807    1254.2715289918
  Force two-norm initial, final = 6809.7707 49.414674
  Force max component initial, final = 868.16275 19.480333
  Final line search alpha, max atom move = 0.0025258051 0.049203525
  Iterations, force evaluations = 1147 2289

MPI task timing breakdown:
Section |  min time  |  avg time  |  max time  |%varavg| %total
---------------------------------------------------------------
Pair    | 11.719     | 12.189     | 12.409     |   7.9 | 82.41
Bond    | 0.31689    | 0.35654    | 0.39354    |   5.1 |  2.41
Kspace  | 1.5357     | 1.7398     | 2.2478     |  22.4 | 11.76
Neigh   | 0.097399   | 0.097445   | 0.097487   |   0.0 |  0.66
Comm    | 0.33166    | 0.33447    | 0.33647    |   0.3 |  2.26
Output  | 0          | 0          | 0          |   0.0 |  0.00
Modify  | 0          | 0          | 0          |   0.0 |  0.00
Other   |            | 0.07281    |            |       |  0.49

Nlocal:         264.75 ave         271 max         256 min
Histogram: 1 0 0 0 1 0 0 0 0 2
Nghost:         6440.5 ave        6529 max        6351 min
Histogram: 1 0 0 0 1 1 0 0 0 1
Neighs:         127314 ave      131609 max      123439 min
Histogram: 1 0 1 0 0 0 1 0 0 1

Total # of neighbors = 509254
Ave neighs/atom = 480.88196
Ave special neighs/atom = 6.9556185
Neighbor list builds = 17
Dangerous builds = 0
velocity        all create 298.15 181123 dist gaussian
neighbor        2.0 bin
neigh_modify    every 1 delay 0 check yes
timestep        1.0

thermo_style    custom step time temp press vol density pe ke etotal
thermo          100
variable        tracked_temperature_K equal temp
variable        tracked_density_g_cm3 equal density
variable        tracked_volume_A3 equal vol
variable        tracked_pressure_atm equal press
fix             NPT_EQ all npt temp 298.15 298.15 100.0 iso 1.0 1.0 1000.0
fix             NPT_TRACE all ave/time 100 1 100 v_tracked_temperature_K v_tracked_density_g_cm3 v_tracked_volume_A3 v_tracked_pressure_atm file ${thermo_trace}
fix             NPT_TRACE all ave/time 100 1 100 v_tracked_temperature_K v_tracked_density_g_cm3 v_tracked_volume_A3 v_tracked_pressure_atm file npt_thermo.1.dat
run             5000
PPPM initialization ...
  using 12-bit tables for long-range coulomb
  G vector (1/distance) = 0.20329199
  grid = 8 8 8
  stencil order = 5
  estimated absolute RMS force accuracy = 0.024435845
  estimated relative force accuracy = 7.3587821e-05
  using double precision FFTW3
  3d grid and FFT values/proc = 1053 128
Generated 45 of 45 mixed pair_coeff terms from arithmetic mixing rule
Per MPI rank memory allocation (min/avg/max) = 23.36 | 23.36 | 23.37 Mbytes
   Step          Time           Temp          Press          Volume        Density         PotEng         KinEng         TotEng    
      1147   1147           298.15         2414.7064      12642.087      1.1766414      1254.2715      940.27477      2194.5463    
      1200   1200           170.08898      4082.1594      12653.802      1.1755521      1712.5571      536.4091       2248.9662    
      1300   1300           178.58673      3434.0502      12773.049      1.1645773      1815.3107      563.20845      2378.5191    
      1400   1400           201.47899      4901.4859      12937.039      1.1498151      1907.8658      635.40369      2543.2694    
      1500   1500           220.42129      1404.1151      13120.033      1.1337779      2026.7195      695.14196      2721.8615    
      1600   1600           259.43824      2658.4877      13295.992      1.1187735      2090.9907      818.18961      2909.1803    
      1700   1700           299.22427     -270.46875      13393.516      1.1106272      2116.7541      943.66271      3060.4168    
      1800   1800           313.21691      3059.9541      13434.502      1.1072389      2143.0581      987.79124      3130.8494    
      1900   1900           302.08492      1513.3269      13561.646      1.0968583      2181.0408      952.68432      3133.7251    
      2000   2000           304.90789      1139.1284      13741.427      1.0825079      2142.0289      961.58712      3103.616     
      2100   2100           301.48509     -379.40599      13880.192      1.0716857      2111.3725      950.79262      3062.1651    
      2200   2200           294.87408     -971.77333      13923.782      1.0683306      2122.9538      929.94351      3052.8973    
      2300   2300           285.71231      580.52906      13897.672      1.0703377      2186.1145      901.05008      3087.1646    
      2400   2400           316.29921      386.41156      13888.477      1.0710464      2145.1106      997.51189      3142.6225    
      2500   2500           314.19122      651.14613      13912.887      1.0691673      2139.6248      990.86393      3130.4887    
      2600   2600           294.42723     -2606.1033      13972.366      1.0646159      2142.2956      928.53427      3070.8298    
      2700   2700           298.49955      281.31783      14000.039      1.0625115      2086.4725      941.37714      3027.8496    
      2800   2800           290.1959      -2554.5645      13972.16       1.0646316      2121.3015      915.18996      3036.4914    
      2900   2900           293.31722     -519.82815      13830.696      1.0755209      2148.8877      925.03365      3073.9213    
      3000   3000           299.339       -1661.6106      13727.453      1.0836099      2157.9572      944.02451      3101.9817    
      3100   3100           303.09091      2282.9681      13665.523      1.0885206      2133.3997      955.85691      3089.2566    
      3200   3200           297.55003      9.5208961      13635.174      1.0909434      2086.5045      938.38265      3024.8872    
      3300   3300           285.20679     -845.73624      13603.512      1.0934826      2075.3555      899.45581      2974.8114    
      3400   3400           284.67146     -1224.4031      13585.363      1.0949434      2090.8078      897.76755      2988.5753    
      3500   3500           303.32545      1812.8257      13581.512      1.0952538      2087.9221      956.59657      3044.5187    
      3600   3600           296.24074      1173.3409      13605.196      1.0933472      2141.3078      934.25356      3075.5613    
      3700   3700           296.05879      756.02654      13706.418      1.0852728      2129.9208      933.67972      3063.6006    
      3800   3800           291.33501     -1510.5374      13812.348      1.0769497      2113.5166      918.78234      3032.2989    
      3900   3900           287.769       -1482.8532      13839.598      1.0748292      2103.0273      907.53625      3010.5635    
      4000   4000           295.43348      24.406451      13793.757      1.0784012      2099.366       931.70768      3031.0737    
      4100   4100           304.08729     -742.2351       13761.71       1.0809125      2106.0046      958.9992       3065.0038    
      4200   4200           314.93059     -1290.5827      13719.413      1.0842448      2080.4311      993.19567      3073.6267    
      4300   4300           296.4168       885.66135      13670.606      1.0881159      2090.0596      934.80878      3024.8684    
      4400   4400           296.69466      664.02254      13593.13       1.0943177      2042.7867      935.68507      2978.4718    
      4500   4500           294.39525      36.482115      13488.485      1.1028076      2037.6626      928.43342      2966.096     
      4600   4600           286.23214     -937.27891      13428.707      1.1077167      2082.8107      902.68944      2985.5002    
      4700   4700           302.28281     -777.2716       13423.567      1.1081409      2078.0494      953.30839      3031.3578    
      4800   4800           314.62429     -831.19357      13431.877      1.1074553      2061.5513      992.22969      3053.781     
      4900   4900           297.84497      2166.1682      13483.972      1.1031767      2046.4472      939.31281      2985.76      
      5000   5000           299.65801      329.61704      13549.219      1.0978643      2017.3746      945.03059      2962.4052    
      5100   5100           295.68051      1432.5934      13597.934      1.0939311      2049.5147      932.48673      2982.0015    
      5200   5200           295.2294       2059.8191      13646.496      1.0900383      2082.4578      931.06409      3013.5219    
      5300   5300           300.54076      703.00645      13704.384      1.0854339      2078.7129      947.8145       3026.5274    
      5400   5400           308.75548     -1409.5275      13719.084      1.0842709      2062.4388      973.72125      3036.1601    
      5500   5500           296.19938     -2618.4736      13713.226      1.0847341      2073.5821      934.12312      3007.7052    
      5600   5600           298.54863     -516.05941      13666.842      1.0884155      2037.9483      941.53192      2979.4802    
      5700   5700           296.96457      490.5489       13592.108      1.0944         2048.5722      936.53628      2985.1085    
      5800   5800           310.24055     -441.18149      13526.405      1.099716       2059.2442      978.40469      3037.6489    
      5900   5900           301.76507      579.64815      13444.457      1.106419       2100.574       951.67561      3052.2496    
      6000   6000           300.41942      2841.8219      13330.286      1.1158953      2066.8414      947.43182      3014.2732    
      6100   6100           291.07874      1113.6716      13233.902      1.1240225      2042.6244      917.97417      2960.5986    
      6147   6147           299.03582      249.50852      13195.162      1.1273225      2003.431       943.06837      2946.4994    
Loop time of 20.4846 on 4 procs for 5000 steps with 1059 atoms

Performance: 21.089 ns/day, 1.138 hours/ns, 244.086 timesteps/s, 258.487 katom-step/s
96.6% CPU use with 4 MPI tasks x no OpenMP threads

MPI task timing breakdown:
Section |  min time  |  avg time  |  max time  |%varavg| %total
---------------------------------------------------------------
Pair    | 13.993     | 15.114     | 16.303     |  24.3 | 73.78
Bond    | 0.65809    | 0.71006    | 0.78543    |   5.5 |  3.47
Kspace  | 1.6871     | 2.9539     | 4.0918     |  56.3 | 14.42
Neigh   | 0.57952    | 0.5801     | 0.58066    |   0.1 |  2.83
Comm    | 0.69472    | 0.70293    | 0.7132     |   0.9 |  3.43
Output  | 0.0022091  | 0.0037591  | 0.0042773  |   1.5 |  0.02
Modify  | 0.30577    | 0.31408    | 0.3219     |   1.2 |  1.53
Other   |            | 0.1055     |            |       |  0.52

Nlocal:         264.75 ave         270 max         254 min
Histogram: 1 0 0 0 0 0 0 1 0 2
Nghost:        6250.75 ave        6352 max        6178 min
Histogram: 1 1 0 0 1 0 0 0 0 1
Neighs:         121908 ave      133248 max      108205 min
Histogram: 1 0 0 1 0 0 0 0 1 1

Total # of neighbors = 487631
Ave neighs/atom = 460.46364
Ave special neighs/atom = 6.9556185
Neighbor list builds = 102
Dangerous builds = 0
unfix           NPT_TRACE
unfix           NPT_EQ
write_restart   ${output_restart}
write_restart   ec_dmc_3_7_lipf6_1m_tmspi_1wt_298K.npt.1.restart
System init for write_restart ...
PPPM initialization ...
  using 12-bit tables for long-range coulomb
  G vector (1/distance) = 0.20222081
  grid = 8 8 8
  stencil order = 5
  estimated absolute RMS force accuracy = 0.025462125
  estimated relative force accuracy = 7.6678432e-05
  using double precision FFTW3
  3d grid and FFT values/proc = 1053 128
Generated 45 of 45 mixed pair_coeff terms from arithmetic mixing rule
Total wall time: 0:00:35
