LAMMPS (22 Jul 2025 - Update 4)
# Restart continuation NPT chunk for composition tag=ec_dmc_3_7_lipf6_1m_tmspi_1wt_298K
# Generated by scripts/curate_ff_md_data.py

read_restart    ${input_restart}
read_restart    ec_dmc_3_7_lipf6_1m_tmspi_1wt_298K.npt.1.restart
Reading restart file ...
  restart file = 22 Jul 2025, LAMMPS = 22 Jul 2025
  restoring atom style full from restart
  orthogonal box = (-0.33705254 -0.34705254 -0.31905254) to (23.5866 23.5766 23.6046)
  1 by 1 by 1 MPI processor grid
  restoring pair style lj/cut/coul/long from restart
  restoring bond style harmonic from restart
  restoring angle style harmonic from restart
  restoring dihedral style opls from restart
  restoring improper style cvff from restart
  1059 atoms
  989 bonds
  1628 angles
  1557 dihedrals
  255 impropers
Finding 1-2 1-3 1-4 neighbors ...
  special bond factors lj:    0        0        0.5     
  special bond factors coul:  0        0        0.5     
     6 = max # of 1-2 neighbors
    10 = max # of 1-3 neighbors
    16 = max # of 1-4 neighbors
    18 = max # of special neighbors
  special bonds CPU = 0.001 seconds
  read_restart CPU = 0.006 seconds
kspace_style    pppm 1.0e-4
neighbor        2.0 bin
neigh_modify    every 1 delay 0 check yes
timestep        1.0

thermo_style    custom step time temp press vol density pe ke etotal
thermo          100
variable        tracked_temperature_K equal temp
variable        tracked_density_g_cm3 equal density
variable        tracked_volume_A3 equal vol
variable        tracked_pressure_atm equal press
fix             NPT_EQ all npt temp 298.15 298.15 100.0 iso 1.0 1.0 1000.0
fix             NPT_TRACE all ave/time 100 1 100 v_tracked_temperature_K v_tracked_density_g_cm3 v_tracked_volume_A3 v_tracked_pressure_atm file ${thermo_trace}
fix             NPT_TRACE all ave/time 100 1 100 v_tracked_temperature_K v_tracked_density_g_cm3 v_tracked_volume_A3 v_tracked_pressure_atm file npt_thermo.2.dat
run             5000
PPPM initialization ...
  using 12-bit tables for long-range coulomb
  G vector (1/distance) = 0.2012926
  grid = 8 8 8
  stencil order = 5
  estimated absolute RMS force accuracy = 0.026380574
  estimated relative force accuracy = 7.9444316e-05
  using double precision FFTW3
  3d grid and FFT values/proc = 2197 512
Generated 45 of 45 mixed pair_coeff terms from arithmetic mixing rule
Neighbor list info ...
  update: every = 1 steps, delay = 0 steps, check = yes
  max neighbors/atom: 2000, page size: 100000
  master list distance cutoff = 14
  ghost atom cutoff = 14
  binsize = 7, bins = 4 4 4
  1 neighbor lists, perpetual/occasional/extra = 1 0 0
  (1) pair lj/cut/coul/long, perpetual
      attributes: half, newton on
      pair build: half/bin/newton
      stencil: half/bin/3d
      bin: standard
Per MPI rank memory allocation (min/avg/max) = 24.85 | 24.85 | 24.85 Mbytes
   Step          Time           Temp          Press          Volume        Density         PotEng         KinEng         TotEng    
      6146   6146           297.41776      540.43483      13692.492      1.0863767      2076.1984      937.96552      3014.1639    
      6200   6200           308.00402      1410.1879      13688.32       1.0867078      2042.6741      971.35135      3014.0254    
      6300   6300           297.85677     -333.95353      13595.245      1.0941475      2047.4011      939.35         2986.7511    
      6400   6400           280.29465     -599.97534      13458.467      1.1052673      2046.6184      883.96442      2930.5828    
      6500   6500           286.41015     -251.37297      13341.179      1.1149841      2020.4227      903.25084      2923.6735    
      6600   6600           289.97221      2022.598       13230.14       1.1243421      2041.8456      914.4845       2956.3301    
      6700   6700           296.27012      1291.9941      13157.537      1.1305462      2044.2496      934.34621      2978.5958    
      6800   6800           298.64478     -1346.8805      13120.51       1.1337367      2054.5958      941.83515      2996.431     
      6900   6900           303.48396     -1278.5059      13157.47       1.130552       2041.8027      957.09646      2998.8991    
      7000   7000           287.30646     -129.4607       13228.786      1.1244572      2048.696       906.07755      2954.7736    
      7100   7100           294.43936     -1308.5118      13316.072      1.1170864      1998.1725      928.57254      2926.7451    
      7200   7200           286.52721     -1369.092       13359.296      1.1134721      2039.0059      903.62         2942.6259    
      7300   7300           307.86076     -1558.8018      13352.93       1.114003       2044.8535      970.89958      3015.7531    
      7400   7400           301.02636     -267.70127      13278.976      1.1202071      2053.4847      949.34593      3002.8307    
      7500   7500           288.05134      102.08968      13222.691      1.1249755      2061.1558      908.42667      2969.5824    
      7600   7600           300.38415      2444.0195      13211.806      1.1259023      1995.0211      947.32061      2942.3417    
      7700   7700           288.6424       217.67514      13236.591      1.1237941      2014.1807      910.29067      2924.4714    
      7800   7800           304.10741     -574.83855      13296.772      1.1187079      1996.8978      959.06264      2955.9604    
      7900   7900           306.01214     -777.56067      13320.149      1.1167445      2045.3041      965.06958      3010.3737    
      8000   8000           299.84578     -1091.3534      13320.064      1.1167516      2058.5191      945.62273      3004.1419    
      8100   8100           302.34993     -639.47975      13311.027      1.1175098      2016.0124      953.52007      2969.5325    
      8200   8200           289.22114      606.62016      13240.105      1.1234959      2024.0453      912.11585      2936.1612    
      8300   8300           290.07301      46.017138      13175.123      1.1290372      2030.9207      914.8024       2945.7231    
      8400   8400           303.47204     -373.74951      13145.526      1.1315792      2061.4199      957.05887      3018.4788    
      8500   8500           300.51209      402.6934       13171.506      1.1293472      2064.2551      947.7241       3011.9792    
      8600   8600           301.30768     -1067.57        13249.855      1.1226691      2013.408       950.23313      2963.6412    
      8700   8700           291.66472      1408.3208      13231.918      1.124191       2018.3293      919.82215      2938.1514    
      8800   8800           293.95212     -4.9438195      13184.628      1.1282232      2015.8502      927.03593      2942.8861    
      8900   8900           305.33619     -839.74447      13102.87       1.135263       1998.2852      962.93783      2961.2231    
      9000   9000           309.12233      236.36124      13085.792      1.1367446      2013.4207      974.87817      2988.2988    
      9100   9100           318.66426     -1141.8446      13198.495      1.1270378      1999.5652      1004.9705      3004.5357    
      9200   9200           299.02801      1430.9073      13253.599      1.122352       2016.755       943.04376      2959.7988    
      9300   9300           298.25411     -537.2734       13267.432      1.1211818      1995.9825      940.6031       2936.5856    
      9400   9400           296.19792      2917.0292      13213.33       1.1257725      2006.8745      934.1185       2940.993     
      9500   9500           311.1738       1816.5867      13197.706      1.1271052      1995.5376      981.3479       2976.8855    
      9600   9600           309.2045       324.64475      13217.245      1.125439       2032.26        975.13732      3007.3973    
      9700   9700           303.93249      255.60353      13216.076      1.1255386      2005.956       958.51098      2964.4669    
      9800   9800           299.51885     -234.34267      13211.393      1.1259375      1975.3339      944.59171      2919.9256    
      9900   9900           289.63605     -632.19438      13213.698      1.1257411      1999.1847      913.42436      2912.6091    
     10000   10000          298.73197      1145.8716      13238.51       1.1236312      1996.341       942.11013      2938.4511    
     10100   10100          307.88228     -887.15068      13275.739      1.1204802      2013.8057      970.96742      2984.7731    
     10200   10200          307.4509      -137.75433      13315.934      1.117098       2010.9863      969.60699      2980.5933    
     10300   10300          294.31316     -1002.8009      13355.306      1.1138047      2030.6521      928.17455      2958.8266    
     10400   10400          297.66652      1221.8035      13354.368      1.113883       2005.9667      938.75001      2944.7167    
     10500   10500          283.48198     -849.04923      13299.743      1.118458       2004.0669      894.01629      2898.0832    
     10600   10600          285.15861      1686.9256      13224.613      1.124812       1984.9567      899.30387      2884.2606    
     10700   10700          302.5967       1107.8544      13125.732      1.1332856      1972.4446      954.29833      2926.7429    
     10800   10800          308.369       -120.57008      12983.909      1.1456644      1991.1981      972.50241      2963.7005    
     10900   10900          297.51507      258.36475      12840.715      1.1584404      2031.285       938.27238      2969.5574    
     11000   11000          299.34339      2040.7984      12829.744      1.159431       1974.9699      944.03836      2919.0083    
     11100   11100          299.0432      -898.80874      12946.148      1.1490061      1935.4778      943.09165      2878.5694    
     11146   11146          282.47513      636.36158      12985.079      1.1455612      1990.4469      890.84097      2881.2879    
Loop time of 60.3693 on 1 procs for 5000 steps with 1059 atoms

Performance: 7.156 ns/day, 3.354 hours/ns, 82.824 timesteps/s, 87.710 katom-step/s
94.5% CPU use with 1 MPI tasks x no OpenMP threads

MPI task timing breakdown:
Section |  min time  |  avg time  |  max time  |%varavg| %total
---------------------------------------------------------------
Pair    | 52.024     | 52.024     | 52.024     |   0.0 | 86.18
Bond    | 2.4853     | 2.4853     | 2.4853     |   0.0 |  4.12
Kspace  | 2.406      | 2.406      | 2.406      |   0.0 |  3.99
Neigh   | 2.3833     | 2.3833     | 2.3833     |   0.0 |  3.95
Comm    | 0.2919     | 0.2919     | 0.2919     |   0.0 |  0.48
Output  | 0.0028722  | 0.0028722  | 0.0028722  |   0.0 |  0.00
Modify  | 0.69017    | 0.69017    | 0.69017    |   0.0 |  1.14
Other   |            | 0.0854     |            |       |  0.14

Nlocal:           1059 ave        1059 max        1059 min
Histogram: 1 0 0 0 0 0 0 0 0 0
Nghost:          10082 ave       10082 max       10082 min
Histogram: 1 0 0 0 0 0 0 0 0 0
Neighs:         496473 ave      496473 max      496473 min
Histogram: 1 0 0 0 0 0 0 0 0 0

Total # of neighbors = 496473
Ave neighs/atom = 468.81303
Ave special neighs/atom = 6.9556185
Neighbor list builds = 110
Dangerous builds = 0
unfix           NPT_TRACE
unfix           NPT_EQ
write_restart   ${output_restart}
write_restart   ec_dmc_3_7_lipf6_1m_tmspi_1wt_298K.npt.2.restart
System init for write_restart ...
PPPM initialization ...
  using 12-bit tables for long-range coulomb
  G vector (1/distance) = 0.2026227
  grid = 8 8 8
  stencil order = 5
  estimated absolute RMS force accuracy = 0.025072899
  estimated relative force accuracy = 7.5506291e-05
  using double precision FFTW3
  3d grid and FFT values/proc = 2197 512
Generated 45 of 45 mixed pair_coeff terms from arithmetic mixing rule
Total wall time: 0:01:00
