LAMMPS (22 Jul 2025 - Update 4)
# Restart continuation NPT chunk for composition tag=ec_dmc_3_7_lipf6_1m_tmspi_1wt_298K
# Generated by scripts/curate_ff_md_data.py

read_restart    ${input_restart}
read_restart    ec_dmc_3_7_lipf6_1m_tmspi_1wt_298K.npt.2.restart
Reading restart file ...
  restart file = 22 Jul 2025, LAMMPS = 22 Jul 2025
  restoring atom style full from restart
  orthogonal box = (-0.12739976 -0.13739976 -0.10939976) to (23.376948 23.366948 23.394948)
  1 by 1 by 1 MPI processor grid
  restoring pair style lj/cut/coul/long from restart
  restoring bond style harmonic from restart
  restoring angle style harmonic from restart
  restoring dihedral style opls from restart
  restoring improper style cvff from restart
  1059 atoms
  989 bonds
  1628 angles
  1557 dihedrals
  255 impropers
Finding 1-2 1-3 1-4 neighbors ...
  special bond factors lj:    0        0        0.5     
  special bond factors coul:  0        0        0.5     
     6 = max # of 1-2 neighbors
    10 = max # of 1-3 neighbors
    16 = max # of 1-4 neighbors
    18 = max # of special neighbors
  special bonds CPU = 0.001 seconds
  read_restart CPU = 0.005 seconds
kspace_style    pppm 1.0e-4
neighbor        2.0 bin
neigh_modify    every 1 delay 0 check yes
timestep        1.0

thermo_style    custom step time temp press vol density pe ke etotal
thermo          100
variable        tracked_temperature_K equal temp
variable        tracked_density_g_cm3 equal density
variable        tracked_volume_A3 equal vol
variable        tracked_pressure_atm equal press
fix             NPT_EQ all npt temp 298.15 298.15 100.0 iso 1.0 1.0 1000.0
fix             NPT_TRACE all ave/time 100 1 100 v_tracked_temperature_K v_tracked_density_g_cm3 v_tracked_volume_A3 v_tracked_pressure_atm file ${thermo_trace}
fix             NPT_TRACE all ave/time 100 1 100 v_tracked_temperature_K v_tracked_density_g_cm3 v_tracked_volume_A3 v_tracked_pressure_atm file npt_thermo.3.dat
run             5000
PPPM initialization ...
  using 12-bit tables for long-range coulomb
  G vector (1/distance) = 0.2026227
  grid = 8 8 8
  stencil order = 5
  estimated absolute RMS force accuracy = 0.025072899
  estimated relative force accuracy = 7.5506291e-05
  using double precision FFTW3
  3d grid and FFT values/proc = 2197 512
Generated 45 of 45 mixed pair_coeff terms from arithmetic mixing rule
Neighbor list info ...
  update: every = 1 steps, delay = 0 steps, check = yes
  max neighbors/atom: 2000, page size: 100000
  master list distance cutoff = 14
  ghost atom cutoff = 14
  binsize = 7, bins = 4 4 4
  1 neighbor lists, perpetual/occasional/extra = 1 0 0
  (1) pair lj/cut/coul/long, perpetual
      attributes: half, newton on
      pair build: half/bin/newton
      stencil: half/bin/3d
      bin: standard
Per MPI rank memory allocation (min/avg/max) = 25.25 | 25.25 | 25.25 Mbytes
   Step          Time           Temp          Press          Volume        Density         PotEng         KinEng         TotEng    
     11146   11146          282.47513      636.46584      12985.079      1.1455612      1990.4436      890.84097      2881.2846    
     11200   11200          296.72528     -837.57673      12969.803      1.1469105      1944.8106      935.78162      2880.5922    
     11300   11300          299.50371      489.27872      12923.155      1.1510504      1978.082       944.54396      2922.626     
     11400   11400          310.91923      295.85399      12914.84       1.1517915      1984.948       980.54506      2965.4931    
     11500   11500          306.9474       655.64745      12910.755      1.152156       1982.2723      968.01911      2950.2914    
     11600   11600          291.7371       1542.6274      12899.215      1.1531867      2006.8984      920.05043      2926.9489    
     11700   11700          300.38261      316.43378      12834.227      1.1590261      1949.907       947.31574      2897.2227    
     11800   11800          292.87855      985.69793      12755.138      1.1662127      1951.157       923.65021      2874.8072    
     11900   11900          291.58903      1423.0959      12687.728      1.1724088      1943.0089      919.58346      2862.5923    
     12000   12000          298.55389      1554.4756      12716.14       1.1697892      1974.8031      941.54851      2916.3516    
     12100   12100          300.39985     -706.99756      12827.468      1.1596368      2002.1768      947.37012      2949.5469    
     12200   12200          308.39383     -1182.5212      13020.102      1.1424798      1989.995       972.58072      2962.5758    
     12300   12300          289.01846     -2142.7033      13203.701      1.1265935      2019.5027      911.47665      2930.9794    
     12400   12400          291.95972      1511.5043      13355.357      1.1138005      1998.0118      920.7525       2918.7643    
     12500   12500          297.17589      1258.7136      13434.554      1.1072346      2043.3992      937.20273      2980.602     
     12600   12600          306.7845      -481.2919       13376.328      1.1120543      2038.3281      967.50535      3005.8334    
     12700   12700          300.13198     -579.36247      13243.696      1.1231913      2046.0082      946.52534      2992.5335    
     12800   12800          300.43997      115.09195      13135.502      1.1324427      1999.1029      947.49663      2946.5995    
     12900   12900          294.01828     -372.62215      13038.592      1.1408596      1986.9409      927.24459      2914.1855    
     13000   13000          295.45789      1111.4449      12995.482      1.1446442      1989.5231      931.78466      2921.3078    
     13100   13100          307.66124      3573.51        12991.855      1.1449638      1972.0514      970.27034      2942.3217    
     13200   13200          293.74355      253.11741      13065.946      1.1384712      2017.8038      926.37817      2944.182     
     13300   13300          285.31637     -2616.0985      13180.592      1.1285686      1984.7865      899.8014       2884.5879    
     13400   13400          282.61363     -3305.3465      13252.87       1.1224138      1967.7297      891.27777      2859.0074    
     13500   13500          296.15965     -2206.9915      13238.503      1.1236318      1961.9249      933.9978       2895.9227    
     13600   13600          299.64158      84.256035      13145.346      1.1315946      1977.7478      944.97877      2922.7266    
     13700   13700          290.57516     -183.52164      13044.121      1.1403761      2019.6769      916.38602      2936.0629    
     13800   13800          297.78591     -518.46802      12982.696      1.1457716      1999.726       939.12654      2938.8525    
     13900   13900          288.98217     -2022.377       12954.89       1.1482308      1975.4956      911.36221      2886.8578    
     14000   14000          280.34766      2874.4316      12918.217      1.1514905      1968.5105      884.13159      2852.642     
     14100   14100          299.81198     -1308.9624      12938.973      1.1496433      1942.1808      945.51616      2887.6969    
     14200   14200          294.80935     -1313.2627      12977.691      1.1462134      1987.5309      929.73936      2917.2703    
     14300   14300          289.32814     -1335.408       12991.809      1.1449678      2018.5255      912.45329      2930.9788    
     14400   14400          301.77014      470.19931      12983.805      1.1456737      1978.8501      951.6916       2930.5417    
     14500   14500          292.82025     -540.36453      13010.436      1.1433286      1996.3244      923.46636      2919.7908    
     14600   14600          291.32206     -192.45733      13036.392      1.1410521      1971.3621      918.74151      2890.1036    
     14700   14700          299.80855     -1769.6158      13040.591      1.1406847      1925.9546      945.50533      2871.46      
     14800   14800          305.07682     -4688.6568      12995.628      1.1446313      1934.2514      962.11988      2896.3713    
     14900   14900          307.47111      163.01617      12920.822      1.1512583      1981.0837      969.67072      2950.7545    
     15000   15000          302.37267      2372.516       12869.996      1.1558048      2006.4033      953.5918       2959.9951    
     15100   15100          298.47601      594.66617      12881.202      1.1547993      1985.8335      941.3029       2927.1364    
     15200   15200          289.03278     -180.51925      12898.279      1.1532704      1985.5451      911.52181      2897.0669    
     15300   15300          301.37999      264.98596      12963.201      1.1474946      1954.1319      950.46117      2904.593     
     15400   15400          302.52148     -2086.9447      13080.877      1.1371717      1966.8059      954.06109      2920.867     
     15500   15500          294.07718     -761.98267      13188.134      1.1279233      1996.1516      927.43032      2923.5819    
     15600   15600          289.55936      1319.8916      13197.418      1.1271298      1976.011       913.18249      2889.1935    
     15700   15700          280.63013     -807.3499       13129.432      1.1329662      1970.7612      885.02241      2855.7836    
     15800   15800          297.47125     -926.51577      12964.6        1.1473708      1937.04        938.1342       2875.1742    
     15900   15900          311.48573      1742.6416      12808.571      1.1613476      1925.9766      982.33164      2908.3082    
     16000   16000          311.01486     -906.94192      12780.008      1.1639432      1969.3641      980.84665      2950.2108    
     16100   16100          312.39744     -658.4649       12834.672      1.1589859      1956.4595      985.20689      2941.6664    
     16146   16146          296.05969      718.14371      12877.858      1.1550992      1970.5896      933.68257      2904.2722    
Loop time of 61.5514 on 1 procs for 5000 steps with 1059 atoms

Performance: 7.019 ns/day, 3.420 hours/ns, 81.233 timesteps/s, 86.026 katom-step/s
94.6% CPU use with 1 MPI tasks x no OpenMP threads

MPI task timing breakdown:
Section |  min time  |  avg time  |  max time  |%varavg| %total
---------------------------------------------------------------
Pair    | 53.32      | 53.32      | 53.32      |   0.0 | 86.63
Bond    | 2.4009     | 2.4009     | 2.4009     |   0.0 |  3.90
Kspace  | 2.4192     | 2.4192     | 2.4192     |   0.0 |  3.93
Neigh   | 2.3279     | 2.3279     | 2.3279     |   0.0 |  3.78
Comm    | 0.28956    | 0.28956    | 0.28956    |   0.0 |  0.47
Output  | 0.0023182  | 0.0023182  | 0.0023182  |   0.0 |  0.00
Modify  | 0.7073     | 0.7073     | 0.7073     |   0.0 |  1.15
Other   |            | 0.08396    |            |       |  0.14

Nlocal:           1059 ave        1059 max        1059 min
Histogram: 1 0 0 0 0 0 0 0 0 0
Nghost:          10136 ave       10136 max       10136 min
Histogram: 1 0 0 0 0 0 0 0 0 0
Neighs:         501195 ave      501195 max      501195 min
Histogram: 1 0 0 0 0 0 0 0 0 0

Total # of neighbors = 501195
Ave neighs/atom = 473.27195
Ave special neighs/atom = 6.9556185
Neighbor list builds = 106
Dangerous builds = 0
unfix           NPT_TRACE
unfix           NPT_EQ
write_restart   ${output_restart}
write_restart   ec_dmc_3_7_lipf6_1m_tmspi_1wt_298K.npt.3.restart
System init for write_restart ...
PPPM initialization ...
  using 12-bit tables for long-range coulomb
  G vector (1/distance) = 0.20283014
  grid = 8 8 8
  stencil order = 5
  estimated absolute RMS force accuracy = 0.024873964
  estimated relative force accuracy = 7.4907203e-05
  using double precision FFTW3
  3d grid and FFT values/proc = 2197 512
Generated 45 of 45 mixed pair_coeff terms from arithmetic mixing rule
Total wall time: 0:01:01
