LAMMPS (22 Jul 2025 - Update 4)
# Restart continuation NPT chunk for composition tag=ec_dmc_3_7_lipf6_1m_tmspi_1wt_298K
# Generated by scripts/curate_ff_md_data.py

read_restart    ${input_restart}
read_restart    ec_dmc_3_7_lipf6_1m_tmspi_1wt_298K.npt.3.restart
Reading restart file ...
  restart file = 22 Jul 2025, LAMMPS = 22 Jul 2025
  restoring atom style full from restart
  orthogonal box = (-0.094963442 -0.10496344 -0.076963442) to (23.344511 23.334511 23.362511)
  1 by 1 by 1 MPI processor grid
  restoring pair style lj/cut/coul/long from restart
  restoring bond style harmonic from restart
  restoring angle style harmonic from restart
  restoring dihedral style opls from restart
  restoring improper style cvff from restart
  1059 atoms
  989 bonds
  1628 angles
  1557 dihedrals
  255 impropers
Finding 1-2 1-3 1-4 neighbors ...
  special bond factors lj:    0        0        0.5     
  special bond factors coul:  0        0        0.5     
     6 = max # of 1-2 neighbors
    10 = max # of 1-3 neighbors
    16 = max # of 1-4 neighbors
    18 = max # of special neighbors
  special bonds CPU = 0.001 seconds
  read_restart CPU = 0.005 seconds
kspace_style    pppm 1.0e-4
neighbor        2.0 bin
neigh_modify    every 1 delay 0 check yes
timestep        1.0

thermo_style    custom step time temp press vol density pe ke etotal
thermo          100
variable        tracked_temperature_K equal temp
variable        tracked_density_g_cm3 equal density
variable        tracked_volume_A3 equal vol
variable        tracked_pressure_atm equal press
fix             NPT_EQ all npt temp 298.15 298.15 100.0 iso 1.0 1.0 1000.0
fix             NPT_TRACE all ave/time 100 1 100 v_tracked_temperature_K v_tracked_density_g_cm3 v_tracked_volume_A3 v_tracked_pressure_atm file ${thermo_trace}
fix             NPT_TRACE all ave/time 100 1 100 v_tracked_temperature_K v_tracked_density_g_cm3 v_tracked_volume_A3 v_tracked_pressure_atm file npt_thermo.4.dat
run             5000
PPPM initialization ...
  using 12-bit tables for long-range coulomb
  G vector (1/distance) = 0.20283014
  grid = 8 8 8
  stencil order = 5
  estimated absolute RMS force accuracy = 0.024873964
  estimated relative force accuracy = 7.4907203e-05
  using double precision FFTW3
  3d grid and FFT values/proc = 2197 512
Generated 45 of 45 mixed pair_coeff terms from arithmetic mixing rule
Neighbor list info ...
  update: every = 1 steps, delay = 0 steps, check = yes
  max neighbors/atom: 2000, page size: 100000
  master list distance cutoff = 14
  ghost atom cutoff = 14
  binsize = 7, bins = 4 4 4
  1 neighbor lists, perpetual/occasional/extra = 1 0 0
  (1) pair lj/cut/coul/long, perpetual
      attributes: half, newton on
      pair build: half/bin/newton
      stencil: half/bin/3d
      bin: standard
Per MPI rank memory allocation (min/avg/max) = 25.26 | 25.26 | 25.26 Mbytes
   Step          Time           Temp          Press          Volume        Density         PotEng         KinEng         TotEng    
     16146   16146          296.05969      718.28145      12877.858      1.1550992      1970.5946      933.68257      2904.2771    
     16200   16200          300.27076     -693.97997      12883.137      1.1546259      1951.5247      946.96301      2898.4877    
     16300   16300          284.56121      3010.0228      12922.405      1.1511173      1977.6302      897.41986      2875.0501    
     16400   16400          289.68969      152.14778      13008.041      1.1435391      1964.0033      913.59351      2877.5968    
     16500   16500          303.29377     -134.74087      13012.223      1.1431716      1969.8716      956.49667      2926.3683    
     16600   16600          304.3273      -856.31103      12960.256      1.1477554      1991.234       959.75611      2950.9901    
     16700   16700          298.0251       541.74764      12880.109      1.1548973      1993.7215      939.88087      2933.6024    
     16800   16800          287.20556      2214.0107      12840.186      1.1584881      1979.3434      905.75932      2885.1027    
     16900   16900          294.87578      3589.738       12819.422      1.1603646      1929.8782      929.94889      2859.8271    
     17000   17000          285.2198      -612.76684      12782.127      1.1637503      1978.1298      899.49682      2877.6266    
     17100   17100          313.57953     -3542.2892      12792.739      1.1627848      1968.1736      988.93482      2957.1084    
     17200   17200          307.43155     -318.9822       12851.616      1.1574578      1979.4052      969.54597      2948.9511    
     17300   17300          307.96745     -210.0909       12916.196      1.1516706      1940.6303      971.23602      2911.8663    
     17400   17400          288.32259      701.02159      12920.197      1.151314       1976.54        909.2821       2885.8221    
     17500   17500          298.99763      1896.344       12842.545      1.1582753      1943.8345      942.94794      2886.7824    
     17600   17600          310.76629      2327.6371      12720.796      1.169361       1963.3572      980.06273      2943.4199    
     17700   17700          306.23456     -2008.9058      12674.803      1.1736043      2004.7397      965.77101      2970.5107    
     17800   17800          297.78238      536.60184      12667.552      1.1742761      1981.7223      939.1154       2920.8377    
     17900   17900          300.49783      778.38877      12704.081      1.1708996      1945.933       947.67911      2893.6121    
     18000   18000          305.72137      2019.6346      12737.829      1.1677973      1912.976       964.15259      2877.1286    
     18100   18100          296.39124     -658.02096      12773.202      1.1645634      1935.565       934.72819      2870.2932    
     18200   18200          295.76383      262.20238      12732.506      1.1682856      1937.7281      932.74952      2870.4776    
     18300   18300          306.31001      320.23035      12722.84       1.1691732      1932.9793      966.00896      2898.9883    
     18400   18400          312.75398      820.5654       12773.346      1.1645502      1936.9881      986.33128      2923.3194    
     18500   18500          298.76105     -71.449178      12837.978      1.1586874      1955.872       942.20183      2898.0738    
     18600   18600          299.51676     -1893.423       12860.981      1.156615       1908.1095      944.58513      2852.6946    
     18700   18700          293.61368      2319.1594      12775.005      1.1643991      1930.5304      925.96859      2856.499     
     18800   18800          296.83949      852.48095      12601.981      1.1803861      1929.0055      936.14182      2865.1473    
     18900   18900          300.17373      3249.9141      12479.016      1.1920174      1929.9343      946.65701      2876.5913    
     19000   19000          300.57514      658.93719      12510.628      1.1890053      1938.1582      947.92293      2886.0811    
     19100   19100          293.93412      2387.326       12611.939      1.1794541      1965.5706      926.97916      2892.5497    
     19200   19200          299.24382     -1191.1636      12758.239      1.1659292      1934.938       943.72435      2878.6624    
     19300   19300          289.4882       2566.3323      12826.611      1.1597142      1943.7785      912.95809      2856.7366    
     19400   19400          297.05002      921.62309      12832.357      1.1591949      1920.6689      936.80577      2857.4747    
     19500   19500          298.4574       1056.2142      12806.26       1.1615572      1969.1073      941.24422      2910.3515    
     19600   19600          304.83724     -850.57524      12764.845      1.1653258      1968.4672      961.36429      2929.8315    
     19700   19700          298.70986     -690.73631      12727.928      1.1687058      1966.4162      942.0404       2908.4566    
     19800   19800          286.43435     -1480.3504      12707.737      1.1705627      1968.0367      903.32716      2871.3638    
     19900   19900          280.92256     -1466.0043      12714.091      1.1699777      1930.1547      885.94466      2816.0994    
     20000   20000          285.46662      2736.4252      12671.507      1.1739095      1903.4021      900.27524      2803.6774    
     20100   20100          294.82106      1172.7665      12570.94       1.1833008      1948.9874      929.77631      2878.7637    
     20200   20200          303.62396      654.30798      12480.552      1.1918706      1946.4954      957.53798      2904.0333    
     20300   20300          298.98209     -138.73362      12494.502      1.1905399      1951.255       942.89894      2894.154     
     20400   20400          288.74031      1751.7005      12579.622      1.1824841      1950.5593      910.59945      2861.1588    
     20500   20500          292.88502      305.41152      12638.428      1.1769821      1907.2109      923.67061      2830.8816    
     20600   20600          287.41045     -709.00694      12654.388      1.1754977      1939.8818      906.40548      2846.2873    
     20700   20700          310.07238     -836.01189      12628.136      1.1779414      1931.0366      977.87433      2908.9109    
     20800   20800          306.018       -703.04323      12584.92       1.1819863      1948.9053      965.08806      2913.9934    
     20900   20900          297.24666      1566.6399      12548.697      1.1853982      1948.3261      937.42591      2885.752     
     21000   21000          288.46695     -576.67896      12597.207      1.1808335      1947.4658      909.73736      2857.2032    
     21100   21100          291.45801      746.23749      12608.656      1.1797612      1914.7466      919.17026      2833.9169    
     21146   21146          295.83151      249.95325      12599.576      1.1806114      1902.4711      932.96294      2835.434     
Loop time of 62.9401 on 1 procs for 5000 steps with 1059 atoms

Performance: 6.864 ns/day, 3.497 hours/ns, 79.441 timesteps/s, 84.128 katom-step/s
95.9% CPU use with 1 MPI tasks x no OpenMP threads

MPI task timing breakdown:
Section |  min time  |  avg time  |  max time  |%varavg| %total
---------------------------------------------------------------
Pair    | 55.045     | 55.045     | 55.045     |   0.0 | 87.46
Bond    | 2.3796     | 2.3796     | 2.3796     |   0.0 |  3.78
Kspace  | 2.3656     | 2.3656     | 2.3656     |   0.0 |  3.76
Neigh   | 2.1157     | 2.1157     | 2.1157     |   0.0 |  3.36
Comm    | 0.28202    | 0.28202    | 0.28202    |   0.0 |  0.45
Output  | 0.0013332  | 0.0013332  | 0.0013332  |   0.0 |  0.00
Modify  | 0.66265    | 0.66265    | 0.66265    |   0.0 |  1.05
Other   |            | 0.08807    |            |       |  0.14

Nlocal:           1059 ave        1059 max        1059 min
Histogram: 1 0 0 0 0 0 0 0 0 0
Nghost:          10228 ave       10228 max       10228 min
Histogram: 1 0 0 0 0 0 0 0 0 0
Neighs:         511225 ave      511225 max      511225 min
Histogram: 1 0 0 0 0 0 0 0 0 0

Total # of neighbors = 511225
Ave neighs/atom = 482.74315
Ave special neighs/atom = 6.9556185
Neighbor list builds = 100
Dangerous builds = 0
unfix           NPT_TRACE
unfix           NPT_EQ
write_restart   ${output_restart}
write_restart   ec_dmc_3_7_lipf6_1m_tmspi_1wt_298K.npt.4.restart
System init for write_restart ...
PPPM initialization ...
  using 12-bit tables for long-range coulomb
  G vector (1/distance) = 0.20337611
  grid = 8 8 8
  stencil order = 5
  estimated absolute RMS force accuracy = 0.024356749
  estimated relative force accuracy = 7.3349627e-05
  using double precision FFTW3
  3d grid and FFT values/proc = 2197 512
Generated 45 of 45 mixed pair_coeff terms from arithmetic mixing rule
Total wall time: 0:01:02
