LAMMPS data file via write_data, version 22 Jul 2025, timestep = 15844, units = real

1014 atoms
8 atom types
944 bonds
6 bond types
1504 angles
7 angle types
1452 dihedrals
12 dihedral types
258 impropers
1 improper types

-0.21704743101583546 22.812339042015758 xlo xhi
-0.18504742205167624 22.844339052021333 ylo yhi
-0.22604742704942105 22.803339052049886 zlo zhi

Masses

1 12.01078
2 15.99943
3 12.01078
4 15.99943
5 1.007947
6 6.9412
7 18.998403
8 10.8117

Pair Coeffs # lj/cut/coul/long

1 0.108841 3.37953
2 0.168465 3.02511
3 0.0868793 3.48065
4 0.210206 3.03981
5 0.0164092 2.58323
6 0.0279896 1.82634
7 0.061 3.11993
8 0.095 3.42105

Bond Coeffs # harmonic

1 215.301 1.53363
2 227.037 1.43632
3 357.819 1.09421
4 291.342 1.35606
5 762.039 1.225
6 386.59 1.394

Angle Coeffs # harmonic

1 91.5186 108.173
2 66.7563 109.938
3 63.31 123.606
4 36.7766 108.354
5 119.896 112.874
6 84.5477 120.105
7 80.005 109.5

Dihedral Coeffs # opls

1 1 0.111303 3 0
2 1 0.438911 1 180
3 1 1.76361 2 180
4 1 -0.0153377 3 0
5 1 0.41915 2 0
6 1 0.131135 3 0
7 1 0.436547 1 0
8 1 0.263111 3 0
9 1 0.227995 3 0
10 1 0.302195 2 180
11 1 1.35005 1 180
12 1 3.48187 2 180

Improper Coeffs # cvff

1 4.30523 -1 2

Atoms # full

81 9 1 0.0955 5.466974010641197 2.701299964826796 5.31407876601259 0 0 0
82 9 1 0.0955 5.59048774128687 2.2981625784045563 3.897169016452401 0 0 0
84 9 3 0.8478 5.674675056045638 0.44785479544087936 5.099797364999323 0 0 0
86 9 2 -0.4048 5.5103728513833055 1.4912270756134318 6.043238437408105 0 0 0
87 9 5 0.0798 4.669689551667946 3.408531367314566 5.522819725852369 0 0 0
88 9 5 0.0798 6.388894288967501 3.3556336480426205 5.520362216768521 0 0 0
718 65 5 0.0582835 1.5929836371253556 4.036373859423725 5.056060888057774 0 0 0
714 65 1 0.1266165 0.5945495458210761 4.393197595299439 5.31910797234239 0 0 0
83 9 2 -0.4048 5.730448379085957 0.8929993801196883 3.8297883471571126 0 0 0
89 9 5 0.0798 4.584652845857848 2.3733444492933238 3.4184710163258583 0 0 0
90 9 5 0.0798 6.193511141158847 2.813290903063327 3.17354591688098 0 0 0
55 6 4 -0.5484 0.8975177989216314 0.2954945798291306 1.5327133450951747 0 0 1
54 6 3 0.8478 1.7785839327754123 0.9104052711830402 0.9820686074404013 0 0 1
57 6 5 0.0798 4.489336579418311 0.9977853712438509 0.07505903074342102 0 0 1
713 65 2 -0.3889835 0.62187693998159 4.846148510674967 6.697547095681997 0 0 0
730 66 5 0.0582835 6.365080484538932 5.854073288401619 4.201663680344564 0 0 0
416 40 5 0.0582835 0.966323711156895 4.592850777688736 0.5590138598347685 0 0 0
409 40 1 0.1266165 0.5655773859558796 5.569908770361933 0.1323102902255392 0 0 0
985 95 7 -0.5 3.3791136722480344 5.295183977813596 3.954449633861932 0 0 0
712 65 4 -0.5800835 1.7013875841089257 6.639875996893277 5.983926236724935 0 0 0
719 65 5 0.0582835 -0.06320594579085467 3.4984762777150764 5.246546516975637 0 0 0
720 65 5 0.0582835 0.14961745795008535 5.100849264385624 4.686448189517679 0 0 0
986 95 8 1 3.5868189909854324 6.3601938067557455 3.1384544489265913 0 0 0
465 44 5 0.0582835 3.360592566199637 0.347329395888189 7.477823497372085 0 0 0
53 6 2 -0.4048 2.055229023699494 2.168227770140905 1.2181250984129552 0 0 1
59 6 5 0.0798 3.9359773518271703 3.185608135140782 0.8033317265342019 0 0 1
726 66 1 0.1266165 7.242157603577261 6.5463021807561095 4.221078018749226 0 0 0
725 66 2 -0.3889835 7.895856943703906 6.325502156793161 5.576401834903884 0 0 0
988 95 7 -0.5 2.316814922045279 6.878595343381394 2.8175966601537374 0 0 0
987 95 7 -0.5 4.264504311328819 6.127698403940702 1.9693576203307908 0 0 0
415 40 5 0.0582835 0.824869250869289 6.329756529804361 0.7807530340921567 0 0 0
56 6 2 -0.4048 2.6052639409239133 0.35682474436707246 0.044233480865021546 0 0 1
52 6 1 0.0955 3.189635492543658 2.6148914652003654 0.39158961578242424 0 0 1
692 63 5 0.0582835 8.431355634495215 1.9262990635196084 3.339901471426397 0 0 1
693 63 5 0.0582835 9.000968335705652 0.7674486788233387 2.1319133116972178 0 0 1
685 63 1 0.1266165 8.766051045730817 1.80207608786751 2.326804455086853 0 0 1
686 63 2 -0.3889835 7.829959414894077 2.285553235687356 1.4090716258602867 0 0 1
724 66 4 -0.5800835 8.954617193293759 4.49116310769719 4.745002506428164 0 0 0
396 38 5 0.0582835 13.170793904986544 4.893970134213314 1.3365997505836493 0 0 1
395 38 5 0.0582835 13.137695115248757 4.670735218371056 3.0671621436097993 0 0 1
917 82 2 -0.3889835 11.550520490781325 0.8166445854323068 4.8644974022552985 0 0 0
924 82 5 0.0582835 13.055743384670512 0.6898192916708393 3.5021538005461954 0 0 0
394 38 5 0.0582835 12.930160803797696 6.26106398810456 2.3588994161770898 0 0 1
918 82 1 0.1266165 12.371464990194353 1.4361189776700465 3.848657483093115 0 0 0
922 82 5 0.0582835 11.67322253351315 1.7619953084363678 3.0355509471998583 0 0 0
923 82 5 0.0582835 13.029446152123784 2.206541414024742 4.280870578892304 0 0 0
389 38 2 -0.3889835 11.285719959013466 4.933654840922585 2.3481361580063482 0 0 1
390 38 1 0.1266165 12.686005827294661 5.21110228469334 2.270620020555909 0 0 1
723 66 3 0.7551165 8.765197010539987 5.247728069830844 5.716307502005179 0 0 0
387 38 3 0.7551165 10.519916539984209 5.469187374538993 1.360327126531748 0 0 1
386 38 2 -0.3889835 9.173010923149132 5.21086199864097 1.3668310987374077 0 0 1
385 38 1 0.1266165 8.462971206970076 5.863754259614476 0.2106045036669857 0 0 1
388 38 4 -0.5800835 11.053743251023281 6.16112129302601 0.4837627325245277 0 0 1
1003 98 7 -0.5 13.983902134882191 4.90118538850096 5.56941272372922 0 0 0
1001 98 8 1 14.204578322663727 5.183998486667515 6.911394196937025 0 0 0
691 63 5 0.0582835 9.711912750883506 2.384000395156217 2.1819966957348966 0 0 1
18 2 5 0.0798 11.573481787393497 6.349878674188419 5.037826269222102 0 0 0
384 37 5 0.0582835 14.605808475724226 2.3105775058428417 6.415234614164861 0 0 0
1004 98 7 -0.5 14.064725084207671 6.543928112960854 7.011137546463892 0 0 0
812 73 5 0.0582835 16.08636312711415 5.300614571290936 -0.009311334230830276 0 0 0
77 8 5 0.0798 15.014250636326418 9.028889981108644 4.553055952024827 0 0 0
729 66 5 0.0582835 9.587988858442795 3.0346390563503305 6.7517212287004895 0 0 0
727 66 5 0.0582835 10.967896061834391 4.097770029717567 6.245184711112993 0 0 0
1002 98 7 -0.5 15.446371934940291 4.913992488941593 7.3808188291892245 0 0 0
3 1 2 -0.4048 12.606509691934336 2.548703902703266 0.46057462375994307 0 0 1
9 1 5 0.0798 11.942766866930754 0.6273644694560262 1.058605264949805 0 0 1
10 1 5 0.0798 13.614335176853173 0.8779557464078966 0.6064722174625229 0 0 1
378 37 1 0.1266165 15.049108000019137 1.4415892011300624 6.754904376925021 0 0 0
383 37 5 0.0582835 15.694081276199638 1.1681321355026888 5.918713882371612 0 0 0
410 40 2 -0.3889835 22.178339775291878 5.477068290627654 0.04854358456865826 -1 0 0
78 8 5 0.0798 14.94382432596618 7.262372901018354 4.780154477483767 0 0 0
813 73 5 0.0582835 17.62742855241624 4.475385332759129 -0.06146192169548803 0 0 0
42 5 1 0.0955 20.84671888758091 3.415324656931692 2.0901584645249627 0 0 0
50 5 5 0.0798 20.06236016920619 4.131586915816902 2.3865172447944785 0 0 0
901 81 1 0.1266165 19.149309873494705 4.39720534240154 6.521834845260265 0 0 0
909 81 5 0.0582835 20.078203016365034 4.088786212460263 5.997379252272858 0 0 0
902 81 2 -0.3889835 17.972214558111734 3.535305365444332 6.218292230351284 0 0 0
903 81 3 0.7551165 17.595024031038005 3.6372496118960655 4.829353826028943 0 0 0
904 81 4 -0.5800835 18.24359575227955 4.388536503044535 4.1040915735209 0 0 0
907 81 5 0.0582835 18.9511200528629 5.444936357769865 6.204449939461016 0 0 0
910 81 5 0.0582835 16.994221014490318 2.6392382206082887 2.3396301214227506 0 0 0
905 81 2 -0.3889835 16.55983323346309 2.921915024493311 4.398097013364491 0 0 0
906 81 1 0.1266165 16.214521059225806 3.029536711432402 3.035225190344302 0 0 0
49 5 5 0.0798 21.779590861224733 3.9751977380676706 2.1396854001913863 0 0 0
43 5 2 -0.4048 20.64789461508282 2.320144332211058 3.06055852200578 0 0 0
44 5 3 0.8478 20.125348732187334 1.2102125838978104 2.293126424473512 0 0 0
911 81 5 0.0582835 15.343318704413349 2.393123744945756 2.846702308767703 0 0 0
912 81 5 0.0582835 15.936065507876783 4.073505910511995 2.7783403372211977 0 0 0
76 8 2 -0.4048 16.078340282938516 7.976777136415551 3.2006260712428785 0 0 0
71 8 1 0.0955 15.556936565155658 8.107834017513285 4.53836369733357 0 0 0
41 5 1 0.0955 20.440758920246214 2.8843187488235835 0.6978253291777503 0 0 0
47 5 5 0.0798 21.371556636530023 2.8613970687651675 0.10190959700710428 0 0 0
80 8 5 0.0798 16.942314638936818 7.293207049324494 5.9671839674550595 0 0 0
45 5 4 -0.5484 19.81897274528629 0.12029966319069624 2.7895756483114997 0 0 0
48 5 5 0.0798 19.74523211667699 3.6016419431003945 0.21164635123151276 0 0 0
74 8 3 0.8478 17.435436527538194 7.992076456597713 3.1991728941172317 0 0 0
75 8 4 -0.5484 18.010671609213368 7.895339256844002 2.1451694515550295 0 0 0
46 5 2 -0.4048 19.99025529525396 1.4927627960435483 0.9382244109327695 0 0 0
731 66 5 0.0582835 6.761775943072806 7.528385275843051 4.074058048229945 0 0 0
512 48 5 0.0582835 5.382956007494404 8.744575154131503 0.6716766449839533 0 0 0
989 95 7 -0.5 4.105135413928103 7.382584382329209 3.880773228394381 0 0 0
407 39 5 0.0582835 6.268198277835706 10.25688327969617 4.051496464308682 0 0 0
505 48 1 0.1266165 5.949805755959677 9.606060356241887 0.7607905910410683 0 0 0
762 69 1 0.1266165 2.2787203512669905 10.52454331354786 0.7740689810274262 0 0 0
767 69 5 0.0582835 2.9843507708553156 9.808341900852296 1.1080657528328481 0 0 0
766 69 5 0.0582835 1.581778582346645 10.17236593828007 0.003842949084662872 0 0 0
513 48 5 0.0582835 6.047968544198341 9.84970793552655 1.8472190350994833 0 0 0
973 87 6 1 2.4018297267202047 7.825072971175777 4.6356360001799874 0 0 0
1008 99 7 -0.5 1.0006829881170025 9.249607924709174 4.402797221483389 0 0 0
1009 99 7 -0.5 2.0331189487443746 11.267361000685675 4.448522097787499 0 0 0
1007 99 7 -0.5 2.59032267658441 9.417593316740172 5.721449209095719 0 0 0
1006 99 8 1 1.5443072301865381 10.179366790854452 5.264904783624975 0 0 0
768 69 5 0.0582835 1.7548524309027695 10.730192391935535 1.597447435985732 0 0 0
1005 99 7 -0.5 0.5171478387763475 10.47280776398942 6.196298068253295 0 0 0
506 48 2 -0.3889835 7.1641937432505305 9.646820085215262 0.008958679257254992 0 0 0
402 39 1 0.1266165 6.886442441418381 11.176071638357794 4.10095041995502 0 0 0
408 39 5 0.0582835 7.422482292564758 11.186493525812189 5.104547372161021 0 0 0
732 66 5 0.0582835 8.002186587194881 6.318159461191572 3.4269115300612603 0 0 0
392 38 5 0.0582835 7.393966521699005 5.60388983827407 0.21953478430577333 0 0 1
393 38 5 0.0582835 8.671317800783111 6.906181074693604 0.31376384614790154 0 0 1
17 2 5 0.0798 10.65217668121195 7.587083416095444 4.238127700570463 0 0 0
11 2 1 0.0955 11.390947140963007 7.446518921514429 5.070449519929754 0 0 0
12 2 1 0.0955 10.75189444376378 7.970109139220444 6.376049573008857 0 0 0
401 39 2 -0.3889835 7.756758832813854 11.317678011329505 2.9690807907455885 0 0 0
399 39 3 0.7551165 8.693343085951625 10.322963717883782 2.8035501953016864 0 0 0
400 39 4 -0.5800835 8.777795307934625 9.383999238813495 3.568108693282509 0 0 0
398 39 2 -0.3889835 9.552903978528072 10.405480692807986 1.7477691280175223 0 0 0
403 39 5 0.0582835 10.084159551714007 8.3587885674419 1.6201647239346761 0 0 0
397 39 1 0.1266165 10.510180681136168 9.357924075484243 1.6046744556020043 0 0 0
405 39 5 0.0582835 11.166983578172744 9.366260259010204 2.4901975468386306 0 0 0
404 39 5 0.0582835 11.134544813023354 9.536038930693167 0.7367882699025351 0 0 0
16 2 2 -0.4048 12.410172528701406 8.407236792528282 4.740594047356649 0 0 0
14 2 3 0.8478 12.389306670299648 9.389637335721158 5.7533069884725245 0 0 0
66 7 2 -0.4048 13.425601896606931 9.310640108504694 0.2519710771226684 0 0 0
15 2 4 -0.5484 13.140116138248674 10.38797564352517 5.8124899997242725 0 0 0
19 2 5 0.0798 9.690400061039927 7.993539456505395 6.419351470499345 0 0 0
13 2 2 -0.4048 11.440597492645642 9.16348896756285 6.696767598725192 0 0 0
61 7 1 0.0955 14.298397433464794 10.4254198589902 0.5678831903870248 0 0 0
73 8 2 -0.4048 17.891338554550174 8.144524242869418 4.539963444268787 0 0 0
72 8 1 0.0955 16.79300995895192 8.214192702368361 5.4209432945207725 0 0 0
79 8 5 0.0798 16.743622262658636 9.040435109855954 6.123266776178912 0 0 0
68 7 5 0.0798 14.38484294738307 10.478287269482555 1.6356118637282095 0 0 0
141 15 1 0.0955 21.662355201196473 10.083801936209639 2.073542902290312 -1 0 0
147 15 5 0.0798 21.237431031097653 9.722576219653835 1.1430840175175385 -1 0 0
148 15 5 0.0798 22.732680072110256 9.79128349994223 2.0908734835276124 -1 0 0
142 15 1 0.0955 21.091865374057097 9.413127249780084 3.282934891024676 -1 0 0
150 15 5 0.0798 21.42869892214151 8.47842697606084 3.632797514063775 -1 0 0
958 85 5 0.0582835 17.498274514879537 10.880673692988388 4.707689559398162 0 0 0
143 15 2 -0.4048 20.800459908225598 10.447865371624168 4.225613069971403 -1 0 0
149 15 5 0.0798 20.064320705675918 9.124962902969095 2.921647406312942 -1 0 0
70 7 5 0.0798 16.438261084270017 10.077995814627217 0.7255391248496771 0 0 0
62 7 1 0.0955 15.6323499382256 10.006996857163262 -0.013754368145641821 0 0 0
752 68 5 0.0582835 21.94312084963932 8.031510223760622 7.136452291156017 0 0 0
745 68 1 0.1266165 21.02367815919774 8.422236806010288 7.6527694540368545 0 0 0
753 68 5 0.0582835 20.630977433138682 9.139171326330114 6.899693570984849 0 0 0
464 44 5 0.0582835 2.890404883075768 1.851892531163656 8.196009110234266 0 0 0
711 65 3 0.7551165 1.2127260537129496 6.018424035317506 6.900529573239559 0 0 0
668 61 5 0.0582835 4.082726116510682 5.720265545382428 7.586341760471384 0 0 0
662 61 2 -0.3889835 5.2008978362185125 4.0648210392897095 8.08287313172364 0 0 0
665 61 2 -0.3889835 6.613660314021577 2.248896680325418 8.685802980859318 0 0 0
457 44 1 0.1266165 2.984675918812617 0.8352694167465273 8.480441042932783 0 0 0
664 61 4 -0.5800835 6.351868197051791 3.9470464213619296 10.09643734183735 0 0 0
710 65 2 -0.3889835 1.2393816642215976 6.483520896328342 8.19680016473402 0 0 0
158 16 5 0.0798 1.108744131738373 4.159420045962135 9.043726713214749 1 0 0
458 44 2 -0.3889835 3.932938206229359 0.6629266222337593 9.515034510608812 0 0 0
667 61 5 0.0582835 5.452671180039738 6.036440380826565 8.628468354563072 0 0 0
669 61 5 0.0582835 3.957035778873827 5.246290717460691 9.24351137923118 0 0 0
661 61 1 0.1266165 4.6284660465752605 5.3081644357138495 8.434739515530024 0 0 0
663 61 3 0.7551165 6.064938653401221 3.4489740725207687 8.994919922201007 0 0 0
157 16 5 0.0798 1.63904283056725 3.1368649973945866 10.392312023668614 1 0 0
670 61 5 0.0582835 6.9609021587940605 1.6493782212845687 10.64902317927635 0 0 0
151 16 1 0.0955 0.7789846769254613 3.390356286102237 9.771777271731423 1 0 0
463 44 5 0.0582835 2.0652466878219147 0.43017122455710166 8.773237243041732 0 0 0
559 52 5 0.0582835 1.1499196688799727 0.6591879469864862 11.123064240515873 1 0 0
671 61 5 0.0582835 7.773953648335931 0.6854574917518512 9.274308916246758 0 0 0
377 37 2 -0.3889835 14.088984690763024 0.4057326904030091 7.025223505074823 0 0 0
666 61 1 0.1266165 7.50920440072313 1.6470369462638776 9.691182894536107 0 0 0
721 66 1 0.1266165 10.165222714589246 3.9551007024877247 6.945860614050224 0 0 0
722 66 2 -0.3889835 9.316525982698439 5.071801407793328 6.918847776470727 0 0 0
672 61 5 0.0582835 8.308509903888654 2.2494631304375265 9.893851306292111 0 0 0
1000 98 7 -0.5 13.281711145480532 4.461330562835583 7.726593241782675 0 0 0
728 66 5 0.0582835 10.532101120855359 3.8704545198329487 7.919318282228158 0 0 0
379 37 5 0.0582835 10.795551327312454 1.2213939093457937 9.293327119982324 0 0 0
375 37 3 0.7551165 13.158688111829534 0.7290098147414071 8.022847913602385 0 0 0
974 88 6 1 13.76886145434599 3.4526415639700225 9.313245643320904 0 0 0
244 25 3 0.8478 13.031257810599158 6.166759829366617 10.467625550217091 0 0 0
245 25 4 -0.5484 13.600852443955759 5.150745828674302 10.11586595723278 0 0 0
376 37 4 -0.5800835 13.174890509312341 1.8178152732833164 8.626028838532564 0 0 0
105 11 4 -0.5484 12.005156956118213 2.7730834672992732 11.194489826310793 0 0 0
844 76 4 -0.5800835 15.098282032758771 3.065409519281975 10.64287401994855 0 0 0
243 25 2 -0.4048 13.692306157459985 7.206244211052751 10.999167904028564 0 0 0
246 25 2 -0.4048 11.686238175747121 6.320744647387356 10.375238296708046 0 0 0
373 37 1 0.1266165 11.295803127386952 0.2342090212175551 9.430254305259627 0 0 0
374 37 2 -0.3889835 12.238583472315604 -0.18469603658426564 8.339555609125945 0 0 0
381 37 5 0.0582835 11.745310315199177 0.18455464325419701 10.39556041568217 0 0 0
382 37 5 0.0582835 15.622813143171388 1.7579416385884916 7.6732987865258675 0 0 0
160 16 5 0.0798 -0.20968421775620788 5.267317432789513 10.626855677466677 1 0 0
156 16 2 -0.4048 0.18478892509406225 2.35565796415798 8.959408507317665 1 0 0
152 16 1 0.0955 22.731257730002664 4.221946569133763 10.403620784085374 0 0 0
908 81 5 0.0582835 19.313886825284918 4.3839164145231555 7.60766408918149 0 0 0
847 76 5 0.0582835 16.935412378211954 3.93636736386334 8.995023976983044 0 0 0
841 76 1 0.1266165 17.450522664639678 3.1436962538806914 9.588812797609965 0 0 0
842 76 2 -0.3889835 17.214500593966218 3.304633268212906 10.952902211799438 0 0 0
848 76 5 0.0582835 18.509585173712683 3.2927155536354333 9.424645644331314 0 0 0
849 76 5 0.0582835 17.126180816973104 2.1253260040195454 9.195801271854695 0 0 0
153 16 2 -0.4048 21.589137090608766 3.672097456857121 9.887561806403065 0 0 0
154 16 3 0.8478 21.903654308799776 2.582779473725665 9.067036715772966 0 0 0
155 16 4 -0.5484 21.051070248564805 1.9154019874083468 8.49959267939534 0 0 0
750 68 1 0.1266165 16.856999506032924 7.221376728843624 9.437045465956032 0 0 0
755 68 5 0.0582835 16.11375677293333 6.410273294593853 9.657270009566501 0 0 0
754 68 5 0.0582835 16.35460990556998 7.958448669401729 8.797260389903112 0 0 0
749 68 2 -0.3889835 18.100614467805674 6.792747475390004 8.829453841629173 0 0 0
716 65 5 0.0582835 1.6684207355684206 8.070128995229718 9.396498985285108 0 0 0
709 65 1 0.1266165 1.8670904102047552 7.716491329740649 8.388932197169442 0 0 0
717 65 5 0.0582835 2.9176434009411056 7.7362070762275765 8.19077118469542 0 0 0
964 86 4 -0.5800835 5.780048098039283 8.467918674995921 10.415486826404003 0 0 0
963 86 3 0.7551165 6.53961902893026 7.676990709054761 10.874872835500534 0 0 0
715 65 5 0.0582835 1.465254311690283 8.49418146248456 7.678862837723446 0 0 0
817 74 1 0.1266165 0.5484442779663133 11.287300665569335 11.206025804696699 0 0 0
818 74 2 -0.3889835 22.307125996983746 10.537697765614372 10.872682201575554 -1 0 0
334 33 5 0.0582835 6.526329889878868 10.97751646795142 9.471369333073882 0 0 0
20 2 5 0.0798 11.127470633798486 7.2806894428429985 7.159030848279757 0 0 0
969 86 5 0.0582835 7.190729475570494 7.83719491102908 8.257983989398753 0 0 0
247 25 5 0.0798 10.966780932208643 8.163970951634852 9.943476936949036 0 0 0
961 86 1 0.1266165 7.962693730619177 7.99959662449924 8.981585266081845 0 0 0
962 86 2 -0.3889835 7.748149354319752 7.302885747294922 10.233592245345502 0 0 0
967 86 5 0.0582835 8.063598182007985 9.036029976220824 9.225861072932071 0 0 0
249 25 5 0.0798 12.89577914323579 9.337082176633041 11.119516989522596 0 0 0
241 25 1 0.0955 11.341808586665987 7.6942228045034655 10.87592273979748 0 0 0
968 86 5 0.0582835 8.796181771476695 7.551176357115069 8.502708876973504 0 0 0
209 21 5 0.0798 10.836163787277547 11.089246189324632 8.460047407761012 0 0 0
210 21 5 0.0798 11.359601569338883 11.226744687673529 10.038882335659101 0 0 0
756 68 5 0.0582835 17.189711624162776 7.720051181965339 10.356155239348004 0 0 0
748 68 4 -0.5800835 18.689472449244807 8.948949180411608 8.73449781681482 0 0 0
747 68 3 0.7551165 18.97202351455666 7.748569391712734 8.515741562356313 0 0 0
751 68 5 0.0582835 21.384115696828257 8.956582818187321 8.538995788129807 0 0 0
370 36 5 0.0582835 16.564465162852358 10.165647071632582 8.140177339634645 0 0 0
363 36 3 0.7551165 15.730999766166791 10.655763557925301 10.863275800058302 0 0 0
365 36 2 -0.3889835 15.03498043346632 10.305721351985285 9.709204095387198 0 0 0
371 36 5 0.0582835 14.959362713352734 10.119026648865454 7.619101836664397 0 0 0
366 36 1 0.1266165 15.626666216887303 10.628280721921548 8.373274155959212 0 0 0
364 36 4 -0.5800835 16.839510607814855 11.217303132275534 10.88565887414944 0 0 0
746 68 2 -0.3889835 20.1349531743139 7.342923831416755 7.968506872936562 0 0 0
321 32 5 0.0582835 14.377213190249337 0.5535457847079263 10.650843972632291 0 1 0
322 32 5 0.0582835 19.21452245710811 -0.07174480415263179 8.902460517143249 0 1 0
687 63 3 0.7551165 8.142825845842113 2.1144683477755883 0.11356520173809664 0 0 1
2 1 1 0.0955 12.593839583961733 1.1660030137039172 0.3604672095853243 0 0 1
511 48 5 0.0582835 5.231312693855792 10.306015016107802 0.29918216603001846 0 0 0
420 40 5 0.0582835 19.500350923403722 8.2809426427211 -0.14809899160715725 -1 0 0
51 6 1 0.0955 3.5780299054168507 1.331610886222599 22.61941036766752 0 0 0
391 38 5 0.0582835 8.766071186513747 5.479113180943407 22.286411503350983 0 0 0
65 7 4 -0.5484 13.620095916080865 7.328354345121355 22.27751724403619 0 0 -1
809 73 2 -0.3889835 15.928938814731545 1.0121157246418067 22.435528060616008 0 0 -1
806 73 2 -0.3889835 15.912926268220268 3.294915542984165 22.69397445669977 0 0 -1
807 73 3 0.7551165 16.638552837746825 2.2053471397916824 22.276439066977396 0 0 -1
413 40 2 -0.3889835 20.171760154494752 6.407728051090779 22.58367332713383 -1 0 -1
64 7 3 0.8478 14.135699164951214 8.34185693753982 22.622929633548566 0 0 -1
63 7 2 -0.4048 15.4461857641358 8.715089487127676 22.457514648743597 0 0 -1
69 7 5 0.0798 15.844873685554973 10.61668277661379 22.104397373702305 0 0 -1
810 73 1 0.1266165 16.654522508028627 -0.16971491421096374 21.985123168650155 0 0 -1
434 42 2 -0.3889835 1.8100692918266152 5.01716799002752 12.961383236024048 0 0 0
435 42 3 0.7551165 2.8635503139578806 4.318699675243329 13.464110423234724 0 0 0
437 42 2 -0.3889835 3.3782868303313673 3.381809982796768 12.567830103009115 0 0 0
438 42 1 0.1266165 4.532845389186797 2.617838862868054 13.063784974422964 0 0 0
442 42 5 0.0582835 4.3140850019305 1.988529191389913 13.956392639614139 0 0 0
443 42 5 0.0582835 4.838158295785056 1.9315453140159158 12.245047822856812 0 0 0
444 42 5 0.0582835 5.3068144590787165 3.361949795925553 13.38737398784464 0 0 0
436 42 4 -0.5800835 3.3061781833117045 4.504124609400744 14.564182177372162 0 0 0
433 42 1 0.1266165 1.2306083697873509 6.0404112886566175 13.866136812803118 0 0 0
441 42 5 0.0582835 0.9869633394105031 5.592212945635314 14.84826496647291 0 0 0
554 52 2 -0.3889835 1.2816835257982082 0.9200585290829228 13.16710062414478 1 0 0
440 42 5 0.0582835 0.4226612574607077 6.45740350976702 13.372660912779692 0 0 0
971 86 5 0.0582835 5.1064588332189915 6.6713044032077935 13.714532795004528 0 0 0
439 42 5 0.0582835 1.9494367549933687 6.869281815120345 13.923095996555125 0 0 0
936 83 5 0.0582835 8.453265580710845 1.028361451655949 12.566853026145987 0 1 0
555 52 3 0.7551165 0.08822885812348236 1.6448030837509455 13.35898854228495 1 0 0
228 23 5 0.0798 7.493281425542041 4.983891580998797 14.632480223734031 0 0 0
227 23 5 0.0798 7.545621919347152 6.741750978607397 15.227820134178423 0 0 0
110 11 5 0.0798 8.902062164459865 5.323833684655258 11.753722948818526 0 0 0
109 11 5 0.0798 8.045812347904905 4.201433837602366 12.457540793700334 0 0 0
108 11 5 0.0798 10.04830778557162 5.666378674507926 13.724152248850762 0 0 0
107 11 5 0.0798 9.687732796718716 3.9583668838366197 14.16000232148926 0 0 0
850 76 5 0.0582835 13.876577045721266 2.465952550509367 12.630119813923656 0 0 0
852 76 5 0.0582835 13.95128163901259 4.300591138653044 12.577555127486981 0 0 0
102 11 1 0.0955 9.118077243415645 4.345890801332804 12.24533230070915 0 0 0
103 11 2 -0.4048 9.85314929015166 3.5587589072189223 11.299113261543564 0 0 0
104 11 3 0.8478 11.134707353733228 3.409871906201802 11.79642666375185 0 0 0
101 11 1 0.0955 10.046066213513878 4.633913223466239 13.393883362516336 0 0 0
106 11 2 -0.4048 11.298518749834106 4.027101066738874 13.016962678750538 0 0 0
846 76 1 0.1266165 14.394880139062963 3.374319395442659 13.101540130287887 0 0 0
851 76 5 0.0582835 14.263538244666792 3.371149411465622 14.202586732914448 0 0 0
927 83 3 0.7551165 10.763383251339167 0.35550730093259064 14.131933189129532 0 1 0
928 83 4 -0.5800835 11.269141827748962 0.7523002174013012 13.087932658791765 0 1 0
931 83 5 0.0582835 12.835269425469816 1.6978469930028388 14.96765338578447 0 1 0
884 79 5 0.0582835 13.812111077904188 5.891740922754876 14.242196505581184 0 0 0
877 79 1 0.1266165 14.664291285167478 6.48074516131508 14.2159376257732 0 0 0
885 79 5 0.0582835 14.537185452677416 7.184740743949923 15.01437685775155 0 0 0
883 79 5 0.0582835 14.68138025793959 6.936965441701736 13.22607373402495 0 0 0
926 83 2 -0.3889835 11.446140203403719 0.2542169991208791 15.340791318229668 0 1 0
933 83 5 0.0582835 13.3733905968181 -0.0056835414084504265 14.643812777253276 0 1 0
930 83 1 0.1266165 8.65607553706779 0.04969524059742164 12.91834573320795 0 1 0
992 96 7 -0.5 7.308742583973408 2.740358118581468 15.215648970763219 0 1 0
925 83 1 0.1266165 12.795508221968028 0.6296256077502731 15.292543414364614 0 1 0
932 83 5 0.0582835 13.175843402112195 0.635031974543641 16.330730242109446 0 1 0
159 16 5 0.0798 22.67038979436021 3.8785727733638087 11.476261801118714 0 0 0
845 76 2 -0.3889835 15.766841566423544 3.4359362288899127 12.696022511120235 0 0 0
843 76 3 0.7551165 15.973566683869489 3.2550165931287074 11.417997623974001 0 0 0
111 12 1 0.0955 17.162011735609113 0.7471553607478628 14.129561966679145 0 0 0
112 12 1 0.0955 18.199986827135497 1.8707992653030483 14.085950296632275 0 0 0
119 12 5 0.0798 18.724424847367832 2.021291438146742 13.075547935222785 0 0 0
120 12 5 0.0798 17.716439702103216 2.8006862365167966 14.316407101518283 0 0 0
556 52 4 -0.5800835 22.12750818382648 1.5401640150999913 12.621315010848619 0 0 0
564 52 5 0.0582835 21.90084772914 3.978935034782906 13.936850003920966 0 0 0
118 12 5 0.0798 16.18931444376309 1.1313040738218705 14.463965009857066 0 0 0
878 79 2 -0.3889835 15.797240471057545 5.650783960818146 14.44293854764982 0 0 0
879 79 3 0.7551165 16.972978354030353 6.300277545210878 14.448183584515924 0 0 0
880 79 4 -0.5800835 17.046189442179667 7.508223213464562 14.277352002301928 0 0 0
888 79 5 0.0582835 19.47203482401598 6.644830450140542 13.766264774612074 0 0 0
827 74 5 0.0582835 18.570894959637144 9.051469673317767 12.749072525881395 -1 0 0
970 86 5 0.0582835 4.329557412357849 7.2463112918864265 12.220728430114566 0 0 0
966 86 1 0.1266165 5.241366852952182 7.333221316541063 12.83809321855364 0 0 0
972 86 5 0.0582835 5.270995320178437 8.365244738996186 13.1777169112782 0 0 0
965 86 2 -0.3889835 6.39590065433194 7.02092961152323 12.079044120595023 0 0 0
823 74 5 0.0582835 1.2469725906214468 10.601338978335132 11.713937289718599 0 0 0
861 77 5 0.0582835 5.711439994307639 10.306805673317681 16.244491160886405 0 0 0
242 25 1 0.0955 12.67666121493053 8.239600571330152 11.315206136887749 0 0 0
250 25 5 0.0798 12.71659727990537 8.251561278007081 12.398677247644263 0 0 0
248 25 5 0.0798 10.557257127388711 7.644236246744691 11.565119559869807 0 0 0
997 97 7 -0.5 9.778570715963244 9.827163970522605 12.895974930662328 0 0 0
361 36 1 0.1266165 15.689712841981091 10.593030350161815 13.31577385927027 0 0 0
362 36 2 -0.3889835 15.068493753504812 10.313535881677788 12.025807010066396 0 0 0
369 36 5 0.0582835 16.521673838728837 9.883239755606322 13.484621130011858 0 0 0
368 36 5 0.0582835 14.973030341299433 10.406678176929027 14.169641776348666 0 0 0
998 97 7 -0.5 9.309683734248212 7.911484650184015 14.138519526646126 0 0 0
995 97 7 -0.5 9.99162950260761 9.719272368206274 15.238154428738548 0 0 0
996 97 8 1 9.303346427426552 9.279456832761792 14.141353163654271 0 0 0
999 97 7 -0.5 8.002048216404845 9.644725869676664 14.352010648649062 0 0 0
820 74 4 -0.5800835 21.74957961074317 10.912653530834687 13.00995478121583 -1 0 0
819 74 3 0.7551165 21.44259455969692 10.422113245125523 11.932594229210629 -1 0 0
826 74 5 0.0582835 18.951382932245206 10.71478920057426 13.078386878743157 -1 0 0
821 74 2 -0.3889835 20.236001230741756 9.777584463305812 11.73032409409951 -1 0 0
822 74 1 0.1266165 19.364005375094663 9.741500169272639 12.917763760044132 -1 0 0
828 74 5 0.0582835 19.92080817552894 9.320849214245088 13.783245020508152 -1 0 0
553 52 1 0.1266165 1.209767654106705 0.05913859714053052 11.996608249960493 1 0 0
929 83 2 -0.3889835 9.484209369047347 -0.021520564022546207 14.154221120919356 0 1 0
117 12 5 0.0798 17.065187360654914 0.20220991960609597 13.171831278473007 0 0 0
643 59 5 0.0582835 21.167210348460102 -0.15855157103535675 14.582917540617615 -1 1 0
417 40 5 0.0582835 0.9118922981274113 5.833658772318806 22.159861073492117 0 0 -1
557 52 2 -0.3889835 0.14773364274336548 2.430130302686657 14.444933109206028 1 0 0
58 6 5 0.0798 3.722913178808645 1.4156149938169766 21.552940667059694 0 0 0
548 51 5 0.0582835 5.353872665736442 5.415565930690026 21.885563224589497 0 0 0
991 96 8 1 6.827288975950144 1.691298566720306 15.987279048788006 0 1 0
990 96 7 -0.5 6.751227287908236 0.4264108820403487 15.380462815877102 0 1 0
632 58 5 0.0582835 2.3591073166096668 0.5771336718323178 17.221817866428097 0 0 0
993 96 7 -0.5 5.6705845346004615 1.9941232549908188 16.619059059760446 0 1 0
631 58 5 0.0582835 0.7326498891010196 0.9051829663230193 16.74383544826908 0 0 0
229 23 5 0.0798 5.581528959761458 6.363108053411382 16.242976812838684 0 0 0
222 23 1 0.0955 6.217400038376162 5.488789620350979 16.209934336063228 0 0 0
230 23 5 0.0798 5.630337213768456 4.670015162218255 15.800117715217139 0 0 0
223 23 2 -0.4048 6.697488920922751 5.172883825913358 17.52980630613007 0 0 0
626 58 2 -0.3889835 0.9383992601974742 0.7147081862322187 18.924547285498825 0 0 0
281 29 1 0.0955 3.4642743277552652 3.5470031184243807 18.434401056965513 0 0 0
287 29 5 0.0798 4.328496129068818 4.256150064025331 18.271863817591317 0 0 0
289 29 5 0.0798 2.459445574508799 4.867400018670955 17.303634931858326 0 0 0
625 58 1 0.1266165 1.2884947727771097 0.385574067362876 17.5510030485296 0 0 0
288 29 5 0.0798 3.740150775035609 2.4962368935499804 18.14002717684454 0 0 0
282 29 1 0.0955 2.3127262222735303 3.839583343157516 17.601330508134417 0 0 0
290 29 5 0.0798 2.1685045933280627 3.2789952073917523 16.652767463101625 0 0 0
549 51 5 0.0582835 5.720339049590265 6.0931266911862645 20.389979799509256 0 0 0
541 51 1 0.1266165 5.300131947574824 6.3590142383622235 21.316251395644855 0 0 0
283 29 2 -0.4048 1.158171860671254 3.890317928189458 18.52841545057852 0 0 0
547 51 5 0.0582835 5.912758714209637 7.1227513936097155 21.86374847399282 0 0 0
60 6 5 0.0798 2.7490727894974785 3.2211061413139723 22.67243901925049 0 0 0
627 58 3 0.7551165 22.767798381347593 0.22506521991411188 19.318942786591634 -1 0 0
286 29 2 -0.4048 2.990512839595103 3.4142910998864626 19.7849801008744 0 0 0
284 29 3 0.8478 1.6020849714065166 3.6320722273805983 19.776983667461643 0 0 0
136 14 2 -0.4048 0.24588033077196014 7.674982290775569 17.55246770305876 1 0 0
542 51 2 -0.3889835 4.001910836928602 6.847458810888163 21.1505425651927 0 0 0
137 14 5 0.0798 1.1470858219208264 7.154409072011514 19.32426970036169 1 0 0
221 23 1 0.0955 7.472568055651924 5.678374043158457 15.472437183974812 0 0 0
694 63 5 0.0582835 6.4417409554754865 2.8768362954046975 20.387585491138182 0 0 0
689 63 2 -0.3889835 7.170525176824578 2.5997671641707303 22.335648451685252 0 0 0
285 29 4 -0.5484 0.9736605790359685 3.573357809388641 20.837396933664586 0 0 0
131 14 1 0.0955 0.16952354105075268 7.404625269310307 18.980233083345006 1 0 0
543 51 3 0.7551165 3.852236632508588 8.032601324077776 20.55063635060627 0 0 0
688 63 4 -0.5800835 9.137550637262269 1.5995425272612962 22.704345633551398 0 0 0
225 23 4 -0.5484 8.812959168050078 4.921226821414967 18.501940443692256 0 0 0
226 23 2 -0.4048 8.5341769679858 5.452352393104699 16.334672997327843 0 0 0
224 23 3 0.8478 8.057275496205406 5.158279099204155 17.557679296307775 0 0 0
690 63 1 0.1266165 7.324197656772645 2.5172823357058998 20.8561631927561 0 0 0
696 63 5 0.0582835 7.327732208138374 1.4054314254309896 20.573370410392393 0 0 0
994 96 7 -0.5 7.757632497994095 1.4197812976766444 16.934991696800708 0 1 0
977 91 6 1 12.206014496988995 6.212928010673865 21.415847940383138 0 0 0
695 63 5 0.0582835 8.25151658449969 3.061758997176587 20.563689237433756 0 0 0
7 1 5 0.0798 11.381417353489306 0.20428204437762215 21.990300357316634 0 0 0
525 49 5 0.0582835 14.81813851453976 3.576382997096532 16.792012997843436 0 0 0
567 53 3 0.7551165 13.86677784509804 6.398714811780507 18.45187638115371 0 0 0
568 53 4 -0.5800835 13.367026949895324 6.417431977574245 19.5787204208317 0 0 0
569 53 2 -0.3889835 13.291822635520468 6.04729585594407 17.213187926642142 0 0 0
576 53 5 0.0582835 11.817671946615333 4.812615645465166 18.025743207898003 0 0 0
570 53 1 0.1266165 11.937612499030001 5.655917732450711 17.32858232651884 0 0 0
1 1 1 0.0955 12.361601173074238 0.7914092329161386 22.03306501569849 0 0 0
4 1 3 0.8478 12.396541337255606 3.0438388243227954 22.209495002108895 0 0 0
5 1 4 -0.5484 12.354571105747656 4.264302932182055 21.978366796899863 0 0 0
6 1 2 -0.4048 12.243142954549025 2.0230766528903663 21.33222633122297 0 0 0
575 53 5 0.0582835 11.651244280554595 5.379454830270318 16.26911073774349 0 0 0
574 53 5 0.0582835 11.390931803474642 6.571705019586999 17.718026742379962 0 0 0
8 1 5 0.0798 13.125769045471987 0.051841314521483245 21.76442651409043 0 0 0
520 49 4 -0.5800835 14.611017946704413 1.4324738784856694 18.43266577959519 0 0 0
808 73 4 -0.5800835 17.809570431910647 2.276896532046067 21.826181577627565 0 0 -1
805 73 1 0.1266165 16.641204118589858 4.509728559042264 22.528287560455894 0 0 -1
811 73 5 0.0582835 16.831072706167028 4.743345007053875 21.49852581068371 0 0 -1
411 40 3 0.7551165 21.536359585583874 6.589154265500158 22.6359965684206 -1 0 -1
558 52 1 0.1266165 21.95579634239212 3.200155676180614 14.690748070786066 0 0 0
517 49 1 0.1266165 15.802388327785117 3.489656170961733 17.215984392881573 0 0 0
524 49 5 0.0582835 16.482458615197995 4.1099436218897925 16.652263937826916 0 0 0
523 49 5 0.0582835 15.814856342134277 3.843403528239773 18.24414388616544 0 0 0
563 52 5 0.0582835 22.008639782257937 3.7421344087303194 15.617452767993969 0 0 0
562 52 5 0.0582835 21.082327283304384 2.5285728690191145 14.716860741936326 0 0 0
571 53 5 0.0582835 15.850581510318037 6.374646585680261 20.17085937993317 0 0 0
566 53 2 -0.3889835 15.149950912111649 6.764548120265508 18.197396768387947 0 0 0
518 49 2 -0.3889835 16.319758138194494 2.1437586918846576 17.143568325515943 0 0 0
519 49 3 0.7551165 15.622894564555036 1.207711338911704 17.810223544643364 0 0 0
235 24 4 -0.5484 18.030366057615037 5.382406281679046 18.263163221162166 0 0 -1
114 12 3 0.8478 18.73488315047445 0.3188513226239065 15.724264869192504 0 0 0
113 12 2 -0.4048 19.13196132693143 1.5259367151607413 15.10810741110269 0 0 0
565 53 1 0.1266165 15.901996990471332 7.202620907386508 19.378219795590766 0 0 0
232 24 1 0.0955 20.229780235658552 3.363863794695603 19.9955437491734 0 0 -1
239 24 5 0.0798 20.000210236722474 2.538008098280746 20.646931607934526 0 0 -1
234 24 3 0.8478 18.84836787454402 4.580582818220102 18.627775413125704 0 0 -1
231 24 1 0.0955 20.439644262734515 2.8996384104903177 18.605695050089366 0 0 -1
236 24 2 -0.4048 19.573833865345428 3.695907654286362 17.794258214061735 0 0 -1
881 79 2 -0.3889835 18.020862558552178 5.487063175652257 14.664320645779057 0 0 0
882 79 1 0.1266165 19.32780390093384 6.1498570790201175 14.702475568740311 0 0 0
886 79 5 0.0582835 19.39334479150097 6.935932542658479 15.480150778117592 0 0 0
887 79 5 0.0582835 20.048301923036483 5.33740083444583 14.823040572948939 0 0 0
233 24 2 -0.4048 19.19477653098552 4.419117783169986 19.959133959877875 0 0 -1
240 24 5 0.0798 21.17011725933925 3.8521509438392263 20.388072711470905 0 0 -1
135 14 4 -0.5484 22.02396057986174 6.9283803910306165 15.755538679784436 0 0 0
134 14 3 0.8478 22.317279125641864 6.9855248190868835 16.944965370310932 0 0 0
133 14 2 -0.4048 21.62400855540423 6.2248008406884345 17.810818787242688 0 0 0
237 24 5 0.0798 20.11920204047833 1.8773341391333993 18.575728690992108 0 0 -1
238 24 5 0.0798 21.43494656914842 2.842500361436687 18.26549012373463 0 0 -1
132 14 1 0.0955 22.094295787230187 6.435274495790246 19.149269997548217 0 0 0
139 14 5 0.0798 22.284884899932376 5.519409482953741 19.720407267927385 0 0 0
419 40 5 0.0582835 18.27689874263663 7.054053504160375 22.248826079841145 -1 0 -1
414 40 1 0.1266165 19.358665482704954 7.4221839150686515 22.177352024941086 -1 0 -1
418 40 5 0.0582835 19.484135301778025 7.716080616416225 21.159291814468084 -1 0 -1
636 58 5 0.0582835 20.334599648172937 0.5510340901505993 20.547359253254378 -1 0 0
138 14 5 0.0798 0.05252269667724607 8.359970120778826 19.461802107699498 1 0 0
863 77 5 0.0582835 0.10750431665767979 9.393315897882358 14.403923399414928 0 0 0
862 77 5 0.0582835 0.9828157091128162 11.013362190412668 14.626428373649112 0 0 0
858 77 1 0.1266165 0.8562565788745569 9.949843968596086 15.022522817719052 0 0 0
857 77 2 -0.3889835 2.0588011252811964 9.16695556891228 14.989548114194701 0 0 0
860 77 5 0.0582835 6.153341700050926 8.65489127933973 16.480731294605945 0 0 0
856 77 4 -0.5800835 2.9736386356188036 10.651526636246677 16.443960901506763 0 0 0
864 77 5 0.0582835 0.5657927975860173 10.079827176089408 16.107364885195146 0 0 0
855 77 3 0.7551165 3.066046704303901 9.627171060916485 15.75235465394687 0 0 0
854 77 2 -0.3889835 4.220432542202453 8.887003580037717 15.734040559246724 0 0 0
853 77 1 0.1266165 5.330278427482295 9.327782628015694 16.53495410004499 0 0 0
859 77 5 0.0582835 5.0407376197366895 9.41934879260278 17.576353018358823 0 0 0
544 51 4 -0.5800835 4.8564185562644715 8.639986032715367 20.16024664009312 0 0 0
552 51 5 0.0582835 2.8809773749403855 10.425374454391724 20.430776327246754 0 0 0
546 51 1 0.1266165 2.479597188199635 9.745798503806043 19.724729355208297 0 0 0
545 51 2 -0.3889835 2.556274784923058 8.487897012226792 20.373672668512448 0 0 0
551 51 5 0.0582835 1.4392069037045547 10.103276457496863 19.69977477951152 0 0 0
550 51 5 0.0582835 2.949970511005406 9.717921566680193 18.725119246027084 0 0 0
787 71 5 0.0582835 4.608983473775718 11.287887078265555 19.464284009655678 0 0 0
197 20 5 0.0798 7.4008360174992305 8.305423965742033 18.647954183462204 0 0 0
198 20 5 0.0798 7.071061577305664 9.517197148369242 19.920379578393145 0 0 0
507 48 3 0.7551165 7.669996769061988 10.86036087845105 22.686156347798388 0 0 -1
509 48 2 -0.3889835 8.873228307848738 10.822217006050879 21.924669422869442 0 0 -1
195 20 4 -0.5484 10.658856648865715 7.327026133662448 20.88550806815821 0 0 0
191 20 1 0.0955 7.853487436661558 8.843627212931557 19.54109024398921 0 0 0
196 20 2 -0.4048 8.469722638405289 7.91839072641357 20.445624638950136 0 0 0
200 20 5 0.0798 9.044265072645526 10.56726420829256 19.28055976557856 0 0 0
192 20 1 0.0955 9.062693435773209 9.563791453214549 18.818524753606624 0 0 0
199 20 5 0.0798 9.0523378081849 9.632940298390501 17.731855637678976 0 0 0
194 20 3 0.8478 9.886102809011117 8.042775040534146 20.23998167422311 0 0 0
215 22 4 -0.5484 13.953926418097078 10.655561515788115 20.28622887889233 0 0 0
193 20 2 -0.4048 10.278847182835378 8.98565101902495 19.288167451381874 0 0 0
211 22 1 0.0955 12.312659634614654 11.153757049805254 17.297432555844225 0 0 0
212 22 1 0.0955 12.904508203329824 9.753669451141173 17.07514847349327 0 0 0
213 22 2 -0.4048 13.588264666881216 9.519095117223566 18.30535356496633 0 0 0
214 22 3 0.8478 13.465698890937455 10.60990412839516 19.173742977545814 0 0 0
217 22 5 0.0798 11.191514781646536 11.07185916364156 17.309869349376783 0 0 0
219 22 5 0.0798 11.986587907298006 9.125968633665847 17.01006887405007 0 0 0
220 22 5 0.0798 13.55438473525223 9.686639635375581 16.179860957878624 0 0 0
412 40 4 -0.5800835 22.068707589309707 7.682102085705899 22.30050055271237 -1 0 -1
572 53 5 0.0582835 16.883463569575845 7.533105314178984 19.127064631394624 0 0 0
140 14 5 0.0798 21.390910433426285 6.956483183143716 19.794070216556513 0 0 0
573 53 5 0.0582835 15.3594010957427 8.15243296615885 19.77826159425542 0 0 0
296 30 2 -0.4048 19.59496199371387 10.759483389471791 22.341765200630526 0 0 -1
255 26 4 -0.5484 21.30366998579628 10.038293633169594 18.165175429062778 -1 0 0
291 30 1 0.0955 20.53465784873118 11.11515034307388 21.22206640396157 0 0 -1
297 30 5 0.0798 21.653395678765232 10.870870111676991 21.292412947990265 0 0 -1
705 64 5 0.0582835 16.50910462025811 8.739060101848116 16.71106131734922 0 0 0
704 64 5 0.0582835 18.009238149465762 8.087072768162532 17.244239192696632 0 0 0
698 64 2 -0.3889835 17.447912072702138 9.954546448237156 18.143282626404243 0 0 0
697 64 1 0.1266165 17.508657680444017 8.965408020355625 17.040347904614507 0 0 0
699 64 3 0.7551165 16.781775101756732 11.125953915450193 17.962457978590173 0 0 0
298 30 5 0.0798 20.1673254795479 10.620966837518457 20.31375788520934 0 0 -1
703 64 5 0.0582835 18.00654365984249 9.429667466285714 16.186060679102567 0 0 0
254 26 3 0.8478 20.995517626989702 11.058294453638812 17.572637023151465 -1 0 0
256 26 2 -0.4048 20.062290752734544 11.129849400236196 16.569939457811053 -1 0 0
629 58 2 -0.3889835 22.383685411749216 0.4731266129338848 20.572952405206586 -1 0 0
535 50 5 0.0582835 9.547701126183583 1.928266037777639 19.056256831659837 0 1 0
529 50 1 0.1266165 10.57159776054891 1.8992924187471738 18.592715195232785 0 1 0
530 50 2 -0.3889835 11.170736651387816 0.6814938756790752 19.05038573652969 0 1 0
536 50 5 0.0582835 11.109779570427404 2.7250338219287458 18.969517670887036 0 1 0
537 50 5 0.0582835 10.354699987632925 1.902142557310071 17.554544313209973 0 1 0
116 12 2 -0.4048 17.612260689059244 -0.1676137660386724 15.19726283716546 0 0 0
521 49 2 -0.3889835 16.097741205043135 -0.06841111350708662 17.742003803049762 0 0 0
816 73 5 0.0582835 16.885549012000737 0.05188295324957248 20.936475875922284 0 0 -1
635 58 5 0.0582835 21.00184593898545 0.19651746146511428 21.981345604894933 -1 0 0
630 58 1 0.1266165 21.10399094483338 -0.0549095508665233 20.929324000658404 -1 0 0
424 41 4 -0.5800835 0.25550300966906275 22.099823145674108 6.240684604640874 0 -1 0
429 41 5 0.0582835 22.032262316111858 21.920515855116058 3.8973573134943384 -1 -1 0
421 41 1 0.1266165 22.451568294362165 20.915491463148975 4.081943444160426 -1 -1 0
427 41 5 0.0582835 0.47753180274978346 20.812767899459494 3.941888420913245 0 -1 0
423 41 3 0.7551165 22.552559465807395 21.129308341740767 6.429262646696664 -1 -1 0
915 82 3 0.7551165 10.849342843991478 22.824881010041004 4.371984787170432 0 -1 0
681 62 5 0.0582835 14.378764633634537 22.247889986583637 2.3453902200876966 0 0 0
430 41 5 0.0582835 22.403959435977416 22.506903716647223 8.889170945708706 -1 -1 0
835 75 5 0.0582835 17.719720667331973 22.335147814173716 5.038434694103117 0 0 0
590 55 2 -0.3889835 2.1629214648834707 15.244210916000776 1.7215706227027765 0 0 0
589 55 1 0.1266165 3.3661639878456127 14.479961141507957 2.1900066693956783 0 0 0
596 55 5 0.0582835 3.1193130274038032 13.446948588137012 2.1815599979160667 0 0 0
597 55 5 0.0582835 4.2319522917165315 14.663337526784748 1.4864353634556027 0 0 0
595 55 5 0.0582835 3.6381186751167274 14.79082038038733 3.197291750654515 0 0 0
947 84 5 0.0582835 2.9657165658516003 12.80489382242968 5.890294814345492 0 0 0
875 78 5 0.0582835 1.6220023885297954 15.167109241966415 4.348762631860153 0 0 0
761 69 2 -0.3889835 2.9429367416860797 11.717048023616234 0.13567277355070329 0 0 0
940 84 4 -0.5800835 5.059484485331782 14.514018652775627 5.386013843116862 0 0 0
939 84 3 0.7551165 4.7010040871649945 14.77610237599757 6.52991176863326 0 0 0
406 39 5 0.0582835 6.132973725421502 11.949118410094693 4.1500247741290295 0 0 0
190 19 5 0.0798 6.520983768284125 15.139820868686698 2.7109882154717 0 0 0
182 19 1 0.0955 7.242093705211537 15.920638813826367 2.57101472961321 0 0 0
946 84 5 0.0582835 3.0850483188551365 12.133064140581684 7.557621600038612 0 0 0
942 84 1 0.1266165 3.6217213941066912 12.663144615707285 6.778728122294546 0 0 0
948 84 5 0.0582835 4.4938487833682705 12.07984921479267 6.4458756029190765 0 0 0
941 84 2 -0.3889835 4.008670880437512 13.972365154207854 7.312290638148284 0 0 0
331 33 5 0.0582835 7.485095623758436 14.411328216923726 5.853819701754049 0 0 0
188 19 5 0.0798 8.778466306919022 14.13618542122372 2.332725685510443 0 0 0
325 33 1 0.1266165 8.378096771887614 14.237239661820286 6.496948671513844 0 0 0
326 33 2 -0.3889835 7.891866947864214 14.205716213548591 7.765485510365994 0 0 0
333 33 5 0.0582835 8.914053458177936 13.37130070911448 6.1633414170515985 0 0 0
181 19 1 0.0955 8.705304408981428 15.284644809429185 2.234894641104002 0 0 0
187 19 5 0.0798 8.948464064017623 15.45959746007812 1.14951047770952 0 0 0
328 33 4 -0.5800835 6.967241406054821 12.235807349790255 7.213036494702027 0 0 0
207 21 5 0.0798 12.52340612693734 12.655240220783957 7.9929713050869164 0 0 0
67 7 5 0.0798 13.919835490894185 11.427048452849705 0.20110354388626583 0 0 0
959 85 5 0.0582835 16.137670823660052 11.583202868575718 3.719824668012953 0 0 0
960 85 5 0.0582835 17.715943475569198 12.432017465749862 3.8117523840803083 0 0 0
346 34 5 0.0582835 0.19838450622839732 12.814403261912487 6.870586422338001 0 0 0
954 85 1 0.1266165 17.017755069042913 11.798993245908893 4.38451772746452 0 0 0
146 15 2 -0.4048 21.6751521017724 11.46261059370661 2.287679611482545 -1 0 0
295 30 4 -0.5484 17.983677329271178 11.863427636400601 0.4184688142536226 0 0 0
144 15 3 0.8478 21.153842876752346 11.611180040418052 3.599848201868358 -1 0 0
145 15 4 -0.5484 21.036487498137422 12.7333659720829 4.101792146951768 -1 0 0
953 85 2 -0.3889835 16.581129715513256 12.510654717593894 5.552212066921329 0 0 0
952 85 4 -0.5800835 18.794660523977672 12.987513509661428 6.055036702208288 0 0 0
348 34 5 0.0582835 21.49305565446492 12.25223714322412 7.058086743004163 -1 0 0
951 85 3 0.7551165 17.580074877690414 13.099238926200618 6.3618988163840475 0 0 0
342 34 1 0.1266165 22.39318905287272 12.648236744133655 7.544048049775069 -1 0 0
780 70 5 0.0582835 -0.12324856183974475 14.351410736839417 1.7073394493363574 1 0 0
774 70 1 0.1266165 21.983209981332553 14.51851069068832 1.1532528601838081 0 0 0
778 70 5 0.0582835 21.285827487274634 13.774078535957438 1.5102251731811023 0 0 0
779 70 5 0.0582835 22.280325264226615 14.437788352318425 0.07326487574528917 0 0 0
975 89 6 1 20.233515210393882 14.264596667605398 5.119967287477167 0 0 0
189 19 5 0.0798 6.873838491008748 16.43373616841818 1.66109606371023 0 0 0
85 9 4 -0.5484 5.758292745711459 22.294404767189327 5.420289357906872 0 -1 0
591 55 3 0.7551165 2.332322139721295 16.613036386973484 1.7230980473789517 0 0 0
593 55 2 -0.3889835 1.2843877404720792 17.36319173623501 1.3092762330239411 0 0 0
870 78 1 0.1266165 1.4984797338154519 15.840156037677856 5.1710944313172105 0 0 0
874 78 5 0.0582835 0.44511103303174104 16.2184594328915 5.100168370200983 0 0 0
876 78 5 0.0582835 1.6470803016221096 15.380644741280218 6.1665943630837665 0 0 0
422 41 2 -0.3889835 22.050327938281587 20.421643913842047 5.3875184750304115 -1 -1 0
428 41 5 0.0582835 22.13029591848348 20.324612403465963 3.307845359840219 -1 -1 0
592 55 4 -0.5800835 3.39067157314379 17.138706389189593 2.089604517571912 0 0 0
872 78 5 0.0582835 3.8673941243843073 20.56104340581991 6.865722386714523 0 0 0
37 4 5 0.0798 4.667488400396335 21.65974937995297 2.8580442287038337 0 -1 0
38 4 5 0.0798 3.382298877746 20.35495658689738 3.119198625645487 0 -1 0
31 4 1 0.0955 4.380418236252064 20.56978107271533 2.6551733873977827 0 -1 0
865 78 1 0.1266165 3.084020027481631 19.928222784438823 7.193553888854001 0 0 0
40 4 5 0.0798 4.935606898372745 19.0578143149884 4.0406818348964135 0 -1 0
32 4 1 0.0955 5.4628718812679 19.76457912974581 3.371081204959369 0 -1 0
594 55 1 0.1266165 1.446318580732669 18.804757652116002 1.301356070617255 0 0 0
598 55 5 0.0582835 2.2244586875733967 19.140502994215915 0.608898724376949 0 0 0
599 55 5 0.0582835 0.4675403169548351 19.32529791457901 1.1454490257210237 0 0 0
600 55 5 0.0582835 1.5967033342053858 19.191891364183284 2.2695667005304867 0 0 0
866 78 2 -0.3889835 3.062017885923955 18.927656008617042 6.062634153153179 0 0 0
867 78 3 0.7551165 2.301527023858435 17.86627867175379 6.17215599338951 0 0 0
868 78 4 -0.5800835 1.6080869440613017 17.632080126912612 7.138304809795927 0 0 0
873 78 5 0.0582835 2.092804892324463 20.46586727235227 7.200680125219424 0 0 0
33 4 2 -0.4048 6.168032066668452 19.039450325000736 2.3780346894803217 0 -1 0
869 78 2 -0.3889835 2.328435397326449 17.016394657618328 5.066876643830665 0 0 0
36 4 2 -0.4048 4.509365865380786 20.227734598732667 1.2525987026033016 0 -1 0
34 4 3 0.8478 5.576009295831248 19.342160234857637 1.1591553634226461 0 -1 0
871 78 5 0.0582835 3.245794657540447 19.437608155461717 8.184206386071024 0 0 0
612 56 5 0.0582835 7.326046871166855 21.05095416414219 7.275915472688793 0 -1 0
943 84 5 0.0582835 5.529612968581653 16.966227670566383 5.1309351339068 0 0 0
938 84 2 -0.3889835 5.039708110099707 15.972246791305436 7.106232581550785 0 0 0
945 84 5 0.0582835 6.813586323234811 16.428056280794607 6.31542126036264 0 0 0
937 84 1 0.1266165 5.833315780819313 16.876322053392386 6.256559439792441 0 0 0
944 84 5 0.0582835 5.785066823951536 17.82904368261407 6.753756336731906 0 0 0
39 4 5 0.0798 6.175467170148685 20.3822223633371 3.999489839104098 0 -1 0
425 41 2 -0.3889835 22.20700845638793 20.70588309066155 7.6736719708615855 -1 -1 0
606 56 1 0.1266165 6.720886062945958 20.795452169684268 8.094754929545225 0 -1 0
916 82 4 -0.5800835 10.862515317571184 22.402543101456942 3.221618152704927 0 -1 0
914 82 2 -0.3889835 10.109672485066298 22.2716635020483 5.314208539118431 0 -1 0
623 57 5 0.0582835 14.359380001995058 14.327981292260956 6.01366179760766 0 0 0
332 33 5 0.0582835 9.036364838430963 15.102665783839008 6.519406235608847 0 0 0
920 82 5 0.0582835 8.769720629399602 20.792768855954556 5.784800558626954 0 -1 0
97 10 5 0.0798 9.545319110992498 21.735199156568868 1.3657100752792846 0 0 0
680 62 5 0.0582835 15.020855661941354 20.93297540551901 3.4310300188901888 0 0 0
183 19 2 -0.4048 7.4051679899357685 16.846590223126718 3.659725462475301 0 0 0
96 10 2 -0.4048 7.483007076711468 21.99597786333178 0.7629042191091847 0 0 0
129 13 5 0.0798 14.542776446406837 15.764676029555929 2.915143286478328 0 0 0
130 13 5 0.0798 15.658736103750686 15.956993360340311 1.5641745593677083 0 0 0
913 82 1 0.1266165 9.313847368917303 21.16141471616651 4.964719595052287 0 -1 0
919 82 5 0.0582835 9.790376767263066 20.329531444553517 4.468962313986476 0 -1 0
184 19 3 0.8478 8.796908151392985 16.803498577288885 3.9914964794133194 0 0 0
185 19 4 -0.5484 9.16397520189427 17.47217680001716 4.875732853564874 0 0 0
921 82 5 0.0582835 8.467675975948127 21.52810495517746 4.3630739889899495 0 -1 0
351 35 3 0.7551165 11.784990530723883 17.178441000252697 0.7755701113903091 0 0 0
352 35 4 -0.5800835 12.756097131016952 16.531122553800458 1.1473186903871184 0 0 0
350 35 2 -0.3889835 11.194532300033325 18.16585968810275 1.720027953888281 0 0 0
356 35 5 0.0582835 11.56832630776622 19.199757275982037 3.6094008276107 0 0 0
349 35 1 0.1266165 11.850112860084273 18.294895241294917 3.0739269984133344 0 0 0
186 19 2 -0.4048 9.543127010493588 15.94107296406717 3.22237217932678 0 0 0
357 35 5 0.0582835 11.82211630620713 17.406755359806745 3.7085665610432472 0 0 0
355 35 5 0.0582835 12.937394932287958 18.512753520960615 2.846980443922644 0 0 0
615 57 3 0.7551165 13.317523987661842 17.51680718144265 6.5580023937665946 0 0 0
617 57 2 -0.3889835 13.731773078502126 16.470550801155007 5.827515754107911 0 0 0
618 57 1 0.1266165 13.889560515508421 15.175745674690027 6.537362745600652 0 0 0
679 62 5 0.0582835 13.310612688314608 20.833887656273482 2.854140896673279 0 0 0
673 62 1 0.1266165 14.330466837375292 21.116166787725277 2.6100441906892287 0 0 0
674 62 2 -0.3889835 14.751305664306637 20.43182506232106 1.410682215316706 0 0 0
91 10 1 0.0955 8.693855391651004 21.27525277317399 0.8124965371626094 0 0 0
98 10 5 0.0798 8.465220177975356 20.32443170469478 1.2273279490607498 0 0 0
614 57 2 -0.3889835 13.215280514911212 18.677408500452962 5.915707337465184 0 0 0
621 57 5 0.0582835 11.73131707658811 19.69245435424901 7.0147991303679 0 0 0
620 57 5 0.0582835 12.70380269971138 20.668392761634372 6.107238543235559 0 0 0
613 57 1 0.1266165 12.767833839579655 19.812970081445634 6.7205543770055165 0 0 0
619 57 5 0.0582835 13.472012684373036 20.143888362326557 7.4968438473929435 0 0 0
624 57 5 0.0582835 14.542335760188235 15.330914797676073 7.3938485433935055 0 0 0
122 13 1 0.0955 15.595342610120369 15.931005592668734 2.665955406244745 0 0 0
607 56 5 0.0582835 11.000922877668911 18.636022702317263 8.929228219522225 0 -1 0
604 56 4 -0.5800835 8.66065792757162 19.062759133934485 7.833495712662863 0 -1 0
622 57 5 0.0582835 12.899392905311176 14.892389539728125 6.992510324171271 0 0 0
603 56 3 0.7551165 8.529194840419255 19.46436751118894 8.965756035845056 0 -1 0
675 62 3 0.7551165 13.911014618025366 20.535818610715104 0.335803973378353 0 0 0
676 62 4 -0.5800835 12.864907745749102 21.179757661387164 0.33800360015450637 0 0 0
127 13 5 0.0798 15.289669684327169 17.645314339254647 3.885468182849091 0 0 0
123 13 2 -0.4048 16.625382033581587 15.057462439695346 3.1774201579693653 0 0 0
773 70 2 -0.3889835 21.476760766420885 15.90166226971487 1.4328321141452882 0 0 0
128 13 5 0.0798 16.089535972810342 18.05198777656164 2.3906841834853787 0 0 0
838 75 5 0.0582835 15.965570056366616 17.879562837843856 6.629705036018338 0 0 0
340 34 4 -0.5800835 21.408054182472537 15.055975782470329 6.636003713807785 -1 0 0
345 34 5 0.0582835 21.54796749562383 17.585570739170052 7.2177766394323175 -1 0 0
125 13 4 -0.5484 18.49455459290829 15.231911463607654 4.456511061098807 0 0 0
121 13 1 0.0955 16.009519959495357 17.31596825679604 3.183623415535325 0 0 0
124 13 3 0.8478 17.49903853205845 15.751636730803831 3.8832177782471495 0 0 0
126 13 2 -0.4048 17.146979107016293 17.061838798165113 3.880255898452199 0 0 0
771 70 3 0.7551165 21.196625368455866 16.235610938287714 2.7389776895436357 0 0 0
775 70 5 0.0582835 21.312445076532676 17.87816655734241 4.8894405966148495 0 0 0
777 70 5 0.0582835 19.459713852190507 17.60999463226306 4.627985129511992 0 0 0
769 70 1 0.1266165 20.45765553028431 17.96182908796117 4.274479595216541 0 0 0
770 70 2 -0.3889835 20.750809045379253 17.487255248233325 2.9096275983684508 0 0 0
772 70 4 -0.5800835 21.325537471959475 15.50070955976811 3.7511813677853807 0 0 0
830 75 2 -0.3889835 18.660611294725914 20.64563579658595 5.850112676345856 0 0 0
831 75 3 0.7551165 17.528034099401474 20.044774370669586 6.215378405689248 0 0 0
836 75 5 0.0582835 19.434439801982787 22.360535608052615 5.018496313472562 0 0 0
837 75 5 0.0582835 18.545266937751165 21.32769540672564 3.8809617165875796 0 0 0
829 75 1 0.1266165 18.549693243149733 21.706226916590985 4.917052833290029 0 0 0
832 75 4 -0.5800835 16.395797042044876 20.36627498182014 5.766898962359419 0 0 0
833 75 2 -0.3889835 17.719197550884598 19.012805768108997 7.103688260053606 0 0 0
776 70 5 0.0582835 20.253749723930515 19.08365246002859 4.103251598009369 0 0 0
834 75 1 0.1266165 16.510277374471304 18.28999587414222 7.5119704268122955 0 0 0
740 67 5 0.0582835 19.470943655807833 21.100418831349813 1.486337340684733 0 0 0
734 67 2 -0.3889835 18.76731678140873 19.07806467082041 0.986597642160927 0 0 0
737 67 2 -0.3889835 18.313179374242356 16.838303437078366 0.1931873430887418 0 0 0
733 67 1 0.1266165 19.66586576453059 20.255417527908257 0.769809306110236 0 0 0
741 67 5 0.0582835 20.709970862464427 19.902484507545303 0.8083256520768933 0 0 0
735 67 3 0.7551165 19.038993867927257 18.0081505971691 0.1291961919133343 0 0 0
432 41 5 0.0582835 0.8427060677792169 21.434933202961183 8.884028615040062 0 -1 0
459 44 3 0.7551165 4.0753326676596435 22.4261618111574 10.029411999615952 0 -1 0
380 37 5 0.0582835 10.479277035315324 22.463325261950118 9.363369176772858 0 -1 0
323 32 5 0.0582835 19.95080337966187 21.72988418970757 9.698263504376197 0 0 0
317 32 2 -0.3889835 18.082825502451882 21.97822352565911 10.468018755730727 0 0 0
494 47 2 -0.3889835 3.846761158282076 13.90824831725544 10.850492493065108 0 0 0
493 47 1 0.1266165 2.8398742867341276 14.87174295451925 10.383934126497403 0 0 0
500 47 5 0.0582835 2.9349418980883857 15.01317772238771 9.321775542754104 0 0 0
501 47 5 0.0582835 1.816744891051052 14.511566361387436 10.534656137698448 0 0 0
499 47 5 0.0582835 2.992840086157674 15.833314472454854 10.81618619491883 0 0 0
824 74 5 0.0582835 1.0040268309820592 11.484877022831023 10.286099682765165 0 0 0
336 33 5 0.0582835 5.062727788242048 11.791549516757588 8.756758041342257 0 0 0
335 33 5 0.0582835 5.3389690026729255 11.681900195825866 10.501832224846993 0 0 0
329 33 2 -0.3889835 6.585619206339721 12.996771755623568 9.33681198741274 0 0 0
330 33 1 0.1266165 5.836906894734941 11.843495850905121 9.527469377408265 0 0 0
327 33 3 0.7551165 7.127408547991783 13.113094636664254 8.090692738943149 0 0 0
201 21 1 0.0955 12.385920138632386 12.499596730449218 9.028496710953627 0 0 0
202 21 1 0.0955 11.078198880244353 11.832884180212028 9.20064330215574 0 0 0
203 21 2 -0.4048 10.225443229875278 12.825090224529529 9.728288070940804 0 0 0
206 21 2 -0.4048 12.200538336965938 13.875121974674343 9.498087748621735 0 0 0
204 21 3 0.8478 10.912312778913936 14.011647097432482 9.910920100193561 0 0 0
208 21 5 0.0798 13.221102061965473 11.912382983392117 9.38912799051716 0 0 0
205 21 4 -0.5484 10.492783404247374 15.068230635884492 10.347025824404525 0 0 0
347 34 5 0.0582835 22.801869718119505 11.825832085494572 8.175931021518466 -1 0 0
341 34 2 -0.3889835 22.17823907645993 13.803440802002628 8.356344601749614 -1 0 0
450 43 1 0.1266165 20.35530773770991 13.285319344923137 11.126643874354892 -1 0 0
454 43 5 0.0582835 19.576140718689942 12.50303933871911 11.158728023743189 -1 0 0
456 43 5 0.0582835 21.20411986048349 12.86325831508107 10.55542464946331 -1 0 0
455 43 5 0.0582835 19.99733240365349 14.048486024845749 10.468272417155399 -1 0 0
950 85 2 -0.3889835 17.140103633902797 13.75222599996245 7.475385279626955 0 0 0
372 36 5 0.0582835 15.539207765986616 11.738593302867496 8.287291659323587 0 0 0
949 85 1 0.1266165 18.19441501819831 14.313120713441513 8.284432385409648 0 0 0
956 85 5 0.0582835 17.896775288725134 14.693762900401849 9.249337949985568 0 0 0
957 85 5 0.0582835 18.981200110668624 13.557557277838802 8.51413966948467 0 0 0
476 45 5 0.0582835 17.572917526404975 14.726815384547484 11.25749641308759 0 0 0
611 56 5 0.0582835 6.1345268701941125 21.692828752462297 8.372223744908439 0 -1 0
270 27 5 0.0798 5.263556690524732 16.463918058426522 9.9217456163444 0 0 0
269 27 5 0.0798 6.8543588461873 16.56363352302931 9.027339852051565 0 0 0
461 44 2 -0.3889835 4.99039005479158 22.275712674234093 11.031614422241388 0 -1 0
460 44 4 -0.5800835 3.4749224474553144 21.447627647664916 9.666224702542644 0 -1 0
466 44 5 0.0582835 5.531238267971818 20.335417851494157 10.79996479248708 0 -1 0
893 80 2 -0.3889835 2.6197921989111888 18.108442435289177 10.95608340397244 0 0 0
610 56 5 0.0582835 6.118057481353598 19.982874789771564 7.74849531474271 0 -1 0
894 80 1 0.1266165 1.465542069548192 18.72121695216262 10.339428093906081 0 0 0
898 80 5 0.0582835 1.5602316358490715 19.776526395111873 10.341500800414355 0 0 0
900 80 5 0.0582835 0.6000278727767221 18.542626904056 10.951289922746131 0 0 0
899 80 5 0.0582835 1.233766212595623 18.397344377872486 9.372474717963236 0 0 0
605 56 2 -0.3889835 7.517838912007693 20.39828509189968 9.257752768222378 0 -1 0
262 27 1 0.0955 6.306577180660687 16.636105089003898 9.996212431004365 0 0 0
263 27 2 -0.4048 6.3102025729627345 17.927130293661598 10.592801537072795 0 0 0
268 27 5 0.0798 6.298168430590589 14.783278851127598 11.002880341988622 0 0 0
616 57 4 -0.5800835 13.07678576941877 17.385558327844585 7.761221317530263 0 0 0
261 27 1 0.0955 6.8235284388805395 15.731035422809704 10.980057432719146 0 0 0
608 56 5 0.0582835 10.967615533049353 17.782822253802443 10.556212315552694 0 -1 0
601 56 1 0.1266165 10.375209535254532 18.104104030086226 9.694111537069421 0 -1 0
602 56 2 -0.3889835 9.33987283515601 19.054186846233065 10.016627588625946 0 -1 0
609 56 5 0.0582835 9.965476430117185 17.241331261998567 9.284532720995427 0 -1 0
267 27 5 0.0798 7.8266761242205085 15.480649398360583 10.694636964920571 0 0 0
660 60 5 0.0582835 12.261486597377518 19.973432877202924 11.22841523625669 0 0 0
487 46 5 0.0582835 15.84794562308539 18.044736539607328 10.961984628209848 0 0 0
489 46 5 0.0582835 16.102519664589295 19.494612615243128 9.93860971147198 0 0 0
481 46 1 0.1266165 15.94383245398642 19.101375080283688 10.972305387137233 0 0 0
319 32 5 0.0582835 14.007068234746228 21.93054477567197 10.398276595616679 0 0 0
313 32 1 0.1266165 14.443060974239241 22.64050958932598 11.111955398170545 0 0 0
426 41 1 0.1266165 22.748221003327707 21.462268308726927 8.844243732897157 -1 -1 0
431 41 5 0.0582835 22.307495284811296 21.045372223411043 9.727765307626683 -1 -1 0
339 34 3 0.7551165 21.678692217902842 14.952458247402436 7.796557504144129 -1 0 0
839 75 5 0.0582835 16.75826898484825 17.57024430623263 8.246271767999154 0 0 0
337 34 1 0.1266165 20.996924048899853 17.301888297369246 8.12155921325199 -1 0 0
343 34 5 0.0582835 19.935243524080327 17.173970020991717 7.850497134535331 -1 0 0
955 85 5 0.0582835 18.525300337898866 15.215287057095585 7.8244398431102145 0 0 0
344 34 5 0.0582835 20.97853834312173 18.156421022197712 8.82098629807093 -1 0 0
338 34 2 -0.3889835 21.511004181378798 16.02613799008263 8.634258529580025 -1 0 0
840 75 5 0.0582835 15.775799075973516 18.935452738930323 8.058128404831715 0 0 0
316 32 4 -0.5800835 16.234290162268834 22.58684661809442 9.15781098929186 0 0 0
324 32 5 0.0582835 18.72594381340149 21.22316004448961 8.567869053710764 0 0 0
318 32 1 0.1266165 19.001304362890778 21.981785304487296 9.314745336733386 0 0 0
490 46 5 0.0582835 20.778406508056268 18.675176298111644 11.028249098409187 0 0 0
484 46 4 -0.5800835 18.375157173870427 18.221594896466392 10.651660772555559 0 0 0
315 32 3 0.7551165 16.66424145458856 22.30636468073442 10.292753069210637 0 0 0
508 48 4 -0.5800835 7.155367698690206 11.891810011175895 -0.03902695174969156 0 0 0
35 4 4 -0.5484 5.961521188453013 18.86212684164944 0.10409805753059237 0 -1 0
739 67 5 0.0582835 19.44773198137956 20.759888940106947 -0.19630043611289133 0 0 0
814 73 5 0.0582835 17.53118003176812 22.720831728351477 22.52782448767043 0 -1 -1
27 3 5 0.0798 6.338569029440367 14.674197154084748 20.50001521285877 0 0 0
353 35 2 -0.3889835 11.245581917549226 17.016722044933665 22.583523777379206 0 0 -1
677 62 2 -0.3889835 14.330249444568972 19.876242922173212 22.228158170751726 0 0 -1
94 10 3 0.8478 7.157816534537564 22.155553494927098 22.4265513256508 0 0 -1
815 73 5 0.0582835 16.130281837049726 21.938495688751942 22.08151514261749 0 -1 -1
743 67 5 0.0582835 17.991442219304812 14.883179416839232 22.45724131223836 0 0 -1
495 47 3 0.7551165 3.7335884504170163 13.512381407935386 12.179002100467489 0 0 0
496 47 4 -0.5800835 2.8811290720180445 13.919302944636723 12.988488768735445 0 0 0
497 47 2 -0.3889835 4.699937117215758 12.594325252177645 12.512697238580966 0 0 0
502 47 5 0.0582835 3.848839207646896 11.497888304598419 13.92244379731842 0 0 0
825 74 5 0.0582835 0.35682454550349973 12.275216736395235 11.694460598920557 0 0 0
498 47 1 0.1266165 4.664244001774222 12.09157442977883 13.829469927788201 0 0 0
504 47 5 0.0582835 4.6733119946211 12.925814218120241 14.545199592149027 0 0 0
179 18 5 0.0798 2.623188966673125 13.324231555492958 15.634097921001532 0 0 0
180 18 5 0.0798 1.0922360071707942 13.890771661717263 16.211180282734922 0 0 0
503 47 5 0.0582835 5.667344606780268 11.54334418951692 13.98981503627292 0 0 0
582 54 1 0.1266165 10.136859108541898 12.687566980795411 13.185410176513376 0 0 0
587 54 5 0.0582835 9.748634021007426 11.944890023857702 12.4787719822217 0 0 0
586 54 5 0.0582835 9.374197718131068 13.459948699529882 13.342652487721821 0 0 0
581 54 2 -0.3889835 11.311416066975323 13.244426101842318 12.633811696891083 0 0 0
588 54 5 0.0582835 10.36063474660518 12.067202847340232 14.104156541516819 0 0 0
579 54 3 0.7551165 11.831322110953034 14.265799148728748 13.393108905298638 0 0 0
580 54 4 -0.5800835 11.293223620548869 14.644043991391733 14.458265636232856 0 0 0
449 43 2 -0.3889835 20.718959632817885 13.821838850235219 12.44489134387088 -1 0 0
447 43 3 0.7551165 21.696331508181323 14.74691193782234 12.398307690544229 -1 0 0
446 43 2 -0.3889835 22.054514113716376 15.294555457433916 13.53033233954112 -1 0 0
367 36 5 0.0582835 16.176181383031658 11.577162075721525 13.485055060569097 0 0 0
469 45 1 0.1266165 17.544698945234394 14.625549419475517 12.380906270798697 0 0 0
470 45 2 -0.3889835 18.258593753991956 15.66345986583095 12.996434296049035 0 0 0
477 45 5 0.0582835 17.925928923996043 13.598331944137826 12.55827936537388 0 0 0
259 26 5 0.0798 21.720218483793094 13.79879268965914 16.41043631276628 -1 0 0
475 45 5 0.0582835 16.455264303157655 14.621083060335808 12.663929740571756 0 0 0
257 26 5 0.0798 20.275112912245987 12.530239990038037 15.09391816928844 -1 0 0
560 52 5 0.0582835 2.168813046965754 22.60632971979438 11.866989969498679 1 -1 0
896 80 5 0.0582835 4.878120141576943 17.188436378646777 14.638837395374601 0 0 0
935 83 5 0.0582835 7.6834720592582375 22.578810196511334 13.12278471861199 0 0 0
468 44 5 0.0582835 4.2216019952896975 20.557758040651187 11.995209107809911 0 -1 0
462 44 1 0.1266165 5.154801711398408 20.979007818587455 11.59292594251729 0 -1 0
467 44 5 0.0582835 5.93811584961075 21.03448758664974 12.360293359033538 0 -1 0
889 80 1 0.1266165 4.060032685423263 17.867393174410502 14.237420448631548 0 0 0
890 80 2 -0.3889835 3.955803776042969 17.628238072294394 12.807466301423089 0 0 0
891 80 3 0.7551165 2.8129309705926366 18.263552559611135 12.245431411672476 0 0 0
892 80 4 -0.5800835 2.0138349119422143 18.923607024611826 12.864347407963477 0 0 0
895 80 5 0.0582835 3.139296329246015 17.683581558230287 14.726254916862098 0 0 0
897 80 5 0.0582835 4.2146117862179615 18.898603072086807 14.359186921249984 0 0 0
308 31 5 0.0582835 3.9388934308663472 21.535719725313577 13.972869040390115 0 0 0
301 31 1 0.1266165 3.7277682238132 21.736775438921576 15.05910191267052 0 0 0
307 31 5 0.0582835 3.472299961070526 22.762404353458614 15.324683444441334 0 0 0
561 52 5 0.0582835 0.3698873238589181 22.37518213853116 12.147271300950482 1 -1 0
265 27 4 -0.5484 6.918196913813595 18.713740007459663 12.62997206908923 0 0 0
264 27 3 0.8478 6.790324846726082 17.769953410862854 11.85277512240475 0 0 0
445 43 1 0.1266165 0.09473256399257551 16.29641871096937 13.502995172047369 0 0 0
453 43 5 0.0582835 1.0653358038474183 15.91513272991565 13.20150027473423 0 0 0
934 83 5 0.0582835 9.103760019748131 22.430038477411443 12.09238415332939 0 0 0
659 60 5 0.0582835 10.92066415836866 20.982054150749477 11.73984028678096 0 0 0
266 27 2 -0.4048 7.108592925735596 16.509519727997734 12.150043884431295 0 0 0
654 60 1 0.1266165 11.62809209866946 20.30970768164294 12.108041797836966 0 0 0
658 60 5 0.0582835 11.016238593750192 19.555350996661744 12.621226635618672 0 0 0
653 60 2 -0.3889835 12.463417668416655 20.96148754936811 13.096742891162263 0 0 0
652 60 4 -0.5800835 13.633686221025197 18.9587606280257 13.369721310725451 0 0 0
651 60 3 0.7551165 13.414083395385285 20.158074955923915 13.639068415373677 0 0 0
650 60 2 -0.3889835 14.16753735167508 20.791678295224607 14.573816788672113 0 0 0
649 60 1 0.1266165 15.206876886969294 20.009948151807222 15.233554960265783 0 0 0
578 54 2 -0.3889835 12.985640706467766 14.89957787213256 12.970680971001483 0 0 0
488 46 5 0.0582835 14.976671122845495 19.557291559965023 11.348394589311901 0 0 0
320 32 5 0.0582835 13.865884942748224 22.557558176478267 12.115040716601408 0 0 0
655 60 5 0.0582835 15.833364918533686 19.5182371180136 14.462961465227341 0 0 0
168 17 5 0.0798 7.510473180361433 17.042055086625034 14.619737343771675 0 0 0
585 54 5 0.0582835 12.726496770925433 16.798683649524726 13.879113410798787 0 0 0
577 54 1 0.1266165 13.417225372951641 15.964248679173876 13.903358754371375 0 0 0
584 54 5 0.0582835 14.411516143500007 16.298357339628154 13.594908544418859 0 0 0
656 60 5 0.0582835 15.849982677904105 20.6107772893036 15.858450141598263 0 0 0
161 17 1 0.0955 8.272836664084657 17.555397766310705 15.204005238783157 0 0 0
170 17 5 0.0798 9.654507870791571 17.680854977001317 13.601945766159655 0 0 0
162 17 1 0.0955 9.697054409157637 17.72769268048682 14.661506851321173 0 0 0
163 17 2 -0.4048 9.993507827436254 19.17091055403091 14.87453409332732 0 0 0
169 17 5 0.0798 10.383037881733701 16.978178276253487 15.08359091027907 0 0 0
448 43 4 -0.5800835 22.231964496659852 15.066766707504158 11.359661270520217 -1 0 0
471 45 3 0.7551165 18.368328421233294 15.583465995542067 14.372692600853021 0 0 0
451 43 5 0.0582835 -0.1945849369975485 17.18288177306895 12.90979980901742 0 0 0
491 46 5 0.0582835 21.317519375931248 19.15864247488662 12.69105879995435 0 0 0
486 46 1 0.1266165 20.555143679472216 18.590986618831472 12.116229747073406 0 0 0
492 46 5 0.0582835 20.65187893277819 17.57989285471632 12.502959603042806 0 0 0
485 46 2 -0.3889835 19.296661691780006 19.242999763464105 12.505188997456056 0 0 0
482 46 2 -0.3889835 16.99973681595551 19.448659672440996 11.888036101518376 0 0 0
483 46 3 0.7551165 18.2491285192286 18.935011161136153 11.62519825999908 0 0 0
637 59 1 0.1266165 20.8889423932085 22.094250310985394 13.83631909671853 -1 0 0
644 59 5 0.0582835 20.685139955147957 22.51748626208022 12.856104641771502 -1 0 0
638 59 2 -0.3889835 22.03825726490794 21.21337447498111 13.882879338920068 -1 0 0
645 59 5 0.0582835 19.961224326237744 21.58080781806509 14.233884543481956 -1 0 0
314 32 2 -0.3889835 15.855911243458984 22.295665154679945 11.413861016738451 0 0 0
473 45 2 -0.3889835 19.068340977013282 16.612631078026027 14.880992735571834 0 0 0
472 45 4 -0.5800835 17.87626799720536 14.684457089354916 15.036987397250835 0 0 0
312 31 5 0.0582835 6.102372946039382 22.2390818249549 19.40237022790552 0 0 0
115 12 4 -0.5484 19.3107042519007 22.790816461726926 16.641249797220006 0 -1 0
759 69 3 0.7551165 2.166561789489402 12.675294142126434 22.58987747929276 0 0 -1
760 69 4 -0.5800835 0.939874797732956 12.518837023053383 22.62511011735718 0 0 -1
172 18 1 0.0955 2.138882961177201 13.98694392513924 16.40776917998047 0 0 0
178 18 5 0.0798 1.5434135489483187 13.327864064749471 18.430085517058565 0 0 0
177 18 5 0.0798 3.226768096521084 12.768811528402667 17.795456832334352 0 0 0
758 69 2 -0.3889835 2.783903344797503 13.766795814792271 21.975435926914095 0 0 -1
757 69 1 0.1266165 1.8851674219476804 14.736668345371873 21.379794810446064 0 0 -1
781 71 1 0.1266165 5.252171654589136 11.952884363599091 20.01754679118678 0 0 0
788 71 5 0.0582835 5.176079265736303 11.721839526325628 21.12471989866959 0 0 0
789 71 5 0.0582835 4.818925226684662 12.918483890881772 19.83752275186007 0 0 0
171 18 1 0.0955 2.4085886823353895 13.561396346714828 17.82833314884048 0 0 0
782 71 2 -0.3889835 6.582422446367849 11.9848267241819 19.427872895676764 0 0 0
765 69 5 0.0582835 1.2210185685800634 14.148438662426466 20.721370547684472 0 0 -1
763 69 5 0.0582835 1.280703159359994 15.265293218340458 22.1013031020912 0 0 -1
784 71 4 -0.5800835 5.7544319096373036 12.729357059145906 17.41055754075594 0 0 0
29 3 5 0.0798 4.811040525263014 16.45740500308783 19.667252815818678 0 0 0
176 18 2 -0.4048 2.9960165849897877 14.735216314145356 18.331886366263838 0 0 0
23 3 2 -0.4048 6.7192875083598205 17.455452934923414 19.522719784049748 0 0 0
22 3 1 0.0955 5.746680619184154 16.654880353621706 20.209135361895335 0 0 0
783 71 3 0.7551165 6.698600070678045 12.398016230322595 18.116986017155078 0 0 0
514 48 5 0.0582835 9.672951050492356 12.67439606363023 22.41949281286164 0 0 -1
785 71 2 -0.3889835 8.050077557462082 12.365648374536619 17.68824351743349 0 0 0
792 71 5 0.0582835 7.655025812084596 12.108993857723467 15.618551205620777 0 0 0
786 71 1 0.1266165 8.219223888497543 12.744401036091197 16.34074527042649 0 0 0
790 71 5 0.0582835 7.866527569245493 13.746945500669113 16.058193869245763 0 0 0
516 48 5 0.0582835 8.746751543741244 12.738411589484631 20.94090101184691 0 0 -1
515 48 5 0.0582835 10.351444590761352 11.879779946071887 20.98629245457743 0 0 -1
510 48 1 0.1266165 9.433340270441649 12.099083380155328 21.54358483873753 0 0 -1
791 71 5 0.0582835 9.245502115817152 12.85310286961905 16.077980069928543 0 0 0
216 22 2 -0.4048 12.751266762207075 11.574633265043872 18.627517388131878 0 0 0
218 22 5 0.0798 12.488180691667578 11.869017771700317 16.514166216879396 0 0 0
294 30 3 0.8478 18.854649932372062 11.855606064449804 22.58063479416768 0 0 -1
293 30 2 -0.4048 19.157699181554115 12.883624977317497 21.790174132779093 0 0 -1
299 30 5 0.0798 21.013231471047455 13.064461933408266 21.48622480134167 0 0 -1
292 30 1 0.0955 20.215723806286288 12.50847434910343 20.919903697121534 0 0 -1
300 30 5 0.0798 20.230238346308393 12.913130822164389 19.875003994761272 0 0 -1
708 64 5 0.0582835 14.992891824895022 13.09331438524734 18.72898346766162 0 0 0
706 64 5 0.0582835 16.17925298826096 13.999014571483812 19.536382492091235 0 0 0
701 64 2 -0.3889835 16.784959828432243 12.022531866857785 19.04243975186396 0 0 0
253 26 2 -0.4048 21.5510110389347 12.282623712050807 17.858239710286128 -1 0 0
707 64 5 0.0582835 16.352919069015027 13.690095948533449 17.77895016958717 0 0 0
251 26 1 0.0955 19.982686653399227 12.488006192514995 16.16079722387262 -1 0 0
258 26 5 0.0798 18.973015922183322 12.864977132125981 16.139668189934703 -1 0 0
700 64 4 -0.5800835 16.250465627624198 11.369435342386236 16.894624530519657 0 0 0
702 64 1 0.1266165 16.071190131971004 13.250709544738404 18.792440500357216 0 0 0
252 26 1 0.0955 20.959978040263426 13.264598178026118 17.006394544028602 -1 0 0
260 26 5 0.0798 20.46849369631257 14.041829088009262 17.637735067153457 -1 0 0
1010 100 7 -0.5 21.701815769059582 14.769150501774433 19.53136709270342 0 0 0
742 67 5 0.0582835 19.616055387841442 15.385811027058109 22.565231034260506 0 0 -1
452 43 5 0.0582835 0.2038772045002945 16.720213944543573 14.546231744426075 0 0 0
311 31 5 0.0582835 7.3919097505050475 20.90474604609159 19.365111394741383 0 0 0
95 10 4 -0.5484 6.150372088398604 22.735436221693643 22.05458200191304 0 0 -1
764 69 5 0.0582835 2.437061486476641 15.438137340443221 20.72956571824075 0 0 -1
30 3 5 0.0798 5.356426085011406 17.248639071108705 21.070620326580155 0 0 0
28 3 5 0.0798 6.131663907262607 15.506156715257774 22.00826524511575 0 0 0
641 59 2 -0.3889835 0.38276606259529034 19.870400103804293 15.30340276213275 0 0 0
173 18 2 -0.4048 2.5874801146679944 15.329839676403044 16.195168673812155 0 0 0
309 31 5 0.0582835 2.92814054456564 21.091516414454965 15.429356287888426 0 0 0
633 58 5 0.0582835 1.193639750739684 22.29669658296777 17.42452905752714 0 -1 0
174 18 3 0.8478 3.0901259082257564 15.715579238105535 17.380000629838477 0 0 0
175 18 4 -0.5484 3.5611383919048207 16.83054563556795 17.54358134468667 0 0 0
302 31 2 -0.3889835 5.023118105235021 21.35004431034968 15.62367861765635 0 0 0
278 28 5 0.0798 3.4255582038800108 21.318140026262448 21.97483408559109 0 0 0
280 28 5 0.0798 3.886201693757525 19.200517625826635 21.532691816974065 0 0 0
642 59 1 0.1266165 0.5664954249884389 19.43116932634181 16.66427203777033 0 0 0
648 59 5 0.0582835 0.5907346217484007 20.22801223716207 17.397952061874072 0 0 0
271 28 1 0.0955 2.822992558012862 20.981863300801336 21.180188051923487 0 0 0
272 28 1 0.0955 3.2801585562310738 19.613330158055945 20.765268744619135 0 0 0
277 28 5 0.0798 3.0073031012165856 21.62260761636209 20.319074229402112 0 0 0
279 28 5 0.0798 3.688599271135509 19.654449078709312 19.716298544718754 0 0 0
303 31 3 0.7551165 5.048404779080772 21.423922531362038 17.03451999933975 0 0 0
304 31 4 -0.5800835 4.123326820749903 21.77939173976919 17.722238205659792 0 0 0
305 31 2 -0.3889835 6.24199895808566 21.087957157895012 17.539667723561692 0 0 0
306 31 1 0.1266165 6.331959463650991 21.194381815911257 19.064727595806296 0 0 0
310 31 5 0.0582835 5.699962718685741 20.389976581942165 19.593106646157914 0 0 0
647 59 5 0.0582835 1.4567404036428107 18.90309085697843 16.75568748254544 0 0 0
540 50 5 0.0582835 10.503525586089976 20.095058563949756 17.72743027757732 0 0 0
276 28 2 -0.4048 1.4006778961054416 20.876565704632768 21.41591860917889 0 0 0
273 28 2 -0.4048 2.081995777837661 18.762700354801666 20.78158519390248 0 0 0
274 28 3 0.8478 1.0336132614467324 19.585704621669933 21.175989155594046 0 0 0
21 3 1 0.0955 6.497718355469859 15.560870109316864 20.989070921583256 0 0 0
24 3 3 0.8478 7.9398452953078085 16.90416505545899 19.89697060734055 0 0 0
26 3 2 -0.4048 7.87386073472913 15.81475379872379 20.748498432916712 0 0 0
657 60 5 0.0582835 14.800782991531488 19.218558755218446 15.876051816222065 0 0 0
583 54 5 0.0582835 13.52762356134946 15.468472289808565 14.873261687162431 0 0 0
166 17 2 -0.4048 7.901953297906783 18.822057222745407 15.63714411686916 0 0 0
167 17 5 0.0798 8.464243186010496 17.022999832922558 16.155944693169843 0 0 0
979 93 6 1 8.128765944599134 22.60061889485923 16.539729567189426 0 0 0
539 50 5 0.0582835 9.611072348880777 20.083063172123474 19.276126645440975 0 0 0
534 50 1 0.1266165 10.585379726246936 20.168186231426603 18.787267731079808 0 0 0
538 50 5 0.0582835 11.124034320776685 19.333754850137026 19.160159201317875 0 0 0
92 10 1 0.0955 9.037734819990659 21.041251293868996 22.3617430375306 0 0 -1
99 10 5 0.0798 9.870970515670322 21.681368677261908 22.26411164179875 0 0 -1
358 35 5 0.0582835 11.76406643706542 15.036555865042459 22.01351400677507 0 0 -1
100 10 5 0.0798 9.246728950081899 19.956117036152918 22.088427257552368 0 0 -1
93 10 2 -0.4048 7.988532501805581 21.626225629965738 21.5835730002798 0 0 -1
354 35 1 0.1266165 11.867572217320923 16.02687754274764 21.6557003711307 0 0 -1
359 35 5 0.0582835 11.394134135966539 16.186917355225404 20.68353038702331 0 0 -1
360 35 5 0.0582835 12.961729940999998 16.24962414772625 21.461390606975336 0 0 -1
803 72 5 0.0582835 10.87970874973857 15.58917991593956 17.31393585740841 0 0 0
165 17 4 -0.5484 8.761097611469438 20.892015364904545 15.736463813565186 0 0 0
25 3 4 -0.5484 9.01139619997249 17.369025288190095 19.523363114392097 0 0 0
164 17 3 0.8478 8.91171544512917 19.7086779192905 15.427888322416996 0 0 0
684 62 5 0.0582835 12.476271439735823 19.50143717146014 21.20927886395303 0 0 -1
678 62 1 0.1266165 13.526189360920597 19.943492448148554 21.05551704776601 0 0 -1
682 62 5 0.0582835 13.140173646619871 20.98292422001449 20.791022140708478 0 0 -1
532 50 4 -0.5800835 9.590131933560444 22.444690132800694 17.97952455409213 0 0 0
795 72 3 0.7551165 13.795317323401806 16.684886280149904 18.259111939382514 0 0 0
531 50 3 0.7551165 10.599424839993393 22.540261785918943 18.67820615978841 0 0 0
533 50 2 -0.3889835 11.213345369093982 21.41155760764562 19.16805132419281 0 0 0
797 72 2 -0.3889835 12.831721708195566 15.777782504654516 18.111748076169434 0 0 0
798 72 1 0.1266165 11.647948747756313 16.34704898119118 17.448485803351915 0 0 0
804 72 5 0.0582835 11.230680543398456 17.106321418041674 18.104475454660175 0 0 0
802 72 5 0.0582835 11.9515845454475 16.656791853822412 16.40675673104596 0 0 0
526 49 5 0.0582835 14.34965117764397 21.836897273920528 18.01447057635513 0 -1 0
796 72 4 -0.5800835 13.665601331974397 17.832891685750063 17.88066470869004 0 0 0
480 45 5 0.0582835 18.361875318284262 16.800411251871438 16.868599127329873 0 0 0
1012 100 7 -0.5 22.187057494654358 16.299940989024236 18.005536869510223 0 0 0
683 62 5 0.0582835 13.962331161423702 19.479333275855687 20.172306661086168 0 0 -1
646 59 5 0.0582835 22.77354993599476 18.75563616479991 16.981976407957013 -1 0 0
639 59 3 0.7551165 22.32966581420165 20.7081493725994 15.15029916455222 -1 0 0
479 45 5 0.0582835 19.73124444234141 17.68389846100142 16.570344519252885 0 0 0
474 45 1 0.1266165 19.286630513664086 16.70554927915773 16.30907238713168 0 0 0
628 58 4 -0.5800835 22.087872141026942 22.60355184366049 18.515004348241327 -1 -1 0
1013 100 7 -0.5 20.540248263097766 16.678112876527237 19.59207202261532 0 0 0
528 49 5 0.0582835 15.138882255034812 22.25494616352163 19.455801267910786 0 -1 0
522 49 1 0.1266165 15.375961528407755 21.958182484389404 18.440860145574575 0 -1 0
527 49 5 0.0582835 15.941458572231795 21.035698058797827 18.5140600351532 0 -1 0
634 58 5 0.0582835 20.967063574492585 21.912620603155766 20.649359457886625 -1 -1 0
640 59 4 -0.5800835 21.571230951134098 21.05768707859913 16.07535737354914 -1 0 0
794 72 2 -0.3889835 14.995308203390527 16.25527055551172 18.89926863765568 0 0 0
478 45 5 0.0582835 19.855605847885453 15.832024114659509 16.662431177256792 0 0 0
1011 100 8 1 21.747534067101288 16.082803736731925 19.322645426466764 0 0 0
738 67 1 0.1266165 18.628168877188248 15.715829451605892 22.28787804438356 0 0 -1
800 72 5 0.0582835 16.85034035919552 16.74414379411217 19.706365687648102 0 0 0
793 72 1 0.1266165 16.038919733001865 17.188303846265335 19.08854701492301 0 0 0
801 72 5 0.0582835 16.523762470975697 17.53905534485392 18.19714202089491 0 0 0
1014 100 7 -0.5 22.59479283629741 16.713656877793547 20.16851695673013 0 0 0
799 72 5 0.0582835 15.686790731494444 17.99018658273615 19.714428857996197 0 0 0
744 67 5 0.0582835 18.447694950495443 15.956423980545503 21.224772305883327 0 0 -1
978 92 6 1 20.44608788645741 21.568124857793897 17.74487982926278 0 0 0
982 94 7 -0.5 18.688710743054493 20.935532933220024 20.436918481788098 0 0 0
736 67 4 -0.5800835 19.95102454246622 18.10576905239744 22.335059878905696 0 0 -1
983 94 7 -0.5 18.402087515679185 18.772439260671824 19.887364166104867 0 0 0
275 28 4 -0.5484 -0.1706769208311808 19.26699903423343 21.3015025321942 0 0 0
976 90 6 1 21.21799418914816 18.158147385788226 20.619325762770785 -1 0 0
980 94 7 -0.5 19.02158909978422 20.437180000849636 18.286138930712816 0 0 0
981 94 8 1 19.146496976426114 19.94621698057194 19.54764847847766 0 0 0
984 94 7 -0.5 20.442051860039513 19.618393085103406 19.73327069375756 0 0 0

Velocities

81 0.00017271048168636174 -0.007477748453433245 0.0034115429254646555
82 0.002082567700740121 -0.00036828468706643855 0.005164094405304665
84 0.006645468437828651 -0.0013543616382568526 -0.0018961189469622656
86 -0.006078843259511339 -0.00019356932606186974 0.0014610232372358491
87 0.00965842008091935 0.013716980604197722 0.0023569060536951726
88 0.022541856143340387 -0.028741654400400215 -0.0006441854650365297
718 -0.005704323908614657 0.025174985147949545 0.014180450635807116
714 -0.004883249566908275 0.006119886782207414 0.004299996781221234
83 0.003180862681591773 -0.00169832862546675 0.0025691051585835117
89 -0.001275810238962324 0.007234088582533282 -0.0007125762042008846
90 -0.01882571171556781 0.024779056042826094 0.0014117205108435634
55 0.004762507240077611 0.0009892126241563904 -0.0030031069998843964
54 -0.0007607767599447966 -0.005738537930073774 -0.0034960939168395583
57 -0.023787827288220452 -0.0006822586881624037 -0.02157450641825391
713 0.0028029761962212675 -0.0009012639551972876 0.0005502355189071429
730 0.006709190713075385 -0.0251478601712868 0.00922133123482538
416 -0.0049440924039911875 0.011876153069312393 -0.0030331893398660406
409 0.00592445407729369 0.002860902799880346 -0.004372345160362718
985 0.004674846326133222 -0.0029529457274201283 0.007313716661340021
712 -0.0021715421197527783 0.0033098771568775475 -0.0026979653405391477
719 0.01855670351272939 0.02803240405123595 -0.005189629082870139
720 0.013369301392382632 -0.0026901511623894387 0.010432585745115104
986 0.0012593123504827917 -0.0045240923287792 -0.0034620485220136572
465 -0.012650576121053204 0.057034002976521815 -0.033446959724786965
53 -0.006631351389621434 0.0005164986189260187 -0.0015776904375339265
59 0.0047435137657434795 0.0026159183099666167 -0.011234239656592175
726 -0.003520617986558537 -0.008229494539736084 -0.00029606431466984245
725 0.002391298604847582 -0.004966094607876198 -0.0021560413204120906
988 -0.003986664347327245 -0.00327761800485431 -0.005001345095060007
987 -0.0008226406148658169 0.003723076516198373 -0.0019327957916525787
415 0.02138004649588074 -0.016804038768064276 -0.017947355830672536
56 -0.002214419765970788 -0.005787554660294967 -0.0004843235480194088
52 -0.0050469076919002235 -0.0007533431754836241 -0.0001421579058599772
692 0.014813248985013454 -0.009218720262398884 0.004612817839073132
693 0.010006927087561486 0.01265743767039008 -0.01720469094350533
685 -0.002573030527914252 0.007885373131112487 0.004559117398606651
686 0.010561964453472957 0.006885746213794228 0.008602107508028407
724 -0.002908606225697818 -0.007167264408950812 0.0019666192134209777
396 -0.036545225826582185 0.018204957660145776 -0.004335235463070359
395 0.0044548660430200875 -0.026431707246433143 -0.01119115508388529
917 -0.002117154984916542 -0.002773228317861568 0.002361539372277297
924 0.015015740251911125 0.02523842340516087 0.012000898493369976
394 0.008712149792329565 0.005255169280494809 -0.01937055531657994
918 -0.008820267301838557 -0.001207556170912756 -0.0006338552271693516
922 -0.0016621145720174806 -0.010442646205074475 -0.007641179248953606
923 0.005656322787212239 0.01277088682108764 -0.013226841689749544
389 -0.0020486524367574212 0.001702919368656053 -0.003332745508977447
390 0.0014783806595535254 -0.00031369911231802263 0.0008456548856623832
723 -0.0018105989312475115 0.007770939899644766 -0.00337696126296843
387 0.005967019903586732 -0.003836484676283696 0.0006591859969089869
386 0.00036940749424020414 -0.0011817488054025622 0.002719510621820457
385 0.0011774978371758321 -0.00014836658090225122 0.004064979021888069
388 -0.0073697745008828724 0.00253451289369987 0.006999589290305357
1003 0.0006764222283574184 -0.004235272877446678 -0.0016912535334316359
1001 0.006464484224579347 -0.0008531376669892218 0.0065530375722157785
691 0.013656712223152392 0.022383141312098866 0.017305899272003395
18 0.0027093768496240242 -0.009239185310992704 -0.0040701916432531
384 0.00600223903573817 -0.02019128932085168 0.007981883818364498
1004 0.002623125312378325 -0.00569776358674902 -0.0043000343951906305
812 -0.004876151885716813 0.0188296498813009 -0.029294453811118316
77 -0.006186054300794271 0.008306016892819876 -0.0022516000225465105
729 -0.007888824184286733 0.004671512326591769 0.01594731599014337
727 -0.005732616763035087 -0.010109733668765272 -0.004760486334671654
1002 -0.0007373966027640996 -0.002517115752037388 -0.009253973845684103
3 0.006577006782533133 -0.0045535025408425835 -0.001413585687469972
9 0.0009500579908926501 -0.015049564489282257 -0.005753612282538925
10 -0.03920455347361001 0.011108861342058015 -0.0005310832596126496
378 -0.0029495186713892644 -0.0059146697289260385 -0.0016607959059400943
383 -0.0044006120089845014 0.013050922131920413 0.005720325581737979
410 -1.7162363803448364e-05 0.001035834335918241 0.0053228299092246715
78 -0.011897893285826687 0.0038723646040323273 -0.007556662274751915
813 0.006426496178904867 0.008854464197074691 0.033610803159672464
42 -0.0020574851699118645 0.01041940453177918 0.00015430497555754882
50 0.006003419755974829 0.004338047424013468 0.01629626330706385
901 0.007925751322559078 -0.0015072617293587535 -0.0030092459238055705
909 -0.019087570213518926 0.008596387318085544 -0.020943295334343602
902 -0.0021185830820540023 0.0019940847389490887 0.0019404495344251768
903 -0.0008790299674559644 0.005107230562078041 0.0041462917188320545
904 -0.0019844637279634847 0.008339681809709976 -0.0017179904039462666
907 0.00800005848770528 -0.01850094653413321 -0.007030238250121928
910 -0.00579884475511442 -0.006605901422004669 0.021917661555896854
905 -3.066283504776392e-05 -0.003623503342125559 0.0035139094599443517
906 -0.0013753058231263553 -0.0007250036659234655 -0.0010539704109885587
49 -0.009797847175741786 -0.005233125105683065 0.021141140252053787
43 0.001875117372572344 0.0039043949845363078 -0.0025000563854054346
44 0.004857457195586872 -0.010849422462210143 -0.004537167929734713
911 -0.012368141108909986 -0.014018400071861468 -9.330785390173583e-05
912 0.013333996296807824 -0.0008866944747032651 -0.003411542605534777
76 0.004323707081816544 0.000681368114896251 -0.004276362181713182
71 0.0031011186936634356 0.00713765956959728 0.002069435885031418
41 -0.006085108142238871 -0.000933719811188042 -0.006816754028385716
47 0.015807223102830423 0.01780246991219403 0.012117986486757307
80 0.0038994098453196055 0.010654235692282013 0.0005695375228572942
45 0.00313433254989766 -7.579944688174204e-05 0.00020261249380784983
48 -0.02883520695459392 0.01560415853076481 0.04208849147574335
74 -0.005422753617731157 0.007317060368576612 0.001813764410444718
75 0.0038067621031373966 0.0013870443116123065 -0.005932198058794717
46 -0.0002579530312027528 -0.004649836941308712 0.007756451100099981
731 -0.0021172445825875822 -0.0016043032589729432 -0.01328532916540633
512 0.010297734348092077 -0.007421195275354441 0.008663412893107946
989 -0.004339284988515285 0.004490887336467998 0.0016186898619540413
407 0.0062638446732777246 -0.014038657058777182 0.004632708496165969
505 -0.002542424149202656 -0.0026748612944754472 0.0005747827541958147
762 -0.005518678541883956 0.0024672659869786904 -0.0036368715452284816
767 -0.03419767226464004 -0.021286499148453066 0.009205784626892068
766 0.01240732489216992 0.00895960420838939 0.00027711929963422904
513 -0.01022715008228036 0.001940004572754086 0.012113876608146171
973 -0.0051234498271948105 -0.0018048695297220897 -0.0013897881752976246
1008 -0.0031901252667996013 -0.00015271819598106185 0.0007622475371146525
1009 0.001957140037145788 0.0007095366327764837 0.00541778381188168
1007 0.004202920057302686 0.0012200027379215728 0.001423065243538015
1006 0.0037412304691906042 -0.004010441303959309 0.0035061365488469175
768 -0.008212321897390214 -0.03952981840148331 0.003449760561386054
1005 -0.002208814442990754 -0.006236860962706437 0.005671460423556799
506 -0.004710845286886211 0.002240416508452653 0.004538954492113466
402 0.004467053304111543 -0.006217993887871944 0.003772814175064197
408 0.01462538705091604 -0.0060395701815201 0.008550112487767015
732 -0.0036373512631092623 -0.015626339122386472 0.0010276456008742987
392 0.006548895024143692 -0.012574147946284735 -0.01387209600236747
393 0.011413453489715845 0.0011167892614530489 -0.005796679703304026
17 -0.020804752561136182 0.026379089116313943 0.011981837245103495
11 0.0009951448796164286 -0.007522767508583151 -0.002131763641141133
12 -0.0033987738059308055 0.00014933921421576046 -1.0295704809311375e-05
401 -0.0008200674530631466 -7.521443851940781e-05 -0.0009986390938046305
399 -0.0032886767602284812 0.0023010150792619685 0.0026404950844066636
400 -0.0016599600711653555 0.0014999070798492233 -0.002402010877406742
398 -0.0008069330833009698 0.006638705293725993 -0.004233605681367499
403 0.0024966143463063663 -0.0004918091348560527 0.014922352883637186
397 -0.004060398346126912 0.0075418320565674235 0.0017150007195024825
405 -0.015020237346965823 -0.022357691772214573 0.00010656385775708784
404 -0.002784702234154558 -0.004296917008045837 -0.005023826022018515
16 -0.009074357436371009 -0.005580943969270126 -0.003193226455799
14 0.005388242962654082 0.009401678161333981 0.00665729801332671
66 -0.005112765675595385 0.0021034910864675665 0.002338017803427793
15 -0.00011387569782860256 -0.001329332349237576 0.0005821993679297772
19 -0.012925445949629487 -0.018340530399157905 -0.0024979611735930366
13 -0.004217819899355672 -0.006511893880794634 0.0031460071363940212
61 -0.0041088038449048165 0.00010625787996341722 -0.002279622631886561
73 -0.002294848261046286 -0.00021544059391217498 4.224890505326501e-05
72 -0.006551397571766282 -0.0015076181919169676 -0.008427624224029828
79 0.0033849428508830057 -0.010300160891392176 -0.01723945273200553
68 0.012236269358224841 -0.016034614941307018 -0.0005504871262255394
141 0.00191410619806228 -0.005699694517992445 -0.0030251644790878795
147 -0.00421995348474867 -0.030644330813362472 0.011022991612395627
148 0.0033145595920909725 -0.006352236490532525 -0.023165703583075885
142 0.0016284314154420129 0.002008587985801619 -0.00530810784218175
150 0.005109656822749024 -0.02173345066056411 0.023206282848093094
958 0.0458141139343453 -0.011595640551684131 -0.013904803386503035
143 0.0006159337542109603 0.005711115296482969 0.0029685163299399617
149 -0.01366921411826562 0.0038025479452365014 -0.014018297841649034
70 0.010482945222948587 0.0029410175712657285 -0.015506082992472208
62 -0.001262033706066694 -0.000681007740618835 -0.0050922697916854975
752 -0.00864225868699028 0.008783273826434857 -0.03381622816622292
745 0.0003585081857326534 -0.001925237956321928 0.0053268138031092455
753 -0.02658148422653056 0.030161917224583983 -0.0027012793179743535
464 0.0017513569181074914 -0.006704660256319863 0.0002419449249763554
711 0.001088715067007235 0.0026602408509653896 -0.0002508145414071386
668 0.0007579743609963058 -0.009830375795794516 0.01584676960116721
662 -0.0005969557090906942 0.002161150749849857 -0.004191209854101757
665 0.005350855576588703 -0.008547657222378593 -0.0012204023465374053
457 -0.004077926056454293 0.004974867799411851 -0.0036518674494032334
664 -0.001991785979169743 0.0019420537496893692 -0.0053543203742625126
710 -0.003582408975161353 0.004676679616341777 0.0017323839598310437
158 -0.009780514803567347 0.0037914967599539115 -0.003155991309756988
458 -0.0017809479784040387 0.0007271047145361375 0.00038021227023785927
667 0.03207325303693502 -0.009313276456768486 -0.02248865149412722
669 0.0018875334966493502 -0.02029126920591809 0.023775334554405315
661 0.00496324814235286 -0.0063484605066867735 0.002312090914020995
663 -0.004972414937052621 -0.005477471567574472 0.0008890407865544341
157 -0.0024915613415507597 0.023625534394490916 0.014736172654418631
670 -0.006706366748686133 -0.01809024743085564 0.004840359667474494
151 -0.0036701064466275386 -0.0006190618399568973 -0.012778687509120016
463 0.000932150535658505 -0.0017292729681970887 -0.00822242260288715
559 0.007038251480011372 0.017165163066981806 0.005008648380260908
671 -0.015283855220674818 0.019309463942325227 0.01415356376309291
377 0.0017092940607911012 -0.0027230605853323874 -0.008891092124360222
666 0.0008839841169486361 0.004753796067724932 -0.0008506483013834329
721 -0.0027657163259452856 0.004805106440817715 0.0006850103301620602
722 -0.0017822363171638136 0.0020854071331620435 0.006796697817441401
672 -0.008502725605025416 0.01831833492708628 -0.009741656667425179
1000 0.0011704930669836954 0.00475642652961909 0.005711025691145967
728 0.009661314926763497 -0.020478379762269548 0.023937195235502817
379 0.010102880246187938 -0.015942709940338338 0.027754065390678342
375 -0.002753292829357262 -0.0021099260511731484 -0.005029327883399712
974 0.00916390862801659 0.0015686541060299392 0.001420720722765695
244 0.006298987061490503 0.004644458437498988 0.004549614847667732
245 0.0012865491113885916 0.00454521867537606 -0.003594217831953334
376 -0.006631016654342104 -0.0020912422282423964 0.0007471082617872216
105 0.004466631310552271 0.0067995929110020404 0.004370904746029841
844 -0.00017774039333968167 -0.0007917805280316895 -0.001624612044957457
243 -0.0037075720705479357 -0.003067059925531036 -0.001306214425329102
246 0.006573562251460657 0.002537086214401107 -0.0001723012398770678
373 0.005555305107027917 -0.00023732251756555358 -0.0009029299525529111
374 0.0016955068430855585 0.0014509207654416507 0.009506443804858192
381 0.022537549808587135 0.00951691480269411 -0.0021634089639350406
382 0.003799560632976653 0.00922010548356408 -0.016634685191175187
160 0.01651802774046036 0.0039317489620821515 0.0012681599950319729
156 0.004585100656904883 0.001470718842759378 -0.0022808944130630025
152 0.004750627377136568 -0.004287430999896506 -4.501544535651521e-05
908 0.0036151559334060327 -1.9594380416628393e-05 -0.03519059475686996
847 -0.011876305489535745 0.01668440664311418 0.005022072129577702
841 -0.0010859950685890097 0.0006240432355389716 0.005396256860823147
842 0.0020812095876376257 -0.002864819315107117 0.0004840007002485207
848 -0.01460825737546761 0.021858085595641483 0.01763200211701965
849 -0.012483433223689023 0.007531854941340494 0.02100425750267246
153 -0.0007023047465356596 -0.0009725910223350222 -0.002515507340870233
154 -0.0004617462753269453 -0.001796420240990253 -0.0060596186684003656
155 -0.004359256833822459 0.001986156847293127 0.0034656263202295415
750 -0.005429991645462582 -0.004025882172005168 0.013351203518995153
755 0.007010725713520474 0.00372380228225218 0.030959337205263834
754 -0.0011664970967077588 -0.027627394467475367 -0.03362495149015037
749 0.0033159491827280596 -0.002610243002016456 0.0023656960574432134
716 0.006529646172620221 0.005029112138794839 0.028294810625105145
709 0.005060273976591346 -0.006532492005450328 -0.0025366614816847892
717 0.009429089454465862 -0.021527373764259915 0.02355336124568292
964 0.00209005311117911 -0.003758554809690599 0.003622606561406778
963 -0.001332168433716665 -0.01055720747827755 0.0007273044292239963
715 -0.003422485530541357 -0.011188430080994382 0.005190331691678438
817 0.0033425518803293524 -0.004827671199072069 -0.004867578648446099
818 -0.004560846992879358 0.00033200255584690596 -0.0023683959015758566
334 0.023015371935218944 0.011799274768709754 -0.015465635309649166
20 0.013712780230254837 0.013248246645320993 -0.018029920969547066
969 0.0178231043252664 -0.02495503459262 0.025916484368346707
247 0.018402303639161115 -0.010522996972273525 -0.009548418811028499
961 0.00658555651261915 -0.0009096376459655336 -0.01066419809462124
962 0.0010003301835177158 -0.0009778855771539624 -0.00624858974523493
967 -0.003940420902852329 -0.012395422299385396 0.006117867134271881
249 -0.02733314360969367 0.002824457064456186 -0.004335766887394133
241 -0.0010977343763168875 -0.0004143479590600662 -0.00011360345318250753
968 0.008252966589656515 -0.0009223208878271298 -0.007246003216127569
209 -0.0006634714827268746 0.008555538556546624 -0.04141209788743985
210 0.014229966048305362 0.0031076732468345446 0.018539247566881408
756 0.02625320177018695 -0.020899747434128372 0.007815327835369196
748 -0.0009912854908438766 0.0059565225866277105 0.003276615934276413
747 -0.0036634897174169997 -0.0030136451527395403 0.0005474826451507867
751 -0.0034395382196390884 -0.03265201975240975 0.02560666144347391
370 -0.010567594337158513 0.015199258797731232 -0.012771002475639158
363 0.004994556363981768 6.650095593075307e-05 -0.001260676653417737
365 0.0054712115299399644 -0.0009494598118820832 -0.002198443739469488
371 -0.01065915593782229 0.012441685076594764 0.014749904787260114
366 0.0016391270784020318 -0.001003744896348504 0.005278811526154973
364 0.005028129124692598 -0.0020903429887786976 -0.0023258458866352847
746 -0.003742177853464104 -0.004052860509674855 0.0011673618152822744
321 0.017200389091979507 0.00498863785382835 0.006415614575741739
322 -0.013598159592029667 -0.010168988178230781 0.006570508744159523
687 -0.0003908097644189681 -0.00042125421687142466 -0.003583219662221044
2 -0.0022233730797404814 0.00587564060723573 -0.003482390187027784
511 0.012528915571651473 0.01602995749276904 -0.011658116540101016
420 0.017718046875554918 -0.010399285835236916 -0.0025462582188718027
51 -0.004201273287912305 0.005085973989512753 0.0021502922254776377
391 -0.022191706421136912 0.011237813725984772 0.010876294268816707
65 0.003997480420553598 0.00376892865817726 -0.007367112160027626
809 0.008393635213580466 0.007401005716283856 -0.0005556143843089985
806 -0.0030041165128823944 -0.0004639360217104691 0.0011157622776594078
807 0.0007795155533069332 -0.00015270035668739067 -0.00043745193549883643
413 -0.00011615665716798491 0.00036504552072553803 0.00023033359889533905
64 -0.006172514202750282 0.0022594659387295962 0.004701305041260778
63 -0.00466369546147214 -0.003267540638535287 -0.0008728699613247005
69 -0.0022583456853262963 -0.031864412113426374 -0.024072886253106395
810 0.004692873127908629 -0.0005056876944895422 0.002818767125687946
434 -0.013089790715425757 -0.004887457736185944 -0.0013419164526814204
435 -0.0036964844704237463 0.0044287959290738865 0.0003157016430809694
437 0.005357715344901343 -0.0013343831142511192 -0.0004713612186116813
438 -0.0036548097978561897 -0.005830328803653447 0.0036706008555295053
442 -0.024311506379663415 -0.012386814484046866 0.024797882602419115
443 0.006591472398327379 0.01675976229639458 -0.014015649787829055
444 -0.0012297816909078011 -0.008397078061544602 0.010942404169895406
436 0.002175346491697339 0.003681686368742246 0.0006399695622196788
433 0.0060336494516840585 0.0007381819188011827 -0.002503649202625814
441 -0.007349898479129206 0.008368015931373558 0.0251183459384182
554 -0.00019455684200912895 -0.0013361872672800759 -0.0015482207404916854
440 -0.024398464850094677 -0.003725008872819634 0.029566027171028873
971 0.011110414392995364 0.00404687178116038 -0.023657520710274348
439 0.01714732243093479 -0.0014575129520137313 -0.004873863926545593
936 0.017082006603541314 -0.006021337842757829 -0.013956433668189137
555 0.0044614508747934 0.006789467957739302 -0.004634119767650028
228 -0.005595691268561933 -0.006159469632503259 -0.021122266673407643
227 0.024976141502508768 0.013658646601254678 0.008942473922713854
110 0.005790935241526683 0.03818264692366512 0.010023479691660493
109 -0.02204346170651731 0.0028880899016922945 0.016866291295576756
108 -0.009901588360652039 0.003959311750869473 -0.01820232314802648
107 -0.015639194607225747 -0.005324705503968647 0.007830231674114225
850 -0.01581687159469442 -0.009225770118921403 0.010807538676064618
852 0.005060676074513206 -0.01076343311928709 0.012400276144306747
102 0.006352013727446367 0.005092932262796575 -0.004287244249918081
103 -0.00047252059883141895 -0.00630839869635969 -0.013819353623887715
104 0.00818451660065584 0.0045731139556061 -0.0009664918048025846
101 0.004119681399880335 0.004991977194392181 -0.002589594208446209
106 0.001150479049718138 -0.0006779264734898625 -0.0034801852205540657
846 -0.0030336535536057787 -0.00437027566385265 0.004166715105396308
851 -0.026019376554541673 -0.005671895452821295 -0.022809196670192412
927 -0.0024461037658233013 0.005014685589578311 0.003136999881458152
928 0.010570179980863098 -0.0032542079748826697 0.007589796643467628
931 -0.003568915000004962 -0.01317583540960973 -0.009714975829776044
884 -0.0034866269044712362 -0.0020988992522264598 -0.021221938201076315
877 -0.005731646925101936 0.00023401206359685773 -0.0010179956198308807
885 -0.004388145425347364 -0.01949803742031717 0.006638874873159685
883 -0.010340697570494932 0.01002483241340289 0.019542367414363982
926 6.246754330891416e-05 0.0006232572124861794 0.0008288539144426564
933 0.0035157580122731967 -0.016747469377057133 -0.030020152077142807
930 0.009420843823665365 0.00038007740029884126 0.005293282450432973
992 -0.00027067339903608486 0.0037231923649553526 0.006779127718014815
925 0.004064592840577134 -0.004975725210720855 0.0015305401287797336
932 0.001406292942006515 0.014963353270112632 0.015110328606258102
159 -0.01864111240018172 -0.0006176199297226827 -0.014254943098041187
845 0.002539774153647174 -0.003926722093784922 0.00627431505796306
843 0.0011556798613442188 -0.000323894479600792 0.0016525397214237495
111 -0.0006196748547562862 -0.004084042889851255 -0.009985696471831862
112 -0.0023478072286052436 0.0021177859561490107 -0.005512131855813154
119 0.011767604891503573 0.03564017011837684 -0.021144677650819427
120 0.027284088613859572 0.01708019427118571 0.010397975043249021
556 -0.0036480264165726574 -0.008151988275219561 -0.0010313139110317993
564 -0.004858240861538318 0.015812964709818623 -0.00038484570857976515
118 0.00748771395152088 -0.028167622235251644 0.0352828373482618
878 -0.003997791489090407 0.0028953303458733614 -0.005204863238477638
879 -0.0002608732117352593 0.003292921508556037 0.0003960017233924759
880 -0.004731484428580985 0.0030480339887318723 0.0063191324892331435
888 0.01159377102064441 -0.008036625796277853 -0.010502450670467465
827 -0.004984858656752432 -0.03139875574383983 -0.007182708399615614
970 0.01975289100102838 0.004634639937842622 -0.0026291766663424556
966 0.003779172611319262 -0.000672620713793899 -0.00603313883476606
972 -0.02201647502439683 0.0006257662131910014 0.0013998734466469014
965 0.002662143642550032 0.0025741366238179065 0.0015736106103106532
823 0.009594301632079836 -0.011545573708785816 -0.025149965601446316
861 0.004307732030704104 0.023140774828069612 -0.008377815618035479
242 -0.004798855661659687 -0.0055910128041884105 0.0058498026979292
250 -0.005792062601106969 -0.02708738674087087 0.013602694797849526
248 -0.0044691505730545126 -0.020369366287301092 -0.0030152201000398105
997 -0.00022611610516019528 0.0019820658875105215 -0.000813696929848454
361 -0.006543773119481675 -0.005195578809722865 0.006543695210515405
362 0.00611233201384859 0.007956234828650193 -0.005465779435276323
369 0.015132828099585754 -0.012100124419956606 0.026508099886347797
368 -0.019255498843696678 0.0045053684089113475 -0.012337175112718363
998 -0.0012060988732895532 -0.00522870340604496 0.0068055244334661764
995 0.0014840644233898466 0.005811333426196196 0.0025241295388665624
996 0.004309381740386324 -0.0009438008761209524 -0.0016094794824222081
999 -0.0005414872486356357 -8.489695459438491e-05 -0.0013417613635561638
820 -0.004766189247408523 -0.0015394751420129706 -0.0030831009632112092
819 -0.0025936460629635296 0.001960303835734396 0.0024543468653062984
826 -0.03995421838565061 0.004214164346851965 -0.006553808897586084
821 0.004257946781566248 -0.0006263562328317523 -0.0046251786677295945
822 0.0023691777026847685 0.0022854739014661505 -0.004593659456991197
828 0.001367558297269158 0.0328318387369542 -0.004367639619635168
553 0.00836699466174156 -0.002865316614164007 -0.00039871346470862003
929 0.0048529608221901084 0.0016135599237836217 -0.0008169859539102865
117 0.008546181548597421 -0.010025241826450221 0.017189751101629593
643 0.011159432225711044 -0.006720740813509142 -0.004248227430092908
417 -0.009172265762424652 -0.007105316601186467 0.018262300963303245
557 0.0027389954802331524 0.001966220567046255 0.008964791650756044
58 -0.00405117332782607 0.012564344275292285 0.003311342032046927
548 0.004515630871648575 0.007749099963882999 -0.012599246757718778
991 0.003181568801328775 -0.00436616550803509 -0.00362661559086732
990 0.0015724103054605275 -0.009744238938619672 -0.0017421584542259355
632 0.010166397856502687 -0.010247402910742743 0.0072957187644590695
993 -0.0033108871127893688 0.004849393272409387 -0.004183789906947904
631 0.0018750986823046789 -0.006728361606337878 0.022795881906451716
229 0.006860575570776968 -0.004642859343361365 0.01746411671443249
222 0.0007563758186738223 -0.003487136153543782 0.0026472340782289295
230 0.02086643660254544 -0.0135837634114004 -0.00731596265167472
223 0.004914127152467035 -0.0008403728862193649 0.002483246146065077
626 0.005544354065756108 -0.002315400247666176 0.003446416630303029
281 -0.00705662549695926 0.0046285702795128255 -0.002278562162096373
287 0.0032585854164079407 0.006124298884509803 -0.03507159026224353
289 0.010413067964007722 0.0039641214903852594 0.010953013263294795
625 -0.0011695456429623638 -0.004989043892935853 0.0003206501036127872
288 -0.015980854700045767 0.006212434962901604 0.03366993135094333
282 -0.002750626548338814 0.0021497190533493827 0.0033512855306953447
290 -0.013892482976456613 0.00855072299356215 0.023652686177114208
549 0.007613744422065548 0.014972702273694993 -0.013910564559330547
541 0.0013757940764845054 -0.001366573594231728 0.0035462208599782667
283 -0.003642012743112572 0.0070214314070737 -0.0027756651673972008
547 0.017624162432927266 0.022354529608065884 -0.029857969878903257
60 -0.013980497654390949 -0.009744910841971769 0.003581412640736806
627 0.006057632318279217 -0.004318832251382976 0.004048760499108532
286 0.0022586246876793946 0.0015268234403384567 0.0012598524118420055
284 -0.00543747308611098 0.002030350749955212 -0.01008549629791476
136 -0.0032387124533283804 -0.0027033034766332184 0.006929318027470343
542 -0.00550985203034791 -0.005930532278799693 -0.000505955063427307
137 -0.024059461951627153 0.02116392010578265 0.00585133914042727
221 0.0070921742109197935 4.8425896536291046e-05 -0.008344500343965305
694 0.0017420246235739303 -0.003598212505893082 0.007226341045964484
689 -0.005749191798097366 0.0024560582983759126 0.001591078575562361
285 0.0076592674975377705 0.008264392467397809 -0.006175146474099415
131 0.005555366574140177 0.010565971027789126 0.0037197034204103164
543 0.0009624997513329054 -0.0043401019523945225 0.006009883508970889
688 -0.006684305030735594 -0.0060388605174026095 -0.0022089490402535323
225 -0.00539314472324872 0.00718087244809216 -0.00022558921005602585
226 -0.01388403793669935 0.0014863071062399603 -0.0016530088938683382
224 -0.0011578266499768183 0.003757184321599068 0.005979723759609668
690 -0.00185731200689356 -0.0020756881425431327 -0.0025281172004179924
696 0.0031753892396076456 -0.012256477378532298 -0.010927113231309711
994 -0.0017447263793829036 0.002922287733453339 0.001434255533741425
977 0.00321233828425648 -0.005484529663473406 0.00344755758248078
695 0.0030365002716096203 0.022326723850719158 0.008849924780169658
7 -0.020732852169148174 -0.00502855208897611 0.021856484056716308
525 0.0059212527653989344 0.0059846051167568816 -0.015481214874328476
567 0.0032168514773900625 -0.0022335056605748776 0.0013176492935430004
568 6.884384511969686e-05 -0.0005918986492432912 -0.00040836793423207557
569 -0.0008136126924156334 -0.0030932963997905598 -0.0034378158075092356
576 -0.006565389900180659 -0.01679975750292671 -0.016683907254527564
570 -0.0007553204904861934 0.007962097190493062 0.002002179254671997
1 6.254669723175303e-05 -0.0002721088723426012 0.0008774284271008442
4 0.001221553801246802 0.0008103391570897329 0.0004675766385463782
5 0.006830208051086639 0.0022387109666815626 -0.007054040893860087
6 -0.004220593714812618 -0.00195040632078322 -0.0010235679288297566
575 -0.013580751645918899 0.002103043113263796 -0.012373106792026436
574 0.0021739716473681654 -0.025593670597000136 0.017722733537640246
8 -0.006646375759408691 0.005789898546273855 -0.010638863667285423
520 0.0014210359796082998 0.009431805960329479 -0.005140845776547975
808 0.0041370248953497375 0.00724703337832418 0.004757658483609995
805 0.007420626957192214 -0.00020793505416193383 -0.0018860741330634406
811 -0.022549638714624287 -0.0008508964715576963 0.015704216342078116
411 0.0030234469152811134 -0.002005558815050397 0.0034336676789725336
558 0.0009487968373611277 0.0002253138164633671 -0.0037508169526974684
517 0.002221987074081727 -0.006655797197090837 0.004312707731945222
524 -0.010981408264719323 -0.00666279129852331 -0.026898537908050135
523 -0.007836855731110108 0.004126573078318381 -0.009251513257945996
563 -0.015065747177193391 -0.026152106339747766 -0.014013501103214502
562 0.0028946609469810264 -0.0269729969702998 0.013063281620741904
571 0.01356762343198991 0.012466914443472936 0.011715888059614425
566 -0.0016640626118828823 0.0022551594261652425 0.0028619323853909156
518 0.006264451276117354 0.004577204182229883 0.002649646099860812
519 0.0040389071941901965 0.0025930890037972904 -0.00726259044111102
235 0.0031051966983140643 0.0019474584117311455 -0.002845399273177532
114 0.0005579799291947559 0.006554387662482489 0.0031120449989442515
113 -0.0054824371259074795 0.002704128397590335 -0.003391127554526874
565 -0.004127001415794951 0.0016810278405669933 0.0020268955467673926
232 -0.0003338785640910105 -0.0005436820180815097 0.002775609687303767
239 0.007955075949692194 -0.012413470281483758 0.013122895230872194
234 0.0004985408478308301 0.0028056240631844347 -0.0012759722551942392
231 0.0029620584462833727 0.0033505967736456384 -0.0006282590781886552
236 0.0009788053420695956 -0.004159414061928253 -0.0008823301241406166
881 -0.007198291999323325 0.003412970426817773 -0.0005185901772773566
882 -0.001812490896139352 -0.004250015911758437 -0.007271430282433518
886 -0.010886760246307579 -0.011728923063335922 0.017876482550819316
887 -0.013665641533171558 0.00418796961835639 -0.00590682950802056
233 -0.0027103566897307306 0.0065564460313241564 -0.006129569848592773
240 0.008320701085257887 0.0072182763510144875 0.014404989132397527
135 -0.005224254278193069 -0.0015165874089481288 -0.0023209086375321573
134 -0.0024332237693446683 -0.003163417988945041 0.0011211137709008514
133 -0.002163428491551677 -0.0024047608574575227 0.004297328584461569
237 -0.007372771066435399 0.01429350879926138 -0.010644593395847834
238 0.007804012123703955 -0.01056600262563394 -0.004266085103933339
132 0.005615453792510966 0.0026788046143957126 -0.012171618284689174
139 -0.0042719574281546435 -0.01071566305339256 -0.007177754816382608
419 0.008008165659149953 0.018346840106012677 0.024858083811602164
414 -0.0032080081291754126 0.0030177685380090346 0.0020026367831363747
418 0.015497153334171922 0.0036905513915238023 -0.009823289997501686
636 0.014831063805167003 0.0021363875895804613 0.03232929060241442
138 0.021541432560860167 0.0053924722096487885 -0.017042507119258008
863 0.013753852433111198 -0.002632464335328787 0.015719172036828676
862 1.7662797409272424e-05 0.0036975439862965455 0.011527749667067476
858 0.0025592766101080306 0.005585446454293354 0.0026871337963698385
857 -0.005836089679734185 0.000376456492025633 3.241296052639103e-05
860 0.012322272016842413 0.00733131715226605 -0.029597791703491617
856 0.00013781344134352767 -0.00624440833417208 -0.004578668563671097
864 0.005761210505613479 -0.006934091821053596 -0.004937743084007546
855 -0.007156843921595198 -0.0007389619753148645 0.0015381389074418392
854 -0.005505777931428188 -0.0017925126341930236 -0.006558759337805959
853 -0.0033636681907477407 0.003019740011144747 0.0026387098847039736
859 0.012266810048602774 -0.04997193040219692 -0.01888089483072378
544 0.0023112370044217744 0.008488052696472438 -0.0018623012556705813
552 0.0001512139942289146 0.03243980295195668 -0.011864408502726199
546 0.0035050021086904777 -0.003902186525846558 -0.00044739095589352247
545 -0.00029027055267597776 0.0002580577263734227 0.004914079586514136
551 0.003719900102578431 0.02944233366610875 -0.017241595704349234
550 -0.007454702651312247 0.003993430608589498 -0.03634902521492847
787 -0.013966913498324988 0.008644016661385319 -0.011414653321085636
197 0.015643611386727332 -0.021249001329033904 0.013324584719838889
198 0.01687321080474726 -0.005937888502638973 0.004744885504739534
507 -0.0014013982460193833 -0.0028297536852899974 0.0011838558163715827
509 -0.0016033455931670681 -0.002545751225940776 0.002636711990868609
195 0.0005141455152400819 -0.0011196572667599351 0.004711328151392759
191 -0.0026162755801552007 0.0075859504005836645 0.003503036342487571
196 -0.002753381636780914 0.0035730288871734955 0.004780568191997608
200 -0.0015035904323472142 -0.016575431813104023 -0.02902695760672961
192 -0.0008777888340213982 0.007078698200632894 -0.005339431031870916
199 0.017473828825809824 -0.01615018370629234 0.010646755450274756
194 0.0045701381922974875 0.000980999026558049 0.011238857035313956
215 0.0020582080706995523 0.0011763981435225167 -0.005033938433109062
193 -0.0036307757929642187 0.005035257729497457 -0.0013268343735558191
211 0.009190133314426937 -0.0017424134857569479 -0.0005149801276129066
212 0.002477857117983564 -0.0007504621600993958 0.005861925025781947
213 -0.0008762611952390296 -0.0023926214594721788 0.0013687859876189681
214 0.00295152705211095 -0.0045295842701112135 0.002274642391148863
217 0.004504726806663662 -0.01447118938533541 0.004468649335573111
219 -0.006816134217854599 -0.0027070878061143007 -0.012320107878456202
220 -0.03072826978414473 -0.01222507736424372 0.012949472126089922
412 -0.0003178061534275387 -0.000651486257208765 -7.990378254747915e-05
572 0.012931779450599392 0.022016575842934517 0.016461639840245706
140 -0.00036168385161058767 0.004159255917123393 0.031351594613345184
573 -0.0314752436759631 -0.01455823256956502 0.01002604679709139
296 -0.0010113334170330638 0.004809045465403489 0.005392767436766755
255 0.0005121135546258127 -0.007388545563747307 -0.0065013768754420085
291 0.0009262377613581315 0.0023770486736451866 -0.0013877952815313029
297 -0.008190169991769773 0.023624481691166377 -7.711873418104936e-05
705 -0.01629820271729378 -0.010007112947215385 -0.004503786692541488
704 -0.002757441123925201 -0.00606802930236008 0.003606742627458865
698 -0.0010866388948330005 -0.001697564791915159 -0.0002538608553605229
697 -0.00011011869980192141 0.0016758110647053625 -0.00675401370106152
699 -0.0034717393716767425 -0.0020291231814600938 -0.0007964847733399235
298 0.022661476472117883 -0.012743043195705458 0.0038192021221481313
703 0.013355823503015032 -0.018771005079334727 0.017586864448000745
254 -0.00015895161802187335 -0.00037377184292555006 -0.003086179517101567
256 -0.00104189451191927 -0.003885796451807873 0.0011068558461187362
629 -0.008615664619720123 -0.0010829371892442487 -0.0059102202021254656
535 -0.011238226661685823 0.002175314413353855 -0.012099111523274295
529 0.0012237114003647233 -0.0011801991412089185 -0.0012207016640615575
530 0.005978623009845773 -0.0018512501777392248 0.0017444754228169554
536 0.011128780591346714 -0.0072046028427754675 -0.008504569981292396
537 -0.0029733261851369215 0.011994499138797809 0.006894100072899063
116 -0.000179513519660253 0.004085303105010887 0.0029970946263321334
521 0.00041147034409217683 0.005758951648225041 0.0066794131351916525
816 -0.050203355926160965 -0.02502007287336127 0.018911983031639972
635 0.006178827678202134 0.012586937808260826 0.008981522872686066
630 -0.004772884215850179 0.009695673331333646 0.0016602810172768937
424 -0.0017334068058678497 0.0034119184667324425 -0.0039001429211031214
429 0.029366017919632434 0.024635267004840585 0.03226527168118893
421 0.0012943505872668162 0.00010699379632337849 0.00487021989586726
427 -0.011545044999710168 -0.027030740945602982 0.01809471911035886
423 -6.653354762480372e-05 -0.002883922598596975 -0.006793839000695196
915 -0.0004204818439335038 0.002716331092945053 0.0016406720867374815
681 0.03218697951951254 0.008079691774076813 0.04152986577216784
430 -0.00807182957885612 -0.0006872154463707801 -0.017839564886262847
835 -0.00735401310397758 -0.005003036030408343 0.000978976732158794
590 -0.0006963740418325016 -0.007626516931541753 0.0009809737767869106
589 -0.004265071979052676 0.004694528832216858 -0.0004896186286611936
596 0.020942071877062464 0.013679499937919453 0.014888539421214462
597 0.005767851504853277 0.007027383588190233 0.03106254474725423
595 0.0008112385674380045 0.0006792519681984267 -0.01298621990732728
947 -0.02399893995450389 0.008984842532970027 0.0022242413876398504
875 -0.005115654268881804 -0.027857322737412583 0.023079263263795047
761 -0.0010363952148215536 -0.000974094594120644 -0.004613979974823472
940 0.004978348756259963 0.0015139560302760123 -0.0020654422180531335
939 -0.004616735255502336 -0.005531696003281339 0.008980683504187613
406 -0.01979299515948731 -0.00579847786496116 -0.026767639400230376
190 -0.017476235052475773 -0.0005593460723841337 -0.0012705789824819915
182 -0.00047040256433409587 -0.007682861616080435 0.005254763483719688
946 -0.020236677868107036 -0.0011490364843559308 0.005301515819598703
942 0.002976382227370148 -0.004152779126858733 0.002886541424622282
948 0.010253216447784387 -0.035615136924845595 0.00021885308271056558
941 0.0031774670892016845 -0.0016570151265656158 0.0001399275977488101
331 0.0021793663613203923 -0.004406080719772682 -0.028136030063976518
188 -0.015542596070910096 0.021333190485867945 0.004165769136284786
325 -0.0030203216494939632 0.0024457017613017614 0.0009617591055970946
326 -0.0040598686771135635 0.002321276767476962 -0.006836742669002035
333 -0.01795017465638518 -0.020366127461901667 -0.01499940897347886
181 0.0002786341190421507 -0.003902886966029139 0.0013911776179989053
187 0.012387931600005024 -0.026170820361352102 0.007778130788955209
328 -0.008835300520534698 0.002663813165664094 -0.005220460918277178
207 -0.015381074428122811 0.019035056460482352 0.005433778984224019
67 -0.006646042712390305 0.0120846720074158 0.0041233979410372585
959 0.005520180158321718 0.023169716658141125 0.0013709866571428296
960 0.01821221859394507 -0.007098801401077631 0.0038547736209832185
346 -0.008581983376450405 -0.005604542813739741 0.01578273309297838
954 0.006171404608361088 -0.004916807915954332 0.0010290418535223896
146 -0.001475096603542446 0.0009450013754549985 0.0015103059138465264
295 0.0025284007767913306 -0.009151934808387203 0.0029740400434055125
144 0.010238799056155469 -0.00209936193586609 0.0025552805319486987
145 0.0015434653672126595 -0.0018960427444218617 0.0015744501306075925
953 -0.0005705594638122483 0.0032894358918136623 -0.009656919845782168
952 -0.0009882180450437523 -0.000551922344557904 -0.0027445445580361306
348 -0.0011142041129447045 0.018604383238858706 -0.009648924267335785
951 -0.0008431323757950906 -0.002521961960119299 -0.0001512257649958552
342 -0.0027787170628615293 0.006326975641601882 -0.009913886361558138
780 0.0015882797016157555 -0.00357273325586727 0.013672825864733801
774 0.0029036587418761126 -0.00872553526645324 -0.0022635563130429465
778 0.036452371084788694 -0.01589767269497236 0.019198478032486487
779 -0.017913677903966172 -0.016420971905215083 0.011683812743898035
975 0.005147193989335271 0.007798736175174592 -0.005983932692657459
189 0.014221211979770793 0.002231426066273718 0.007461724147179619
85 0.002003421886170248 0.0018308877100166588 -0.004873360213479234
591 0.001638433023924742 -0.001765958518685275 0.0019475787747504033
593 -0.006440519301819058 0.0014729805915996736 -0.0006155580973937955
870 0.004204708369264732 -0.00047908749522089945 6.568414642029801e-05
874 0.00018704977826066807 0.01406859283311128 -0.022839005786894337
876 0.017336853155989273 0.0066597789996284225 0.027529588053973486
422 0.002564135363421898 -0.0026531365959606714 -0.0026120459819495524
428 -0.027149107302133164 -0.011703265326311106 -0.003669518112194576
592 -0.0008073763216283124 0.004365745834859728 0.004447909466359725
872 -0.006045653488124426 -0.008292948474489201 -0.011351177614136267
37 -0.00924740346107404 -0.017794973300217287 -0.00263436390657841
38 0.029446189465803692 0.021848877067858465 0.012272325202925063
31 -0.004562608551446187 -0.0007629115692759008 0.002107268439161081
865 0.0013458659102977709 0.0006280138837037787 0.0031071340478391256
40 0.018345264984361218 -0.007138548130530376 0.012405411055075482
32 -0.0010404045948863602 -0.001905238233527854 0.0015156144582478101
594 -0.005365758338373811 -0.0014415534702819357 -0.0037977841979452446
598 -0.004610321600161239 -0.001960171139667973 0.012170196890410495
599 -0.0008106963174053731 -0.01584689313929484 -0.027768506505160225
600 -0.0025016355018139974 0.004763147191594945 0.013682601817914596
866 -0.008106126066027149 -0.005918420246152044 -0.0020513918497177238
867 0.007704419437758282 -0.008475660753503405 -0.004620802758067856
868 0.005607554151477444 0.002739057364710304 -0.0008850530166772527
873 0.005168435603025866 -0.01134731340405753 0.004326399434183432
33 -0.006446206986436876 0.00558816929575998 0.0075539481160194835
869 0.0002810235661960973 0.0031648312346910833 -0.00469704201205764
36 -0.001042908315212348 0.0030632982826837613 0.0004661608139143786
34 -0.006063449169129294 0.0056178058566881345 0.004274243961670773
871 -0.014120284586465654 0.016292151346045152 0.027192949517293737
612 0.005034669348721013 -0.020796490314586802 0.008087305342016543
943 0.009826660059398971 0.018002032466298515 -0.017961101014331432
938 -0.0022407066615263847 0.004404815794609606 0.00029726225097306033
945 0.014842668133044822 0.0003525229930360242 0.006630138627266721
937 0.012004952488352209 -0.006091309794600926 0.0038895987761612895
944 0.0257155543818183 -0.002503356285912719 4.981334051571554e-05
39 -0.005005689552464858 0.008302734058075037 0.013838481387740631
425 -0.0004915466528416975 -0.005356469539530872 0.007141625296368509
606 -0.0037878821611194093 0.006070302507058213 0.0014499018035232202
916 -0.007444395636942931 0.0013425026806654153 0.002083301480902211
914 0.00318832056073373 -0.0017929519018825197 -0.00201113506141721
623 0.013968790695782184 0.030358488093434062 -0.010882177100840306
332 -0.012840910296712764 -0.018735403410529886 0.005283604632624558
920 -0.0003381585627126325 -0.006114884062113583 -0.00628882154026838
97 0.01746659394787453 -0.008620980264531421 -0.019864342047586914
680 -0.008095755869761266 0.007244399437775343 0.01515025969236006
183 -0.0002737276648706041 0.004627911989593537 -0.00030665276962369743
96 -0.007595854659154078 -0.006740724775336231 -0.002759663655462744
129 0.009805934255899094 -0.011707668914835306 -0.014476195932520438
130 0.003968362926262185 -0.018039124422148136 0.023954223371760744
913 -0.0008741318585439091 -0.008884789006210835 0.0010511550939389885
919 -0.018636775001034497 -0.0054314690174571394 -0.0129030931593067
184 -0.0025756566222767045 -0.003906260111103053 0.0009775503300086881
185 -0.004316458886852504 0.0016513094598953808 -0.006949997411248162
921 0.008884614830579615 0.01774770721776603 -0.028530092034380533
351 0.002678718437288828 -0.0008046681144198679 -0.002562122725401035
352 3.064215964200836e-05 0.0028680173548502937 -0.003966374293334097
350 -0.008381146487478926 0.0010265853522775468 -0.0019643043657623467
356 -0.009208158154535847 0.0016292180954640377 -0.030691341894020004
349 -0.002294066257678497 -0.002359835182463162 -0.0025308464366022706
186 0.0003625437755795974 -0.00401486079486954 0.0008588791691168469
357 -0.00032157839382531317 -0.0015255468024696324 0.008974364716290838
355 0.024017301291900862 -0.003217830068973917 -0.006156863281847384
615 -0.004374674117447742 -0.003486226662455588 0.0002710119314191448
617 -0.0013643644512313126 0.005594442052205054 0.003917907667701268
618 -0.003331539988298315 -0.0011458174981438692 0.0018975718553677654
679 0.007627787808476921 0.012770525108172332 0.005690164842499784
673 0.006560025056017694 -0.0018831897584088695 -0.00144856877738585
674 -0.0019349506501602422 0.0017267619716184641 0.004374108213658383
91 0.0028975725195842165 0.0013062186059619016 -0.0026553406596415805
98 -0.0035586358294742147 -0.011555469543982871 -0.012124748843383309
614 0.00363757082474603 -0.004961125051573707 0.0017467913571291818
621 -0.013048137514122165 -0.009555938069317465 -0.013016791446604524
620 -0.029670432681047444 0.010812134039405981 0.024673347986444674
613 0.0013968090226448686 -0.008127987240695196 -0.004478206162540118
619 -0.015574892229584572 0.0034141433576646172 0.009856285724865391
624 -0.005718864431207681 -0.01563819646727244 0.006893757635860191
122 -0.0040187377644866976 0.003692953989498327 -0.0012761435518909067
607 0.0007046485500585744 0.006091282762910514 -0.02298600255852176
604 -0.0012839471783440922 -0.002160781225080769 -0.0007797872979164106
622 -0.0010377260676605678 0.006216945694644716 0.013609360739228705
603 -0.004472508578897619 0.0027125010596856223 0.0031528844266110944
675 -0.0029805845369071876 0.0058310072723094354 0.00337351455100539
676 -0.005558970052907143 -0.004153217541436889 0.0031836379152138596
127 0.0019419403340936402 -0.0082570790739052 0.005706380813402563
123 -0.00447397583987376 0.0021874454159863514 0.001974947032887264
773 0.0032699659277647137 -0.0009588450503254396 0.001779035834385107
128 0.024445321541726288 -0.004878111104373415 -0.034382345976183934
838 -0.009873361369016155 0.03311729199829397 0.020329851477336174
340 -0.0015868906081633167 -0.008840565131114298 -0.0017252655592988116
345 0.0026956018223548996 0.016888484651590246 -0.012931113876136387
125 -0.003480183827026688 -0.0036336598803454628 0.0028348841769727908
121 0.0073679632838370025 -0.0018070596012367919 0.0036361814520744153
124 -0.0010226807581097633 -0.005037057457490138 0.0019528218434260195
126 -0.0008582303915008298 0.0021217276716647793 -0.01331446681708595
771 -0.0019021783293891581 -0.0044098578871714245 -0.00130155258821623
775 0.0023660149783545975 0.01689344674765525 -0.004818221413102712
777 -0.024570980386468762 0.017608592965462442 -0.00195839840327808
769 -0.0055674981867902835 0.0023626764341442563 0.004807181887906915
770 -0.00385944386998793 -0.005430083498014656 -0.00165517937078624
772 -0.008622057612971709 0.005409666873605351 -0.0024733847526515846
830 0.00019677044408050184 0.0017276770069827969 -0.0061515626261493764
831 0.0004191310625647314 -0.002364304553991838 -0.0027916966114682703
836 0.003612341896386074 0.022403632697316368 -0.0011976931448374052
837 -0.0047981652454029584 -0.023353708158477638 0.01944496657586134
829 0.00280310251079434 0.0034931807702690987 -0.0025209678377539047
832 0.0015176454446230439 0.004120715559738992 0.004308612583419977
833 -0.005349621782537484 -0.0026623751382960892 -0.001344695642934948
776 -0.015989196553763827 -0.01900433166845365 0.004972982564654097
834 0.0006246036699004917 0.0033513621666194683 -0.002622632163168438
740 0.001741754023818471 0.0019670017256385418 0.021403402520285334
734 -0.0003944625645243651 0.006104377009004282 -0.0047976101761277165
737 -0.005185384573906332 0.0038222092901915006 0.004180748471409236
733 0.004010848906486111 0.0005101972710549008 -0.0025386429114165874
741 -0.0036503891367129305 -0.018030992801978635 0.009607860404341417
735 0.002058640557456033 0.004456515399243675 0.00341728922967993
432 -0.009630055689154593 0.00984206804218067 -0.014878699096088148
459 0.005867319761162505 -0.0007727050240766764 0.00794450497149977
380 -0.009516888982342214 -0.010005795400186451 -0.0037113351412151395
323 -0.020490791860484657 0.007076311939068927 -0.03489866142001148
317 -0.001942430761184534 -0.0014794290379691608 0.006703300869496682
494 0.0006930829491649182 -0.0004947763381891018 0.001541281615072497
493 -0.004468065164623248 -0.006495959569745004 -0.002429823750349556
500 -0.012359268978094449 -0.0033934657939858493 0.002786019350658265
501 0.022225708310238207 0.002036715447819793 2.8478474656143967e-05
499 0.0035357949881597963 0.026149651289775186 0.02515268928572466
824 0.026540878804999585 -0.014851205151408036 0.012264687225951346
336 0.0058241676514835805 -0.025281138129339926 0.03564818947985692
335 0.0068738222567506935 0.011627143386792141 0.0038071765419782047
329 0.0010512898254691973 0.0007093028716496328 0.0015165246563656114
330 0.005296148925395042 -0.0034483111734486416 0.0036468996405367954
327 0.008714246344250267 0.007715776225167598 0.0006906980122861733
201 -0.0070311959816676 0.002060461201462008 0.0027302877398228185
202 -0.0007169545385692631 -0.00030465410480214896 0.007391086634974641
203 0.0065955285982646 -0.0012733431792195272 0.002825675453193727
206 0.0030591622189027287 0.006729965420410816 0.0035695359927561225
204 -0.0002435420205123772 -0.009129502967887358 -0.005397045728198049
208 -0.01098252194734701 -0.000970715583325921 0.0002847743183039571
205 -0.00309641595530184 0.006414456941921626 -0.002571786669586985
347 -0.0051329947237500955 0.007368226179219701 -0.007309314545534689
341 0.00914003183104548 0.0016786323705804379 0.003424697433660446
450 0.000633060201641822 -0.002191799640107383 -0.0010304373388980088
454 -0.0076548703394764194 -0.02175361737685765 -0.006666297799646551
456 0.012900141743577257 0.0017744970886135454 -0.003665523792895275
455 0.02108967352948168 0.022170354318730316 0.010502276771088236
950 0.0036803206073694676 -0.0006019554618097755 -0.009570256654913439
372 -0.004765952779090886 0.003279902709180224 0.02441047778476957
949 -0.0009114260315587877 0.0008603855265183368 -0.0012976265349392364
956 0.0037266983905644593 -0.003511213853008818 0.005038591166775317
957 0.004963587401215639 0.00649407349104731 -0.025665245273575082
476 -0.01638265861915915 0.037185047581579894 -0.004542791473935783
611 0.006565214409488088 0.002860387414170538 0.011544823119588567
270 0.03005144029862985 0.010623497422115852 -0.004979889999655629
269 0.005304959584743968 -0.01712824596840099 0.02447001159207126
461 0.006268973704039031 0.0064375400111209395 0.0003836516453411972
460 0.00038115896888628016 0.0037238190099044936 0.0029726283389327032
466 0.019631560121733792 0.001048582237321949 -0.016763605828727962
893 -0.0016949908075930898 -0.0037046265604519925 -0.003785546751780041
610 -0.00882003457176045 -0.010816386488127917 -0.00287530585517527
894 0.0034935927321183896 -0.004801351787452229 0.007008089621828683
898 0.008068544650990115 0.025142874539554005 0.02137435405262612
900 -0.009353616084729493 0.0034766514435630377 -0.0019943491176206436
899 0.016939790059078228 0.005643324109027619 -0.005884116339360006
605 0.0029809257742833125 -0.00313842826351507 -0.002118541473020294
262 0.007422213536654592 -0.005248682416666321 -0.004099024871700954
263 0.0026937593586225336 -0.00417740747743792 0.0039212578037361
268 0.00428327924242978 -0.027326239772078757 0.008618725432838977
616 -0.003910077432423583 0.003464537151547506 -0.0037105796409535093
261 -0.0007271033820331839 -0.0003470633930834506 -0.007902978115389812
608 -0.0016877079195094548 -0.008226362146264538 -0.0010966201280908894
601 -0.0022555618946456858 -0.005845870638189848 -0.0009805629641112686
602 -0.0036074611826795652 0.0013597689770975527 -0.005602723459493463
609 -0.0196118416141379 0.00709875061288173 -0.0025242948895360397
267 -0.00949707222498143 0.023513472927775406 0.007606639740238741
660 0.014876252802749176 -0.012698759209592668 -0.0012481170411199577
487 0.012464583815834302 -0.006601163822323183 -0.03467539459739685
489 -0.0049973582822122765 0.009392406158113339 0.026660529936430664
481 0.0008381194742358448 -0.0015772612420820427 -0.006553789567149062
319 -0.03076950480085105 0.006151257199355275 0.014547974294191563
313 -0.002620795686202583 0.003738982416515164 -0.0005466026551141605
426 0.0027623487398007506 0.0012977252419658677 0.0008579258133705161
431 -0.00810961630500249 -0.008848070553503885 -0.00856175932669752
339 0.0008339648040805434 -0.004707924449548272 -0.00019991079920532684
839 0.009505837849987086 -0.02316361517226393 -0.006343728257682291
337 0.0008405501705222322 0.0038607328934358877 -0.0025499713626591113
343 0.01589503475999104 -0.009609369092199045 -0.026404362077798362
955 -0.007122536016095362 -0.0249745098018369 0.006367900593528482
344 -0.024165741579784707 0.008050780143541096 -0.016539885859896606
338 0.0006909581244807165 -0.0017834697697940798 0.0029823376549715235
840 0.004351029171633571 -0.0017950123567514991 -0.00826769346505127
316 -0.0003925267571753502 -0.0014853018306978738 -0.00034550169890949425
324 -0.000963820532819951 -0.021652230295421314 -0.00814083788319734
318 -0.0019162559499520209 0.0006798266648468856 -0.0032115728852733453
490 0.01891847684986153 -0.020453725460153612 0.0011253500309193886
484 0.0007579799730394324 -0.003175376823875706 -0.0035286624346036206
315 -0.005144195887948848 0.0028171974227041412 -0.0030342819335367234
508 -0.0015116979003275972 0.0009319907704774986 -0.0033336264898819424
35 0.0012140436577615886 -0.0017506156210395734 0.0006038949196690898
739 0.005221797095823275 0.0009421242337120855 -0.017070976207606572
814 -0.0051350150863161805 -0.0117533449583048 0.00445079970504016
27 -0.004456585998606064 0.012529797425390024 -0.031699283077108995
353 -0.00020571766708158288 -0.0026028073060124957 -0.009826148765969118
677 0.0010148801490480713 -0.00037236348202678135 0.009015583550479472
94 0.007004546777055858 -0.01253400934496835 0.0031716984252677122
815 -0.006517571581178699 -0.007515399959250883 0.004981455225461123
743 -0.0018470446940340914 -0.003050415661288394 0.0033930524662473018
495 -0.006643937565190637 -0.0047658243528470754 -0.003166968691494648
496 0.002362770273117929 0.007005044606810763 0.003369564120917834
497 -0.004593833569036513 -0.00025787752033249855 -0.002453441232651454
502 0.0004589632695513576 -0.02031147477038434 -0.01254589731418922
825 -0.0311314092492194 -0.022404125028226758 0.0007843870968806114
498 -0.005774652197094376 0.0012532641914415204 -0.0022246816791593855
504 -0.00284955861358963 0.016434182070170958 -0.003514712954350323
179 -0.019307965139186836 0.0038838478622228428 -0.004025527811356087
180 -0.0033879753514345027 -0.006714355906577813 0.03132468425057566
503 0.00540011922486667 0.005293722974644484 -0.022565824027118906
582 -0.0033409891608721133 0.0017701195580752682 -0.003716497895038105
587 -0.01736591944914604 0.00822606974028563 0.026021971796901053
586 0.017242920322441232 0.005453636904962047 0.032414282315939597
581 -0.004076341872898387 -0.0003954114464386819 0.004808658409633027
588 -0.025569598515363477 -0.021225726391502685 -0.005897210009370102
579 0.00062219812672307 -0.006479410534556474 0.0008339190043104543
580 0.002671217680385605 -0.010673513838424641 0.0008092967020136986
449 -0.005819624016676177 -0.0026378960769180373 -0.006763787143042653
447 0.00018689065785810116 0.0002845564101434778 -0.001201045984645969
446 -0.0001344479573932638 0.004868394517452903 0.003471869459902149
367 0.006514938747300239 0.0036226791096406925 0.008808975603413401
469 -0.0035506392522387537 0.003255498769743685 -0.0010752890837641207
470 0.0022662340826853427 0.0012539858350641866 0.0037208205592800837
477 -0.008214776553817126 -0.003991243268180272 0.0028263822437431226
259 0.00986947519621218 0.029297647418281936 0.02651770997406957
475 -0.004251868215125095 -0.00867344047389345 0.0007680603053659338
257 0.010982666694078881 0.016989106564293553 0.005855198214192968
560 0.02294590712151243 -0.01139305350851919 0.0013302480243273214
896 0.027484747211674977 0.011322406967735255 0.009580290293481106
935 0.0037770650228890895 0.01701975831149959 -0.011549295841015557
468 0.008265835202855608 0.0030033194293928632 -0.004245031384196517
462 -0.003036392518686047 -0.0024992955073354878 0.0009615282311108473
467 -0.004863113827390712 -0.009596042344143518 -0.0025873427188433185
889 -0.003675337609576513 -0.008098836129898233 -0.0026293696585770153
890 -0.005238566042539848 -0.0008379502149155562 -0.0029236167215903673
891 -0.003097201463132146 -0.00025980942883119604 0.0008489103963983014
892 -0.0011266090776385054 -0.00801771150441211 -0.002151169784919757
895 0.00321555409423876 -0.005018270426955856 -0.00039164655659048095
897 0.009683188070215173 -0.011832078035694443 -0.02160396651349954
308 -0.007146590505096789 -0.021610767609329673 0.024846970614596422
301 0.0016898991923060447 -0.0010448986629776592 -0.0053003809367026585
307 -0.010209031341583866 0.002837854248309183 -0.008313892950978287
561 0.02367183240543593 -0.004145306324840716 0.013360413846597103
265 -0.002461887905661968 0.0007956772845511247 0.0027674769860137807
264 0.0023839500605231188 -0.0015355912046351682 0.006198922921393877
445 -0.005095719001061362 -0.003985646608862532 -0.004141258752396072
453 -0.01073189944527126 -0.0015516237388508308 0.015560847145299496
934 0.013840148024425595 -0.03189795171487343 -0.03017825731169626
659 -0.006967793357324211 0.001449606343890762 0.03275186884910424
266 -0.004075758355387577 0.0029084988533692544 0.00850880888680318
654 0.0059581399828162905 0.010307521345766624 0.005240488444348823
658 0.02157499784138611 -0.00977373806646725 0.01330323229146609
653 0.006198437160034164 -0.002610849008253951 0.004813742142544928
652 0.0005623629097569656 -0.002164989855659959 -0.006175808043967705
651 0.0013805612935987824 0.0017582188651226506 -0.0004442588727174991
650 0.00518772694394632 -0.0038891852058836026 -0.007010663269021
649 0.012678609660754622 0.0053721449015302946 -0.0005671104443080711
578 -0.002408213259542223 -0.0012502074401210155 -0.0028686760870970302
488 0.005336132747740865 0.014252733018838 0.02839711296882664
320 0.009706072572594638 -0.0014190295525723664 0.008401253744280524
655 0.000893755781076641 0.011320584037066867 -0.02708652961753312
168 0.0009683485603706344 0.0043080109155976595 0.009128324764413925
585 0.0065512239641867705 -0.010380213335103009 0.019704848731685987
577 0.0007689454966056536 0.004798647816969591 0.0017597472143364408
584 0.0068813226116718725 -0.027658137840571546 -0.022862364124496257
656 0.00030588745189028156 -0.004583346352181688 -0.016709975839387638
161 -0.0036451747483429767 0.0026463343469188085 -0.0057087333631151505
170 0.0074649829541688995 0.003663467128222773 0.008920735699833302
162 -0.0022103733993444775 0.00371881613638021 -0.0034712700338671836
163 0.004175248836458846 0.0005415674259845808 0.003515533968133387
169 -0.006504994333677207 -0.01899077369348998 0.0017992863889041537
448 -0.0017471026110383529 -0.0034755836161132732 0.0004597597712610113
471 -0.008885024811786182 0.008697719997690355 -0.0008046102357370137
451 -0.010783120324039627 0.005986035715267407 0.006816460993043768
491 0.010021253219345093 -0.026155958944588595 0.010203039696562204
486 0.003907814994666834 0.0011300766951234285 -0.006592938993577325
492 -0.01356073687500994 -0.005321534721472778 -0.008603674647158303
485 0.0012761790376651632 0.0020240263267814794 -0.0044705065750669255
482 -0.0016961147336681994 -0.002211814416578613 -0.007964882753580264
483 -0.0035465452578995827 -0.0014128236409909542 -5.574107442386716e-06
637 -0.009590948475584556 0.005093265442636077 -0.011267121916411781
644 -0.013275932652728861 0.020005080850496623 -0.015112278920055677
638 0.0038333610484965384 0.002357008779176331 -0.002305685364696513
645 -0.00482877719825471 0.009015941473194579 -0.0045974671676631
314 -0.0006481716712114621 0.004998671180181307 -0.003699319134251723
473 -0.004292527468327667 0.00036572097820884974 0.0036638350407040975
472 0.003915418302199868 -0.0010582720220202342 -0.003995951992518537
312 -0.010374638434901547 -0.01896829962503705 0.0072151081369307936
115 0.0030392888684708476 0.005698907606048943 0.0024992441043737517
759 -0.003382022275549718 0.0075584963343519225 0.003400032536634514
760 0.0015363472698231785 0.0006333938784666213 0.0009707095877618021
172 0.00876706808286438 -0.008728252096386726 -0.0016281620947585997
178 -0.004695958939477409 0.006486364628105903 -0.017066174122235146
177 -0.015580446698213972 -0.012761143010186955 0.020267915716196912
758 0.001990749096080696 0.001363229259687131 0.0003386649495258785
757 0.002052084320833073 0.0005664004872084613 0.0056450170336105245
781 0.0072869391818783675 0.0018500068802860259 0.006130319132157367
788 -0.009102241341083677 -0.01613694820154244 -0.00534819242479166
789 0.008055582168095033 -0.01667609522901949 -0.019387133379128646
171 -0.00018846306687259865 -0.00013631328777353611 -0.00914607963940352
782 -0.0007285533627719417 -0.00028024535092216897 0.0030210165543424804
765 -0.0203738965745874 -0.031996924652272975 0.007223583671662754
763 0.019725781962970618 -0.01412321272350935 -0.015374275608297018
784 0.00452467419064251 -0.0007451989879068774 0.004117753308603522
29 0.0405363433453829 -0.007949389956285172 0.004833024168999426
176 0.00325356850016018 -0.007824080811466846 0.007433149757626663
23 0.0006707003110309808 0.002591787944403153 0.008433902241282865
22 -0.004841269449312126 0.006495221052410314 0.004075262768569842
783 0.005328433209598353 0.00027418442271088725 -0.004356563739778281
514 -0.00239758679458385 -0.012654874302309055 -0.010917054807096638
785 -0.01110205562338685 -0.0012101499877458614 0.005366132664806379
792 0.004418682819760991 0.03298259905667509 -0.005508903788003612
786 0.0042328702845763466 0.00033419050216979435 0.008239347622566773
790 -0.0093873504606838 0.008878448490678325 0.007488872558145217
516 0.020726174575726515 0.006934123011804825 0.0012140667416511135
515 0.0007751158914469563 0.011997301014211302 -0.017132870968936453
510 0.004384758184640285 0.002180842425599066 3.911658171669547e-05
791 0.02902954667799048 0.001582375856410331 0.006854518535335275
216 0.0015544693975363233 0.00431054421940643 0.0025913119887284427
218 -0.01334764710041879 -0.0005932092245896509 -0.006400596402254099
294 0.0001741053697918565 0.0018261273179222466 0.005255347392160272
293 0.0005203368886655711 0.001333322235419229 0.006715227302688145
299 -0.004666611106902434 -0.0007960633018124913 -0.028937932454577032
292 0.0035540885810073828 0.0027793219272068763 0.002856871999763903
300 -0.011583474952610707 0.004997107451227157 0.007049340958261837
708 -0.010573347019861354 -0.006020360736188842 -0.024967187070608157
706 0.0030047775345781536 0.006101057157893813 -0.00280639936109348
701 -0.0012837368816606856 -0.00035373300193241734 0.003083303201925587
253 0.0001960246932072956 0.00045802730189513905 -0.0003353045301090622
707 -0.021677637298255233 0.0015341330155531053 -0.02043924108243027
251 -0.0025501374327860874 -0.0036668337850287716 -0.006927570305480249
258 -0.0019594789613130987 0.022825482267137594 0.0018606897877990296
700 0.005894580853339085 -0.0019419016976230604 -0.0062727271649362275
702 -0.00016229986435136476 -0.003067501265844802 0.005526887381658103
252 0.007666806070777542 0.003128479200749264 -0.0026407961089685633
260 0.007185782970267742 0.009587143513671372 -0.004406149398046015
1010 0.0016033200243608335 0.0017894934719704459 0.0007600930226030599
742 0.016477138567377734 -0.005496382495771075 -0.0028662206343378215
452 0.00025071342274506986 -0.023181701205049376 -0.012314369886270153
311 -0.01291711990990207 -0.0218651465460736 -0.015621306240244083
95 -0.0017241827217083505 -0.005108646300383048 0.001413899177836668
764 -0.01041825150894451 0.029773517321188905 0.02097731853207469
30 5.076387176759867e-05 -0.0025593243326964997 -0.0035078761967311
28 -0.015165252321491969 0.020368075754439073 -0.002044648566002104
641 0.0019657994612921354 -0.00547716969485105 0.002327346181136619
173 -0.0013803450775492284 0.0016616988393625403 0.0001270214046179745
309 -0.007252214065731533 -0.0164766622145145 0.01782791240275201
633 -0.0030521965475397922 0.0017095576145885387 -0.025768698092700017
174 0.0015842945283600258 -0.00150960837132779 -0.0005459071450406115
175 -0.00028626330962119926 0.0016074322774987761 0.0033167800220574657
302 -0.0053178023066146685 0.00018254280811048166 -0.002218685830732853
278 0.009917978322604479 -0.008621840652752804 0.007361646363386831
280 0.03703155596519924 0.002097633296914056 -0.016469867059997374
642 -0.0038837649330203234 0.006466237975298116 0.0028429193742757594
648 0.0037578205642733358 0.0177627686207072 -0.016632369656402222
271 -0.002085272709971014 -0.005742188849082913 -0.002299824429822056
272 -0.0008994445234262136 -0.001693186697144056 -0.00928728896450198
277 0.014364099068466425 0.011527164937297604 -0.01198681298930944
279 0.017081481622977186 -0.0012814591905917184 -0.011197021957722951
303 0.0009425811904439791 -0.001160517195147057 0.000596095959217086
304 0.0058412657878129425 -0.008941576147897265 0.009120582509169809
305 -0.009536493980757158 0.003941833872014045 0.0029111475024829764
306 0.0012194489681172896 -0.0008345692280736324 0.0023161341676111026
310 0.013590118875715824 -0.008296593071759709 -0.013414686530020207
647 0.008147594528508125 0.010216941193697798 -0.0045416859695329315
540 0.0035336529675930786 0.02239163530973061 0.020702933692947467
276 -0.0024331739484935344 -0.011847856686884985 -0.0024245434694575596
273 -0.004710199374590912 0.0054402675900968745 -0.005955143964898201
274 0.006714206931346255 0.0037522865835053943 -0.003053007763282816
21 -0.002971729357113736 -0.002884579110886355 -0.004345085542753684
24 0.005308678501081449 0.016083587041530713 -0.004666142653951706
26 0.007023227324615869 -0.00019033648224948602 0.005071561555524935
657 0.0011760834965291935 0.002795193162048672 -0.0034259283057720847
583 -0.009268175763313475 0.007574117780325069 -0.010793025725613577
166 0.0015833688392594596 0.0005672013956447718 7.530537976768343e-05
167 0.029694472851647318 0.005855018514446256 0.013562001324208622
979 -0.0026147752462288803 0.0036191966051747574 0.0007700180065772399
539 -0.0049730120867674315 -0.005250844389417421 0.0068355681698388125
534 0.0036912205671431695 0.0004309336390294088 -0.0076490269141132675
538 0.02426660546626523 -0.019983151306178424 0.013408773667876338
92 -0.005621700053252985 0.005537060492776967 -0.004515229413414547
99 0.015184524310599272 -0.025602065209235147 -0.02895105131435686
358 -0.002097396578281234 -0.020197430353140602 -0.010988841826730409
100 0.011874665700872943 -0.0027687004857264333 0.01907712481619112
93 0.0036923702822345807 0.0011448945913095734 0.0012667266915209092
354 -0.0006304207663304835 0.0038415880097040765 -0.007688203816945513
359 0.04656948962397592 0.010986346626108758 0.01829523295697481
360 -0.0056699085920371185 0.011210627117255583 -0.012900473727937591
803 -0.0033976318636387646 0.0023739877317530034 0.0057174488550472205
165 0.010804091355984976 -0.0034100784519107475 -0.0015150295749044578
25 -9.687995430909104e-05 -0.0007536408851894768 0.002978846634448845
164 -0.0002226610143644032 -0.007280765809602663 -0.0009126518044466745
684 0.006015030519169627 -0.015833100611367005 0.00399192028495391
678 0.005634367333221255 0.00031459831576158406 0.0056261344755372065
682 -0.02787337616954586 -0.014115607716607232 -0.02105176054679991
532 -0.004490109017427086 -0.0033230981632356572 -0.0006733294376819572
795 0.006263312970061962 0.0027552468721623534 0.00254587449578964
531 0.001978219334667736 0.006863048899492323 -0.0021505909087389005
533 0.0023831604486995238 0.004680956398492955 0.0021690486318794934
797 0.00025051085926530963 0.002555463538351733 -0.0007316024597176451
798 -0.0003426337679833021 -0.0007480714848367961 0.005943370970386648
804 -0.014769916409042546 0.011917258324777238 0.010717440989806686
802 0.02901467974317591 0.01586246217986437 0.0015645472031317442
526 -0.015377368646973814 -0.020661947600863418 0.0009043933225177973
796 0.0009927979043431003 0.0011733545171027098 0.003334565324624985
480 -0.017298092821559776 0.004196447290064941 -0.011550569207860472
1012 -0.001623359798290333 -0.0034179683283975053 0.004906469309926069
683 0.01912416007749359 0.027202508537246452 0.017750883561180174
646 -0.020947592846560534 0.007069821248708175 0.006559300846676965
639 -0.006290155449991933 0.004157761055373907 -0.007408966434025504
479 -0.020728928917910946 -0.015498987267516062 -0.003113652356354
474 -0.0036137950211241874 -0.0001778170222532428 0.0015863380511531142
628 0.001185927529193629 -0.0016582174453459743 0.0004133128336360651
1013 0.0026826586531468843 -0.00854439943693135 0.0002824383935495689
528 -0.011465990177580149 0.022794837968805014 0.01165460346208261
522 -0.0008683207736906899 0.006891947821204087 0.009551910216316913
527 -0.002664086428383303 0.016700475822181027 0.0004971379375047102
634 -0.004599474911799204 -0.004153935961041704 -0.03575543771419732
640 0.0015851118364361393 -0.005879494101505533 0.005299046519706531
794 -0.0017327229620149988 -0.0021129466158958665 0.005001603208795199
478 0.012934203763977274 0.0015041347668334662 -0.02237920402391291
1011 0.0005624897633285504 -0.004133085879107783 -0.0014486053527365407
738 0.0008894721605324956 -4.5572730911994177e-07 0.0009494889328670942
800 -0.008416281036532832 -0.015698797748940944 -0.001383491421204091
793 -0.00033953636447208585 -0.003358800919338732 0.0027688794800601203
801 -0.0011215029502307046 -0.012827820031468668 0.01489775092399156
1014 0.0034339102720613284 0.006246396038589072 0.000662091521522831
799 0.028948345558924737 -0.030675745697185706 0.027062155255917777
744 0.022375192299947177 -0.010415517842093568 0.0016184694537848432
978 0.003249560210044578 -0.011113661883301148 0.0010174175699064784
982 7.700418886979377e-05 0.00026196911656916667 -0.0008330577421311169
736 -0.001122230760414517 0.007058243354330195 0.002828886145990673
983 0.0013781080320393214 0.004853250122425566 0.0034838398607883597
275 0.0075884796098547634 0.004696304201246478 0.007369303140413839
976 0.004314838175795358 0.007210772377676792 -0.0026554541114350845
980 -0.0014505060579310157 0.007341063462046828 -0.00482104467300808
981 0.009890660567255192 -0.0030118720850440548 -0.007114859514040566
984 -0.002705161635958758 0.0031917117678714863 0.003084138376014264

Bonds

1 1 81 82
2 2 81 86
3 3 81 87
4 3 81 88
5 2 82 83
6 3 82 89
7 3 82 90
8 5 84 85
9 4 84 86
10 3 714 718
11 3 714 719
12 3 714 720
13 4 83 84
14 5 54 55
15 4 54 56
16 2 713 714
17 2 409 410
18 3 409 415
19 3 409 416
20 3 409 417
21 6 985 986
22 6 986 987
23 6 986 988
24 6 986 989
25 4 53 54
26 3 726 730
27 3 726 731
28 3 726 732
29 2 725 726
30 2 52 53
31 3 52 59
32 3 52 60
33 2 685 686
34 3 685 691
35 3 685 692
36 3 685 693
37 4 686 687
38 2 917 918
39 3 918 922
40 3 918 923
41 3 918 924
42 2 389 390
43 3 390 394
44 3 390 395
45 3 390 396
46 5 723 724
47 4 723 725
48 5 387 388
49 4 387 389
50 4 386 387
51 2 385 386
52 3 385 391
53 3 385 392
54 3 385 393
55 6 1001 1002
56 6 1001 1003
57 6 1001 1004
58 4 3 4
59 3 378 382
60 3 378 383
61 3 378 384
62 4 410 411
63 2 42 43
64 3 42 49
65 3 42 50
66 2 901 902
67 3 901 907
68 3 901 908
69 3 901 909
70 4 902 903
71 5 903 904
72 4 903 905
73 2 905 906
74 3 906 910
75 3 906 911
76 3 906 912
77 4 43 44
78 5 44 45
79 4 44 46
80 1 71 72
81 2 71 76
82 3 71 77
83 3 71 78
84 1 41 42
85 2 41 46
86 3 41 47
87 3 41 48
88 5 74 75
89 4 74 76
90 2 505 506
91 3 505 511
92 3 505 512
93 3 505 513
94 3 762 766
95 3 762 767
96 3 762 768
97 6 1006 1007
98 6 1006 1008
99 6 1006 1009
100 6 1005 1006
101 4 506 507
102 3 402 406
103 3 402 407
104 3 402 408
105 1 11 12
106 2 11 16
107 3 11 17
108 3 11 18
109 2 12 13
110 3 12 19
111 3 12 20
112 2 401 402
113 5 399 400
114 4 399 401
115 4 398 399
116 2 397 398
117 3 397 403
118 3 397 404
119 3 397 405
120 5 14 15
121 4 14 16
122 4 13 14
123 1 61 62
124 2 61 66
125 3 61 67
126 3 61 68
127 4 73 74
128 2 72 73
129 3 72 79
130 3 72 80
131 1 141 142
132 2 141 146
133 3 141 147
134 3 141 148
135 2 142 143
136 3 142 149
137 3 142 150
138 4 143 144
139 2 62 63
140 3 62 69
141 3 62 70
142 2 745 746
143 3 745 751
144 3 745 752
145 3 745 753
146 5 711 712
147 4 711 713
148 4 662 663
149 2 665 666
150 2 457 458
151 3 457 463
152 3 457 464
153 3 457 465
154 4 710 711
155 4 458 459
156 2 661 662
157 3 661 667
158 3 661 668
159 3 661 669
160 5 663 664
161 4 663 665
162 1 151 152
163 2 151 156
164 3 151 157
165 3 151 158
166 2 377 378
167 3 666 670
168 3 666 671
169 3 666 672
170 2 721 722
171 3 721 727
172 3 721 728
173 3 721 729
174 4 722 723
175 6 1000 1001
176 5 375 376
177 4 375 377
178 5 244 245
179 4 244 246
180 4 243 244
181 2 373 374
182 3 373 379
183 3 373 380
184 3 373 381
185 4 374 375
186 2 152 153
187 3 152 159
188 3 152 160
189 2 841 842
190 3 841 847
191 3 841 848
192 3 841 849
193 4 842 843
194 4 153 154
195 5 154 155
196 4 154 156
197 3 750 754
198 3 750 755
199 3 750 756
200 2 749 750
201 2 709 710
202 3 709 715
203 3 709 716
204 3 709 717
205 5 963 964
206 4 963 965
207 2 817 818
208 3 817 823
209 3 817 824
210 3 817 825
211 4 818 819
212 2 961 962
213 3 961 967
214 3 961 968
215 3 961 969
216 4 962 963
217 1 241 242
218 2 241 246
219 3 241 247
220 3 241 248
221 5 747 748
222 4 747 749
223 5 363 364
224 4 363 365
225 2 365 366
226 3 366 370
227 3 366 371
228 3 366 372
229 4 746 747
230 5 687 688
231 4 687 689
232 2 2 3
233 3 2 9
234 3 2 10
235 1 51 52
236 2 51 56
237 3 51 57
238 3 51 58
239 2 809 810
240 4 806 807
241 5 807 808
242 4 807 809
243 2 413 414
244 5 64 65
245 4 64 66
246 4 63 64
247 3 810 814
248 3 810 815
249 3 810 816
250 4 434 435
251 5 435 436
252 4 435 437
253 2 437 438
254 3 438 442
255 3 438 443
256 3 438 444
257 2 433 434
258 3 433 439
259 3 433 440
260 3 433 441
261 4 554 555
262 5 555 556
263 4 555 557
264 2 102 103
265 3 102 109
266 3 102 110
267 4 103 104
268 5 104 105
269 4 104 106
270 1 101 102
271 2 101 106
272 3 101 107
273 3 101 108
274 3 846 850
275 3 846 851
276 3 846 852
277 5 927 928
278 4 927 929
279 2 877 878
280 3 877 883
281 3 877 884
282 3 877 885
283 4 926 927
284 3 930 934
285 3 930 935
286 3 930 936
287 2 925 926
288 3 925 931
289 3 925 932
290 3 925 933
291 2 845 846
292 5 843 844
293 4 843 845
294 1 111 112
295 2 111 116
296 3 111 117
297 3 111 118
298 2 112 113
299 3 112 119
300 3 112 120
301 4 878 879
302 5 879 880
303 4 879 881
304 3 966 970
305 3 966 971
306 3 966 972
307 2 965 966
308 2 242 243
309 3 242 249
310 3 242 250
311 2 361 362
312 3 361 367
313 3 361 368
314 3 361 369
315 4 362 363
316 6 995 996
317 6 996 997
318 6 996 998
319 6 996 999
320 5 819 820
321 4 819 821
322 2 821 822
323 3 822 826
324 3 822 827
325 3 822 828
326 2 553 554
327 3 553 559
328 3 553 560
329 3 553 561
330 2 929 930
331 2 557 558
332 6 991 992
333 6 991 993
334 6 991 994
335 6 990 991
336 2 222 223
337 3 222 229
338 3 222 230
339 4 223 224
340 4 626 627
341 1 281 282
342 2 281 286
343 3 281 287
344 3 281 288
345 2 625 626
346 3 625 631
347 3 625 632
348 3 625 633
349 2 282 283
350 3 282 289
351 3 282 290
352 2 541 542
353 3 541 547
354 3 541 548
355 3 541 549
356 4 283 284
357 5 627 628
358 4 627 629
359 5 284 285
360 4 284 286
361 4 542 543
362 1 221 222
363 2 221 226
364 3 221 227
365 3 221 228
366 2 689 690
367 1 131 132
368 2 131 136
369 3 131 137
370 3 131 138
371 5 543 544
372 4 543 545
373 5 224 225
374 4 224 226
375 3 690 694
376 3 690 695
377 3 690 696
378 5 567 568
379 4 567 569
380 2 569 570
381 3 570 574
382 3 570 575
383 3 570 576
384 1 1 2
385 2 1 6
386 3 1 7
387 3 1 8
388 5 4 5
389 4 4 6
390 2 805 806
391 3 805 811
392 3 805 812
393 3 805 813
394 5 411 412
395 4 411 413
396 3 558 562
397 3 558 563
398 3 558 564
399 2 517 518
400 3 517 523
401 3 517 524
402 3 517 525
403 4 566 567
404 4 518 519
405 5 519 520
406 4 519 521
407 5 114 115
408 4 114 116
409 4 113 114
410 2 565 566
411 3 565 571
412 3 565 572
413 3 565 573
414 2 232 233
415 3 232 239
416 3 232 240
417 5 234 235
418 4 234 236
419 1 231 232
420 2 231 236
421 3 231 237
422 3 231 238
423 2 881 882
424 3 882 886
425 3 882 887
426 3 882 888
427 4 233 234
428 5 134 135
429 4 134 136
430 4 133 134
431 2 132 133
432 3 132 139
433 3 132 140
434 3 414 418
435 3 414 419
436 3 414 420
437 3 858 862
438 3 858 863
439 3 858 864
440 2 857 858
441 5 855 856
442 4 855 857
443 4 854 855
444 2 853 854
445 3 853 859
446 3 853 860
447 3 853 861
448 3 546 550
449 3 546 551
450 3 546 552
451 2 545 546
452 5 507 508
453 4 507 509
454 2 509 510
455 1 191 192
456 2 191 196
457 3 191 197
458 3 191 198
459 2 192 193
460 3 192 199
461 3 192 200
462 5 194 195
463 4 194 196
464 4 193 194
465 1 211 212
466 2 211 216
467 3 211 217
468 3 211 218
469 2 212 213
470 3 212 219
471 3 212 220
472 4 213 214
473 5 214 215
474 4 214 216
475 1 291 292
476 2 291 296
477 3 291 297
478 3 291 298
479 4 698 699
480 2 697 698
481 3 697 703
482 3 697 704
483 3 697 705
484 5 699 700
485 4 699 701
486 5 254 255
487 4 254 256
488 2 629 630
489 2 529 530
490 3 529 535
491 3 529 536
492 3 529 537
493 4 530 531
494 2 521 522
495 3 630 634
496 3 630 635
497 3 630 636
498 2 421 422
499 3 421 427
500 3 421 428
501 3 421 429
502 5 423 424
503 4 423 425
504 5 915 916
505 4 915 917
506 4 590 591
507 2 589 590
508 3 589 595
509 3 589 596
510 3 589 597
511 2 761 762
512 5 939 940
513 4 939 941
514 2 182 183
515 3 182 189
516 3 182 190
517 3 942 946
518 3 942 947
519 3 942 948
520 2 941 942
521 2 325 326
522 3 325 331
523 3 325 332
524 3 325 333
525 4 326 327
526 1 181 182
527 2 181 186
528 3 181 187
529 3 181 188
530 3 954 958
531 3 954 959
532 3 954 960
533 5 144 145
534 4 144 146
535 2 953 954
536 5 951 952
537 4 951 953
538 3 342 346
539 3 342 347
540 3 342 348
541 3 774 778
542 3 774 779
543 3 774 780
544 5 591 592
545 4 591 593
546 2 593 594
547 3 870 874
548 3 870 875
549 3 870 876
550 4 422 423
551 1 31 32
552 2 31 36
553 3 31 37
554 3 31 38
555 2 865 866
556 3 865 871
557 3 865 872
558 3 865 873
559 2 32 33
560 3 32 39
561 3 32 40
562 3 594 598
563 3 594 599
564 3 594 600
565 4 866 867
566 5 867 868
567 4 867 869
568 4 33 34
569 2 869 870
570 5 34 35
571 4 34 36
572 4 938 939
573 2 937 938
574 3 937 943
575 3 937 944
576 3 937 945
577 2 425 426
578 3 606 610
579 3 606 611
580 3 606 612
581 4 914 915
582 4 183 184
583 2 913 914
584 3 913 919
585 3 913 920
586 3 913 921
587 5 184 185
588 4 184 186
589 5 351 352
590 4 351 353
591 4 350 351
592 2 349 350
593 3 349 355
594 3 349 356
595 3 349 357
596 5 615 616
597 4 615 617
598 2 617 618
599 3 618 622
600 3 618 623
601 3 618 624
602 2 673 674
603 3 673 679
604 3 673 680
605 3 673 681
606 4 674 675
607 1 91 92
608 2 91 96
609 3 91 97
610 3 91 98
611 4 614 615
612 2 613 614
613 3 613 619
614 3 613 620
615 3 613 621
616 2 122 123
617 3 122 129
618 3 122 130
619 5 603 604
620 4 603 605
621 5 675 676
622 4 675 677
623 4 123 124
624 2 773 774
625 1 121 122
626 2 121 126
627 3 121 127
628 3 121 128
629 5 124 125
630 4 124 126
631 5 771 772
632 4 771 773
633 2 769 770
634 3 769 775
635 3 769 776
636 3 769 777
637 4 770 771
638 4 830 831
639 5 831 832
640 4 831 833
641 2 829 830
642 3 829 835
643 3 829 836
644 3 829 837
645 2 833 834
646 3 834 838
647 3 834 839
648 3 834 840
649 4 734 735
650 2 737 738
651 2 733 734
652 3 733 739
653 3 733 740
654 3 733 741
655 5 735 736
656 4 735 737
657 5 459 460
658 4 459 461
659 2 317 318
660 4 494 495
661 2 493 494
662 3 493 499
663 3 493 500
664 3 493 501
665 2 329 330
666 3 330 334
667 3 330 335
668 3 330 336
669 5 327 328
670 4 327 329
671 1 201 202
672 2 201 206
673 3 201 207
674 3 201 208
675 2 202 203
676 3 202 209
677 3 202 210
678 4 203 204
679 5 204 205
680 4 204 206
681 2 341 342
682 3 450 454
683 3 450 455
684 3 450 456
685 4 950 951
686 2 949 950
687 3 949 955
688 3 949 956
689 3 949 957
690 2 461 462
691 2 893 894
692 3 894 898
693 3 894 899
694 3 894 900
695 2 605 606
696 2 262 263
697 3 262 269
698 3 262 270
699 4 263 264
700 1 261 262
701 2 261 266
702 3 261 267
703 3 261 268
704 2 601 602
705 3 601 607
706 3 601 608
707 3 601 609
708 4 602 603
709 2 481 482
710 3 481 487
711 3 481 488
712 3 481 489
713 2 313 314
714 3 313 319
715 3 313 320
716 3 313 321
717 3 426 430
718 3 426 431
719 3 426 432
720 5 339 340
721 4 339 341
722 2 337 338
723 3 337 343
724 3 337 344
725 3 337 345
726 4 338 339
727 3 318 322
728 3 318 323
729 3 318 324
730 5 315 316
731 4 315 317
732 2 353 354
733 2 677 678
734 5 94 95
735 4 94 96
736 5 495 496
737 4 495 497
738 2 497 498
739 3 498 502
740 3 498 503
741 3 498 504
742 3 582 586
743 3 582 587
744 3 582 588
745 2 581 582
746 5 579 580
747 4 579 581
748 2 449 450
749 5 447 448
750 4 447 449
751 4 446 447
752 2 469 470
753 3 469 475
754 3 469 476
755 3 469 477
756 4 470 471
757 3 462 466
758 3 462 467
759 3 462 468
760 2 889 890
761 3 889 895
762 3 889 896
763 3 889 897
764 4 890 891
765 5 891 892
766 4 891 893
767 2 301 302
768 3 301 307
769 3 301 308
770 3 301 309
771 5 264 265
772 4 264 266
773 2 445 446
774 3 445 451
775 3 445 452
776 3 445 453
777 3 654 658
778 3 654 659
779 3 654 660
780 2 653 654
781 5 651 652
782 4 651 653
783 4 650 651
784 2 649 650
785 3 649 655
786 3 649 656
787 3 649 657
788 4 578 579
789 2 577 578
790 3 577 583
791 3 577 584
792 3 577 585
793 1 161 162
794 2 161 166
795 3 161 167
796 3 161 168
797 2 162 163
798 3 162 169
799 3 162 170
800 4 163 164
801 5 471 472
802 4 471 473
803 3 486 490
804 3 486 491
805 3 486 492
806 2 485 486
807 4 482 483
808 5 483 484
809 4 483 485
810 2 637 638
811 3 637 643
812 3 637 644
813 3 637 645
814 4 638 639
815 4 314 315
816 2 473 474
817 5 759 760
818 4 759 761
819 2 172 173
820 3 172 179
821 3 172 180
822 4 758 759
823 2 757 758
824 3 757 763
825 3 757 764
826 3 757 765
827 2 781 782
828 3 781 787
829 3 781 788
830 3 781 789
831 1 171 172
832 2 171 176
833 3 171 177
834 3 171 178
835 4 782 783
836 4 23 24
837 2 22 23
838 3 22 29
839 3 22 30
840 5 783 784
841 4 783 785
842 2 785 786
843 3 786 790
844 3 786 791
845 3 786 792
846 3 510 514
847 3 510 515
848 3 510 516
849 5 294 295
850 4 294 296
851 4 293 294
852 2 292 293
853 3 292 299
854 3 292 300
855 2 701 702
856 4 253 254
857 1 251 252
858 2 251 256
859 3 251 257
860 3 251 258
861 3 702 706
862 3 702 707
863 3 702 708
864 2 252 253
865 3 252 259
866 3 252 260
867 6 1010 1011
868 2 641 642
869 4 173 174
870 5 174 175
871 4 174 176
872 4 302 303
873 3 642 646
874 3 642 647
875 3 642 648
876 1 271 272
877 2 271 276
878 3 271 277
879 3 271 278
880 2 272 273
881 3 272 279
882 3 272 280
883 5 303 304
884 4 303 305
885 2 305 306
886 3 306 310
887 3 306 311
888 3 306 312
889 4 273 274
890 5 274 275
891 4 274 276
892 1 21 22
893 2 21 26
894 3 21 27
895 3 21 28
896 5 24 25
897 4 24 26
898 3 534 538
899 3 534 539
900 3 534 540
901 2 92 93
902 3 92 99
903 3 92 100
904 4 93 94
905 3 354 358
906 3 354 359
907 3 354 360
908 5 164 165
909 4 164 166
910 3 678 682
911 3 678 683
912 3 678 684
913 5 795 796
914 4 795 797
915 5 531 532
916 4 531 533
917 2 533 534
918 2 797 798
919 3 798 802
920 3 798 803
921 3 798 804
922 5 639 640
923 4 639 641
924 3 474 478
925 3 474 479
926 3 474 480
927 3 522 526
928 3 522 527
929 3 522 528
930 4 794 795
931 6 1011 1012
932 6 1011 1013
933 6 1011 1014
934 3 738 742
935 3 738 743
936 3 738 744
937 2 793 794
938 3 793 799
939 3 793 800
940 3 793 801
941 6 980 981
942 6 981 982
943 6 981 983
944 6 981 984

Angles

1 1 82 81 86
2 2 82 81 87
3 2 82 81 88
4 2 86 81 87
5 2 86 81 88
6 4 87 81 88
7 1 81 82 83
8 2 81 82 89
9 2 81 82 90
10 2 83 82 89
11 2 83 82 90
12 4 89 82 90
13 3 83 84 85
14 1 83 84 86
15 3 85 84 86
16 1 81 86 84
17 2 713 714 718
18 2 713 714 719
19 2 713 714 720
20 4 718 714 719
21 4 718 714 720
22 4 719 714 720
23 1 82 83 84
24 3 53 54 55
25 1 53 54 56
26 3 55 54 56
27 5 711 713 714
28 2 410 409 415
29 2 410 409 416
30 2 410 409 417
31 4 415 409 416
32 4 415 409 417
33 4 416 409 417
34 7 985 986 987
35 7 985 986 988
36 7 985 986 989
37 7 987 986 988
38 7 987 986 989
39 7 988 986 989
40 1 52 53 54
41 2 725 726 730
42 2 725 726 731
43 2 725 726 732
44 4 730 726 731
45 4 730 726 732
46 4 731 726 732
47 5 723 725 726
48 1 51 56 54
49 1 51 52 53
50 2 51 52 59
51 2 51 52 60
52 2 53 52 59
53 2 53 52 60
54 4 59 52 60
55 2 686 685 691
56 2 686 685 692
57 2 686 685 693
58 4 691 685 692
59 4 691 685 693
60 4 692 685 693
61 5 685 686 687
62 5 915 917 918
63 2 917 918 922
64 2 917 918 923
65 2 917 918 924
66 4 922 918 923
67 4 922 918 924
68 4 923 918 924
69 5 387 389 390
70 2 389 390 394
71 2 389 390 395
72 2 389 390 396
73 4 394 390 395
74 4 394 390 396
75 4 395 390 396
76 3 722 723 724
77 6 722 723 725
78 3 724 723 725
79 3 386 387 388
80 6 386 387 389
81 3 388 387 389
82 5 385 386 387
83 2 386 385 391
84 2 386 385 392
85 2 386 385 393
86 4 391 385 392
87 4 391 385 393
88 4 392 385 393
89 7 1000 1001 1002
90 7 1000 1001 1003
91 7 1000 1001 1004
92 7 1002 1001 1003
93 7 1002 1001 1004
94 7 1003 1001 1004
95 1 2 3 4
96 2 377 378 382
97 2 377 378 383
98 2 377 378 384
99 4 382 378 383
100 4 382 378 384
101 4 383 378 384
102 5 409 410 411
103 1 41 42 43
104 2 41 42 49
105 2 41 42 50
106 2 43 42 49
107 2 43 42 50
108 4 49 42 50
109 2 902 901 907
110 2 902 901 908
111 2 902 901 909
112 4 907 901 908
113 4 907 901 909
114 4 908 901 909
115 5 901 902 903
116 3 902 903 904
117 6 902 903 905
118 3 904 903 905
119 5 903 905 906
120 2 905 906 910
121 2 905 906 911
122 2 905 906 912
123 4 910 906 911
124 4 910 906 912
125 4 911 906 912
126 1 42 43 44
127 3 43 44 45
128 1 43 44 46
129 3 45 44 46
130 1 71 76 74
131 1 72 71 76
132 2 72 71 77
133 2 72 71 78
134 2 76 71 77
135 2 76 71 78
136 4 77 71 78
137 1 42 41 46
138 2 42 41 47
139 2 42 41 48
140 2 46 41 47
141 2 46 41 48
142 4 47 41 48
143 3 73 74 75
144 1 73 74 76
145 3 75 74 76
146 1 41 46 44
147 2 506 505 511
148 2 506 505 512
149 2 506 505 513
150 4 511 505 512
151 4 511 505 513
152 4 512 505 513
153 2 761 762 766
154 2 761 762 767
155 2 761 762 768
156 4 766 762 767
157 4 766 762 768
158 4 767 762 768
159 7 1005 1006 1007
160 7 1005 1006 1008
161 7 1005 1006 1009
162 7 1007 1006 1008
163 7 1007 1006 1009
164 7 1008 1006 1009
165 5 505 506 507
166 2 401 402 406
167 2 401 402 407
168 2 401 402 408
169 4 406 402 407
170 4 406 402 408
171 4 407 402 408
172 1 12 11 16
173 2 12 11 17
174 2 12 11 18
175 2 16 11 17
176 2 16 11 18
177 4 17 11 18
178 1 11 12 13
179 2 11 12 19
180 2 11 12 20
181 2 13 12 19
182 2 13 12 20
183 4 19 12 20
184 5 399 401 402
185 3 398 399 400
186 6 398 399 401
187 3 400 399 401
188 5 397 398 399
189 2 398 397 403
190 2 398 397 404
191 2 398 397 405
192 4 403 397 404
193 4 403 397 405
194 4 404 397 405
195 1 11 16 14
196 3 13 14 15
197 1 13 14 16
198 3 15 14 16
199 1 61 66 64
200 1 12 13 14
201 1 62 61 66
202 2 62 61 67
203 2 62 61 68
204 2 66 61 67
205 2 66 61 68
206 4 67 61 68
207 1 72 73 74
208 1 71 72 73
209 2 71 72 79
210 2 71 72 80
211 2 73 72 79
212 2 73 72 80
213 4 79 72 80
214 1 142 141 146
215 2 142 141 147
216 2 142 141 148
217 2 146 141 147
218 2 146 141 148
219 4 147 141 148
220 1 141 142 143
221 2 141 142 149
222 2 141 142 150
223 2 143 142 149
224 2 143 142 150
225 4 149 142 150
226 1 142 143 144
227 1 61 62 63
228 2 61 62 69
229 2 61 62 70
230 2 63 62 69
231 2 63 62 70
232 4 69 62 70
233 2 746 745 751
234 2 746 745 752
235 2 746 745 753
236 4 751 745 752
237 4 751 745 753
238 4 752 745 753
239 3 710 711 712
240 6 710 711 713
241 3 712 711 713
242 5 661 662 663
243 5 663 665 666
244 2 458 457 463
245 2 458 457 464
246 2 458 457 465
247 4 463 457 464
248 4 463 457 465
249 4 464 457 465
250 5 709 710 711
251 5 457 458 459
252 2 662 661 667
253 2 662 661 668
254 2 662 661 669
255 4 667 661 668
256 4 667 661 669
257 4 668 661 669
258 3 662 663 664
259 6 662 663 665
260 3 664 663 665
261 1 152 151 156
262 2 152 151 157
263 2 152 151 158
264 2 156 151 157
265 2 156 151 158
266 4 157 151 158
267 5 375 377 378
268 2 665 666 670
269 2 665 666 671
270 2 665 666 672
271 4 670 666 671
272 4 670 666 672
273 4 671 666 672
274 2 722 721 727
275 2 722 721 728
276 2 722 721 729
277 4 727 721 728
278 4 727 721 729
279 4 728 721 729
280 5 721 722 723
281 3 374 375 376
282 6 374 375 377
283 3 376 375 377
284 3 243 244 245
285 1 243 244 246
286 3 245 244 246
287 1 242 243 244
288 1 241 246 244
289 2 374 373 379
290 2 374 373 380
291 2 374 373 381
292 4 379 373 380
293 4 379 373 381
294 4 380 373 381
295 5 373 374 375
296 1 151 156 154
297 1 151 152 153
298 2 151 152 159
299 2 151 152 160
300 2 153 152 159
301 2 153 152 160
302 4 159 152 160
303 2 842 841 847
304 2 842 841 848
305 2 842 841 849
306 4 847 841 848
307 4 847 841 849
308 4 848 841 849
309 5 841 842 843
310 1 152 153 154
311 3 153 154 155
312 1 153 154 156
313 3 155 154 156
314 2 749 750 754
315 2 749 750 755
316 2 749 750 756
317 4 754 750 755
318 4 754 750 756
319 4 755 750 756
320 5 747 749 750
321 2 710 709 715
322 2 710 709 716
323 2 710 709 717
324 4 715 709 716
325 4 715 709 717
326 4 716 709 717
327 3 962 963 964
328 6 962 963 965
329 3 964 963 965
330 2 818 817 823
331 2 818 817 824
332 2 818 817 825
333 4 823 817 824
334 4 823 817 825
335 4 824 817 825
336 5 817 818 819
337 2 962 961 967
338 2 962 961 968
339 2 962 961 969
340 4 967 961 968
341 4 967 961 969
342 4 968 961 969
343 5 961 962 963
344 1 242 241 246
345 2 242 241 247
346 2 242 241 248
347 2 246 241 247
348 2 246 241 248
349 4 247 241 248
350 3 746 747 748
351 6 746 747 749
352 3 748 747 749
353 3 362 363 364
354 6 362 363 365
355 3 364 363 365
356 5 363 365 366
357 2 365 366 370
358 2 365 366 371
359 2 365 366 372
360 4 370 366 371
361 4 370 366 372
362 4 371 366 372
363 5 745 746 747
364 3 686 687 688
365 6 686 687 689
366 3 688 687 689
367 1 1 2 3
368 2 1 2 9
369 2 1 2 10
370 2 3 2 9
371 2 3 2 10
372 4 9 2 10
373 1 52 51 56
374 2 52 51 57
375 2 52 51 58
376 2 56 51 57
377 2 56 51 58
378 4 57 51 58
379 5 807 809 810
380 5 805 806 807
381 3 806 807 808
382 6 806 807 809
383 3 808 807 809
384 5 411 413 414
385 3 63 64 65
386 1 63 64 66
387 3 65 64 66
388 1 62 63 64
389 2 809 810 814
390 2 809 810 815
391 2 809 810 816
392 4 814 810 815
393 4 814 810 816
394 4 815 810 816
395 5 433 434 435
396 3 434 435 436
397 6 434 435 437
398 3 436 435 437
399 5 435 437 438
400 2 437 438 442
401 2 437 438 443
402 2 437 438 444
403 4 442 438 443
404 4 442 438 444
405 4 443 438 444
406 2 434 433 439
407 2 434 433 440
408 2 434 433 441
409 4 439 433 440
410 4 439 433 441
411 4 440 433 441
412 5 553 554 555
413 3 554 555 556
414 6 554 555 557
415 3 556 555 557
416 1 101 102 103
417 2 101 102 109
418 2 101 102 110
419 2 103 102 109
420 2 103 102 110
421 4 109 102 110
422 1 102 103 104
423 3 103 104 105
424 1 103 104 106
425 3 105 104 106
426 1 102 101 106
427 2 102 101 107
428 2 102 101 108
429 2 106 101 107
430 2 106 101 108
431 4 107 101 108
432 1 101 106 104
433 2 845 846 850
434 2 845 846 851
435 2 845 846 852
436 4 850 846 851
437 4 850 846 852
438 4 851 846 852
439 3 926 927 928
440 6 926 927 929
441 3 928 927 929
442 2 878 877 883
443 2 878 877 884
444 2 878 877 885
445 4 883 877 884
446 4 883 877 885
447 4 884 877 885
448 5 925 926 927
449 2 929 930 934
450 2 929 930 935
451 2 929 930 936
452 4 934 930 935
453 4 934 930 936
454 4 935 930 936
455 2 926 925 931
456 2 926 925 932
457 2 926 925 933
458 4 931 925 932
459 4 931 925 933
460 4 932 925 933
461 5 843 845 846
462 3 842 843 844
463 6 842 843 845
464 3 844 843 845
465 1 112 111 116
466 2 112 111 117
467 2 112 111 118
468 2 116 111 117
469 2 116 111 118
470 4 117 111 118
471 1 111 112 113
472 2 111 112 119
473 2 111 112 120
474 2 113 112 119
475 2 113 112 120
476 4 119 112 120
477 5 877 878 879
478 3 878 879 880
479 6 878 879 881
480 3 880 879 881
481 2 965 966 970
482 2 965 966 971
483 2 965 966 972
484 4 970 966 971
485 4 970 966 972
486 4 971 966 972
487 5 963 965 966
488 1 241 242 243
489 2 241 242 249
490 2 241 242 250
491 2 243 242 249
492 2 243 242 250
493 4 249 242 250
494 2 362 361 367
495 2 362 361 368
496 2 362 361 369
497 4 367 361 368
498 4 367 361 369
499 4 368 361 369
500 5 361 362 363
501 7 995 996 997
502 7 995 996 998
503 7 995 996 999
504 7 997 996 998
505 7 997 996 999
506 7 998 996 999
507 3 818 819 820
508 6 818 819 821
509 3 820 819 821
510 5 819 821 822
511 2 821 822 826
512 2 821 822 827
513 2 821 822 828
514 4 826 822 827
515 4 826 822 828
516 4 827 822 828
517 2 554 553 559
518 2 554 553 560
519 2 554 553 561
520 4 559 553 560
521 4 559 553 561
522 4 560 553 561
523 5 927 929 930
524 5 555 557 558
525 7 990 991 992
526 7 990 991 993
527 7 990 991 994
528 7 992 991 993
529 7 992 991 994
530 7 993 991 994
531 1 221 222 223
532 2 221 222 229
533 2 221 222 230
534 2 223 222 229
535 2 223 222 230
536 4 229 222 230
537 1 222 223 224
538 5 625 626 627
539 1 282 281 286
540 2 282 281 287
541 2 282 281 288
542 2 286 281 287
543 2 286 281 288
544 4 287 281 288
545 2 626 625 631
546 2 626 625 632
547 2 626 625 633
548 4 631 625 632
549 4 631 625 633
550 4 632 625 633
551 1 281 282 283
552 2 281 282 289
553 2 281 282 290
554 2 283 282 289
555 2 283 282 290
556 4 289 282 290
557 2 542 541 547
558 2 542 541 548
559 2 542 541 549
560 4 547 541 548
561 4 547 541 549
562 4 548 541 549
563 1 282 283 284
564 3 626 627 628
565 6 626 627 629
566 3 628 627 629
567 1 281 286 284
568 3 283 284 285
569 1 283 284 286
570 3 285 284 286
571 1 131 136 134
572 5 541 542 543
573 1 222 221 226
574 2 222 221 227
575 2 222 221 228
576 2 226 221 227
577 2 226 221 228
578 4 227 221 228
579 5 687 689 690
580 1 132 131 136
581 2 132 131 137
582 2 132 131 138
583 2 136 131 137
584 2 136 131 138
585 4 137 131 138
586 3 542 543 544
587 6 542 543 545
588 3 544 543 545
589 1 221 226 224
590 3 223 224 225
591 1 223 224 226
592 3 225 224 226
593 2 689 690 694
594 2 689 690 695
595 2 689 690 696
596 4 694 690 695
597 4 694 690 696
598 4 695 690 696
599 3 566 567 568
600 6 566 567 569
601 3 568 567 569
602 5 567 569 570
603 2 569 570 574
604 2 569 570 575
605 2 569 570 576
606 4 574 570 575
607 4 574 570 576
608 4 575 570 576
609 1 2 1 6
610 2 2 1 7
611 2 2 1 8
612 2 6 1 7
613 2 6 1 8
614 4 7 1 8
615 3 3 4 5
616 1 3 4 6
617 3 5 4 6
618 1 1 6 4
619 2 806 805 811
620 2 806 805 812
621 2 806 805 813
622 4 811 805 812
623 4 811 805 813
624 4 812 805 813
625 3 410 411 412
626 6 410 411 413
627 3 412 411 413
628 2 557 558 562
629 2 557 558 563
630 2 557 558 564
631 4 562 558 563
632 4 562 558 564
633 4 563 558 564
634 2 518 517 523
635 2 518 517 524
636 2 518 517 525
637 4 523 517 524
638 4 523 517 525
639 4 524 517 525
640 5 565 566 567
641 5 517 518 519
642 3 518 519 520
643 6 518 519 521
644 3 520 519 521
645 3 113 114 115
646 1 113 114 116
647 3 115 114 116
648 1 112 113 114
649 2 566 565 571
650 2 566 565 572
651 2 566 565 573
652 4 571 565 572
653 4 571 565 573
654 4 572 565 573
655 1 231 232 233
656 2 231 232 239
657 2 231 232 240
658 2 233 232 239
659 2 233 232 240
660 4 239 232 240
661 3 233 234 235
662 1 233 234 236
663 3 235 234 236
664 1 232 231 236
665 2 232 231 237
666 2 232 231 238
667 2 236 231 237
668 2 236 231 238
669 4 237 231 238
670 1 231 236 234
671 5 879 881 882
672 2 881 882 886
673 2 881 882 887
674 2 881 882 888
675 4 886 882 887
676 4 886 882 888
677 4 887 882 888
678 1 232 233 234
679 3 133 134 135
680 1 133 134 136
681 3 135 134 136
682 1 132 133 134
683 1 131 132 133
684 2 131 132 139
685 2 131 132 140
686 2 133 132 139
687 2 133 132 140
688 4 139 132 140
689 2 413 414 418
690 2 413 414 419
691 2 413 414 420
692 4 418 414 419
693 4 418 414 420
694 4 419 414 420
695 2 857 858 862
696 2 857 858 863
697 2 857 858 864
698 4 862 858 863
699 4 862 858 864
700 4 863 858 864
701 5 855 857 858
702 3 854 855 856
703 6 854 855 857
704 3 856 855 857
705 5 853 854 855
706 2 854 853 859
707 2 854 853 860
708 2 854 853 861
709 4 859 853 860
710 4 859 853 861
711 4 860 853 861
712 2 545 546 550
713 2 545 546 551
714 2 545 546 552
715 4 550 546 551
716 4 550 546 552
717 4 551 546 552
718 5 543 545 546
719 3 506 507 508
720 6 506 507 509
721 3 508 507 509
722 5 507 509 510
723 1 192 191 196
724 2 192 191 197
725 2 192 191 198
726 2 196 191 197
727 2 196 191 198
728 4 197 191 198
729 1 191 196 194
730 1 191 192 193
731 2 191 192 199
732 2 191 192 200
733 2 193 192 199
734 2 193 192 200
735 4 199 192 200
736 3 193 194 195
737 1 193 194 196
738 3 195 194 196
739 1 192 193 194
740 1 212 211 216
741 2 212 211 217
742 2 212 211 218
743 2 216 211 217
744 2 216 211 218
745 4 217 211 218
746 1 211 212 213
747 2 211 212 219
748 2 211 212 220
749 2 213 212 219
750 2 213 212 220
751 4 219 212 220
752 1 212 213 214
753 3 213 214 215
754 1 213 214 216
755 3 215 214 216
756 1 291 296 294
757 1 292 291 296
758 2 292 291 297
759 2 292 291 298
760 2 296 291 297
761 2 296 291 298
762 4 297 291 298
763 5 697 698 699
764 2 698 697 703
765 2 698 697 704
766 2 698 697 705
767 4 703 697 704
768 4 703 697 705
769 4 704 697 705
770 3 698 699 700
771 6 698 699 701
772 3 700 699 701
773 3 253 254 255
774 1 253 254 256
775 3 255 254 256
776 1 251 256 254
777 5 627 629 630
778 2 530 529 535
779 2 530 529 536
780 2 530 529 537
781 4 535 529 536
782 4 535 529 537
783 4 536 529 537
784 5 529 530 531
785 1 111 116 114
786 5 519 521 522
787 2 629 630 634
788 2 629 630 635
789 2 629 630 636
790 4 634 630 635
791 4 634 630 636
792 4 635 630 636
793 2 422 421 427
794 2 422 421 428
795 2 422 421 429
796 4 427 421 428
797 4 427 421 429
798 4 428 421 429
799 3 422 423 424
800 6 422 423 425
801 3 424 423 425
802 3 914 915 916
803 6 914 915 917
804 3 916 915 917
805 5 589 590 591
806 2 590 589 595
807 2 590 589 596
808 2 590 589 597
809 4 595 589 596
810 4 595 589 597
811 4 596 589 597
812 5 759 761 762
813 3 938 939 940
814 6 938 939 941
815 3 940 939 941
816 1 181 182 183
817 2 181 182 189
818 2 181 182 190
819 2 183 182 189
820 2 183 182 190
821 4 189 182 190
822 2 941 942 946
823 2 941 942 947
824 2 941 942 948
825 4 946 942 947
826 4 946 942 948
827 4 947 942 948
828 5 939 941 942
829 2 326 325 331
830 2 326 325 332
831 2 326 325 333
832 4 331 325 332
833 4 331 325 333
834 4 332 325 333
835 5 325 326 327
836 1 182 181 186
837 2 182 181 187
838 2 182 181 188
839 2 186 181 187
840 2 186 181 188
841 4 187 181 188
842 2 953 954 958
843 2 953 954 959
844 2 953 954 960
845 4 958 954 959
846 4 958 954 960
847 4 959 954 960
848 1 141 146 144
849 3 143 144 145
850 1 143 144 146
851 3 145 144 146
852 5 951 953 954
853 3 950 951 952
854 6 950 951 953
855 3 952 951 953
856 2 341 342 346
857 2 341 342 347
858 2 341 342 348
859 4 346 342 347
860 4 346 342 348
861 4 347 342 348
862 2 773 774 778
863 2 773 774 779
864 2 773 774 780
865 4 778 774 779
866 4 778 774 780
867 4 779 774 780
868 3 590 591 592
869 6 590 591 593
870 3 592 591 593
871 5 591 593 594
872 2 869 870 874
873 2 869 870 875
874 2 869 870 876
875 4 874 870 875
876 4 874 870 876
877 4 875 870 876
878 5 421 422 423
879 1 32 31 36
880 2 32 31 37
881 2 32 31 38
882 2 36 31 37
883 2 36 31 38
884 4 37 31 38
885 2 866 865 871
886 2 866 865 872
887 2 866 865 873
888 4 871 865 872
889 4 871 865 873
890 4 872 865 873
891 1 31 32 33
892 2 31 32 39
893 2 31 32 40
894 2 33 32 39
895 2 33 32 40
896 4 39 32 40
897 2 593 594 598
898 2 593 594 599
899 2 593 594 600
900 4 598 594 599
901 4 598 594 600
902 4 599 594 600
903 5 865 866 867
904 3 866 867 868
905 6 866 867 869
906 3 868 867 869
907 1 32 33 34
908 5 867 869 870
909 1 31 36 34
910 3 33 34 35
911 1 33 34 36
912 3 35 34 36
913 5 937 938 939
914 2 938 937 943
915 2 938 937 944
916 2 938 937 945
917 4 943 937 944
918 4 943 937 945
919 4 944 937 945
920 5 423 425 426
921 2 605 606 610
922 2 605 606 611
923 2 605 606 612
924 4 610 606 611
925 4 610 606 612
926 4 611 606 612
927 5 913 914 915
928 1 182 183 184
929 1 91 96 94
930 2 914 913 919
931 2 914 913 920
932 2 914 913 921
933 4 919 913 920
934 4 919 913 921
935 4 920 913 921
936 3 183 184 185
937 1 183 184 186
938 3 185 184 186
939 3 350 351 352
940 6 350 351 353
941 3 352 351 353
942 5 349 350 351
943 2 350 349 355
944 2 350 349 356
945 2 350 349 357
946 4 355 349 356
947 4 355 349 357
948 4 356 349 357
949 1 181 186 184
950 3 614 615 616
951 6 614 615 617
952 3 616 615 617
953 5 615 617 618
954 2 617 618 622
955 2 617 618 623
956 2 617 618 624
957 4 622 618 623
958 4 622 618 624
959 4 623 618 624
960 2 674 673 679
961 2 674 673 680
962 2 674 673 681
963 4 679 673 680
964 4 679 673 681
965 4 680 673 681
966 5 673 674 675
967 1 92 91 96
968 2 92 91 97
969 2 92 91 98
970 2 96 91 97
971 2 96 91 98
972 4 97 91 98
973 5 613 614 615
974 2 614 613 619
975 2 614 613 620
976 2 614 613 621
977 4 619 613 620
978 4 619 613 621
979 4 620 613 621
980 1 121 122 123
981 2 121 122 129
982 2 121 122 130
983 2 123 122 129
984 2 123 122 130
985 4 129 122 130
986 3 602 603 604
987 6 602 603 605
988 3 604 603 605
989 3 674 675 676
990 6 674 675 677
991 3 676 675 677
992 1 122 123 124
993 5 771 773 774
994 1 122 121 126
995 2 122 121 127
996 2 122 121 128
997 2 126 121 127
998 2 126 121 128
999 4 127 121 128
1000 3 123 124 125
1001 1 123 124 126
1002 3 125 124 126
1003 1 121 126 124
1004 3 770 771 772
1005 6 770 771 773
1006 3 772 771 773
1007 2 770 769 775
1008 2 770 769 776
1009 2 770 769 777
1010 4 775 769 776
1011 4 775 769 777
1012 4 776 769 777
1013 5 769 770 771
1014 5 829 830 831
1015 3 830 831 832
1016 6 830 831 833
1017 3 832 831 833
1018 2 830 829 835
1019 2 830 829 836
1020 2 830 829 837
1021 4 835 829 836
1022 4 835 829 837
1023 4 836 829 837
1024 5 831 833 834
1025 2 833 834 838
1026 2 833 834 839
1027 2 833 834 840
1028 4 838 834 839
1029 4 838 834 840
1030 4 839 834 840
1031 5 733 734 735
1032 5 735 737 738
1033 2 734 733 739
1034 2 734 733 740
1035 2 734 733 741
1036 4 739 733 740
1037 4 739 733 741
1038 4 740 733 741
1039 3 734 735 736
1040 6 734 735 737
1041 3 736 735 737
1042 3 458 459 460
1043 6 458 459 461
1044 3 460 459 461
1045 5 315 317 318
1046 5 493 494 495
1047 2 494 493 499
1048 2 494 493 500
1049 2 494 493 501
1050 4 499 493 500
1051 4 499 493 501
1052 4 500 493 501
1053 5 327 329 330
1054 2 329 330 334
1055 2 329 330 335
1056 2 329 330 336
1057 4 334 330 335
1058 4 334 330 336
1059 4 335 330 336
1060 3 326 327 328
1061 6 326 327 329
1062 3 328 327 329
1063 1 202 201 206
1064 2 202 201 207
1065 2 202 201 208
1066 2 206 201 207
1067 2 206 201 208
1068 4 207 201 208
1069 1 201 202 203
1070 2 201 202 209
1071 2 201 202 210
1072 2 203 202 209
1073 2 203 202 210
1074 4 209 202 210
1075 1 202 203 204
1076 1 201 206 204
1077 3 203 204 205
1078 1 203 204 206
1079 3 205 204 206
1080 5 339 341 342
1081 2 449 450 454
1082 2 449 450 455
1083 2 449 450 456
1084 4 454 450 455
1085 4 454 450 456
1086 4 455 450 456
1087 5 949 950 951
1088 2 950 949 955
1089 2 950 949 956
1090 2 950 949 957
1091 4 955 949 956
1092 4 955 949 957
1093 4 956 949 957
1094 5 459 461 462
1095 5 891 893 894
1096 2 893 894 898
1097 2 893 894 899
1098 2 893 894 900
1099 4 898 894 899
1100 4 898 894 900
1101 4 899 894 900
1102 5 603 605 606
1103 1 261 262 263
1104 2 261 262 269
1105 2 261 262 270
1106 2 263 262 269
1107 2 263 262 270
1108 4 269 262 270
1109 1 262 263 264
1110 1 262 261 266
1111 2 262 261 267
1112 2 262 261 268
1113 2 266 261 267
1114 2 266 261 268
1115 4 267 261 268
1116 2 602 601 607
1117 2 602 601 608
1118 2 602 601 609
1119 4 607 601 608
1120 4 607 601 609
1121 4 608 601 609
1122 5 601 602 603
1123 2 482 481 487
1124 2 482 481 488
1125 2 482 481 489
1126 4 487 481 488
1127 4 487 481 489
1128 4 488 481 489
1129 2 314 313 319
1130 2 314 313 320
1131 2 314 313 321
1132 4 319 313 320
1133 4 319 313 321
1134 4 320 313 321
1135 2 425 426 430
1136 2 425 426 431
1137 2 425 426 432
1138 4 430 426 431
1139 4 430 426 432
1140 4 431 426 432
1141 3 338 339 340
1142 6 338 339 341
1143 3 340 339 341
1144 2 338 337 343
1145 2 338 337 344
1146 2 338 337 345
1147 4 343 337 344
1148 4 343 337 345
1149 4 344 337 345
1150 5 337 338 339
1151 2 317 318 322
1152 2 317 318 323
1153 2 317 318 324
1154 4 322 318 323
1155 4 322 318 324
1156 4 323 318 324
1157 3 314 315 316
1158 6 314 315 317
1159 3 316 315 317
1160 5 351 353 354
1161 5 675 677 678
1162 3 93 94 95
1163 1 93 94 96
1164 3 95 94 96
1165 3 494 495 496
1166 6 494 495 497
1167 3 496 495 497
1168 5 495 497 498
1169 2 497 498 502
1170 2 497 498 503
1171 2 497 498 504
1172 4 502 498 503
1173 4 502 498 504
1174 4 503 498 504
1175 2 581 582 586
1176 2 581 582 587
1177 2 581 582 588
1178 4 586 582 587
1179 4 586 582 588
1180 4 587 582 588
1181 5 579 581 582
1182 3 578 579 580
1183 6 578 579 581
1184 3 580 579 581
1185 5 447 449 450
1186 3 446 447 448
1187 6 446 447 449
1188 3 448 447 449
1189 5 445 446 447
1190 2 470 469 475
1191 2 470 469 476
1192 2 470 469 477
1193 4 475 469 476
1194 4 475 469 477
1195 4 476 469 477
1196 5 469 470 471
1197 2 461 462 466
1198 2 461 462 467
1199 2 461 462 468
1200 4 466 462 467
1201 4 466 462 468
1202 4 467 462 468
1203 2 890 889 895
1204 2 890 889 896
1205 2 890 889 897
1206 4 895 889 896
1207 4 895 889 897
1208 4 896 889 897
1209 5 889 890 891
1210 3 890 891 892
1211 6 890 891 893
1212 3 892 891 893
1213 2 302 301 307
1214 2 302 301 308
1215 2 302 301 309
1216 4 307 301 308
1217 4 307 301 309
1218 4 308 301 309
1219 3 263 264 265
1220 1 263 264 266
1221 3 265 264 266
1222 2 446 445 451
1223 2 446 445 452
1224 2 446 445 453
1225 4 451 445 452
1226 4 451 445 453
1227 4 452 445 453
1228 1 261 266 264
1229 2 653 654 658
1230 2 653 654 659
1231 2 653 654 660
1232 4 658 654 659
1233 4 658 654 660
1234 4 659 654 660
1235 5 651 653 654
1236 3 650 651 652
1237 6 650 651 653
1238 3 652 651 653
1239 5 649 650 651
1240 2 650 649 655
1241 2 650 649 656
1242 2 650 649 657
1243 4 655 649 656
1244 4 655 649 657
1245 4 656 649 657
1246 5 577 578 579
1247 2 578 577 583
1248 2 578 577 584
1249 2 578 577 585
1250 4 583 577 584
1251 4 583 577 585
1252 4 584 577 585
1253 1 162 161 166
1254 2 162 161 167
1255 2 162 161 168
1256 2 166 161 167
1257 2 166 161 168
1258 4 167 161 168
1259 1 161 162 163
1260 2 161 162 169
1261 2 161 162 170
1262 2 163 162 169
1263 2 163 162 170
1264 4 169 162 170
1265 1 162 163 164
1266 3 470 471 472
1267 6 470 471 473
1268 3 472 471 473
1269 2 485 486 490
1270 2 485 486 491
1271 2 485 486 492
1272 4 490 486 491
1273 4 490 486 492
1274 4 491 486 492
1275 5 483 485 486
1276 5 481 482 483
1277 3 482 483 484
1278 6 482 483 485
1279 3 484 483 485
1280 2 638 637 643
1281 2 638 637 644
1282 2 638 637 645
1283 4 643 637 644
1284 4 643 637 645
1285 4 644 637 645
1286 5 637 638 639
1287 5 313 314 315
1288 5 471 473 474
1289 3 758 759 760
1290 6 758 759 761
1291 3 760 759 761
1292 1 171 172 173
1293 2 171 172 179
1294 2 171 172 180
1295 2 173 172 179
1296 2 173 172 180
1297 4 179 172 180
1298 5 757 758 759
1299 2 758 757 763
1300 2 758 757 764
1301 2 758 757 765
1302 4 763 757 764
1303 4 763 757 765
1304 4 764 757 765
1305 2 782 781 787
1306 2 782 781 788
1307 2 782 781 789
1308 4 787 781 788
1309 4 787 781 789
1310 4 788 781 789
1311 1 172 171 176
1312 2 172 171 177
1313 2 172 171 178
1314 2 176 171 177
1315 2 176 171 178
1316 4 177 171 178
1317 5 781 782 783
1318 1 171 176 174
1319 1 22 23 24
1320 1 21 22 23
1321 2 21 22 29
1322 2 21 22 30
1323 2 23 22 29
1324 2 23 22 30
1325 4 29 22 30
1326 3 782 783 784
1327 6 782 783 785
1328 3 784 783 785
1329 5 783 785 786
1330 2 785 786 790
1331 2 785 786 791
1332 2 785 786 792
1333 4 790 786 791
1334 4 790 786 792
1335 4 791 786 792
1336 2 509 510 514
1337 2 509 510 515
1338 2 509 510 516
1339 4 514 510 515
1340 4 514 510 516
1341 4 515 510 516
1342 1 211 216 214
1343 3 293 294 295
1344 1 293 294 296
1345 3 295 294 296
1346 1 292 293 294
1347 1 291 292 293
1348 2 291 292 299
1349 2 291 292 300
1350 2 293 292 299
1351 2 293 292 300
1352 4 299 292 300
1353 5 699 701 702
1354 1 252 253 254
1355 1 252 251 256
1356 2 252 251 257
1357 2 252 251 258
1358 2 256 251 257
1359 2 256 251 258
1360 4 257 251 258
1361 2 701 702 706
1362 2 701 702 707
1363 2 701 702 708
1364 4 706 702 707
1365 4 706 702 708
1366 4 707 702 708
1367 1 251 252 253
1368 2 251 252 259
1369 2 251 252 260
1370 2 253 252 259
1371 2 253 252 260
1372 4 259 252 260
1373 5 639 641 642
1374 1 172 173 174
1375 3 173 174 175
1376 1 173 174 176
1377 3 175 174 176
1378 5 301 302 303
1379 2 641 642 646
1380 2 641 642 647
1381 2 641 642 648
1382 4 646 642 647
1383 4 646 642 648
1384 4 647 642 648
1385 1 272 271 276
1386 2 272 271 277
1387 2 272 271 278
1388 2 276 271 277
1389 2 276 271 278
1390 4 277 271 278
1391 1 271 272 273
1392 2 271 272 279
1393 2 271 272 280
1394 2 273 272 279
1395 2 273 272 280
1396 4 279 272 280
1397 3 302 303 304
1398 6 302 303 305
1399 3 304 303 305
1400 5 303 305 306
1401 2 305 306 310
1402 2 305 306 311
1403 2 305 306 312
1404 4 310 306 311
1405 4 310 306 312
1406 4 311 306 312
1407 1 271 276 274
1408 1 272 273 274
1409 3 273 274 275
1410 1 273 274 276
1411 3 275 274 276
1412 1 22 21 26
1413 2 22 21 27
1414 2 22 21 28
1415 2 26 21 27
1416 2 26 21 28
1417 4 27 21 28
1418 3 23 24 25
1419 1 23 24 26
1420 3 25 24 26
1421 1 21 26 24
1422 1 161 166 164
1423 2 533 534 538
1424 2 533 534 539
1425 2 533 534 540
1426 4 538 534 539
1427 4 538 534 540
1428 4 539 534 540
1429 1 91 92 93
1430 2 91 92 99
1431 2 91 92 100
1432 2 93 92 99
1433 2 93 92 100
1434 4 99 92 100
1435 1 92 93 94
1436 2 353 354 358
1437 2 353 354 359
1438 2 353 354 360
1439 4 358 354 359
1440 4 358 354 360
1441 4 359 354 360
1442 3 163 164 165
1443 1 163 164 166
1444 3 165 164 166
1445 2 677 678 682
1446 2 677 678 683
1447 2 677 678 684
1448 4 682 678 683
1449 4 682 678 684
1450 4 683 678 684
1451 3 794 795 796
1452 6 794 795 797
1453 3 796 795 797
1454 3 530 531 532
1455 6 530 531 533
1456 3 532 531 533
1457 5 531 533 534
1458 5 795 797 798
1459 2 797 798 802
1460 2 797 798 803
1461 2 797 798 804
1462 4 802 798 803
1463 4 802 798 804
1464 4 803 798 804
1465 3 638 639 640
1466 6 638 639 641
1467 3 640 639 641
1468 2 473 474 478
1469 2 473 474 479
1470 2 473 474 480
1471 4 478 474 479
1472 4 478 474 480
1473 4 479 474 480
1474 2 521 522 526
1475 2 521 522 527
1476 2 521 522 528
1477 4 526 522 527
1478 4 526 522 528
1479 4 527 522 528
1480 5 793 794 795
1481 7 1010 1011 1012
1482 7 1010 1011 1013
1483 7 1010 1011 1014
1484 7 1012 1011 1013
1485 7 1012 1011 1014
1486 7 1013 1011 1014
1487 2 737 738 742
1488 2 737 738 743
1489 2 737 738 744
1490 4 742 738 743
1491 4 742 738 744
1492 4 743 738 744
1493 2 794 793 799
1494 2 794 793 800
1495 2 794 793 801
1496 4 799 793 800
1497 4 799 793 801
1498 4 800 793 801
1499 7 980 981 982
1500 7 980 981 983
1501 7 980 981 984
1502 7 982 981 983
1503 7 982 981 984
1504 7 983 981 984

Dihedrals

1 1 82 81 86 84
2 2 82 81 86 84
3 6 86 81 82 89
4 7 86 81 82 89
5 6 86 81 82 90
6 7 86 81 82 90
7 9 87 81 82 89
8 9 87 81 82 90
9 9 88 81 82 89
10 9 88 81 82 90
11 1 81 82 83 84
12 2 81 82 83 84
13 4 83 82 81 86
14 5 83 82 81 86
15 6 83 82 81 87
16 7 83 82 81 87
17 6 83 82 81 88
18 7 83 82 81 88
19 3 81 86 84 83
20 3 81 86 84 85
21 8 84 86 81 87
22 8 84 86 81 88
23 3 82 83 84 85
24 3 82 83 84 86
25 8 84 83 82 89
26 8 84 83 82 90
27 8 711 713 714 718
28 8 711 713 714 719
29 8 711 713 714 720
30 3 52 53 54 55
31 3 52 53 54 56
32 8 54 53 52 59
33 8 54 53 52 60
34 8 723 725 726 730
35 8 723 725 726 731
36 8 723 725 726 732
37 3 51 56 54 53
38 3 51 56 54 55
39 8 54 56 51 57
40 8 54 56 51 58
41 1 51 52 53 54
42 2 51 52 53 54
43 4 53 52 51 56
44 5 53 52 51 56
45 6 53 52 51 57
46 7 53 52 51 57
47 6 53 52 51 58
48 7 53 52 51 58
49 10 685 686 687 688
50 11 685 686 687 688
51 12 685 686 687 689
52 8 687 686 685 691
53 8 687 686 685 692
54 8 687 686 685 693
55 8 915 917 918 922
56 8 915 917 918 923
57 8 915 917 918 924
58 8 387 389 390 394
59 8 387 389 390 395
60 8 387 389 390 396
61 12 722 723 725 726
62 10 724 723 725 726
63 11 724 723 725 726
64 12 386 387 389 390
65 10 388 387 389 390
66 11 388 387 389 390
67 10 385 386 387 388
68 11 385 386 387 388
69 12 385 386 387 389
70 8 387 386 385 391
71 8 387 386 385 392
72 8 387 386 385 393
73 3 2 3 4 5
74 3 2 3 4 6
75 8 4 3 2 9
76 8 4 3 2 10
77 10 409 410 411 412
78 11 409 410 411 412
79 12 409 410 411 413
80 8 411 410 409 415
81 8 411 410 409 416
82 8 411 410 409 417
83 1 41 42 43 44
84 2 41 42 43 44
85 4 43 42 41 46
86 5 43 42 41 46
87 6 43 42 41 47
88 7 43 42 41 47
89 6 43 42 41 48
90 7 43 42 41 48
91 10 901 902 903 904
92 11 901 902 903 904
93 12 901 902 903 905
94 8 903 902 901 907
95 8 903 902 901 908
96 8 903 902 901 909
97 12 902 903 905 906
98 10 904 903 905 906
99 11 904 903 905 906
100 8 903 905 906 910
101 8 903 905 906 911
102 8 903 905 906 912
103 3 42 43 44 45
104 3 42 43 44 46
105 8 44 43 42 49
106 8 44 43 42 50
107 3 71 76 74 73
108 3 71 76 74 75
109 8 74 76 71 77
110 8 74 76 71 78
111 1 72 71 76 74
112 2 72 71 76 74
113 6 76 71 72 79
114 7 76 71 72 79
115 6 76 71 72 80
116 7 76 71 72 80
117 9 77 71 72 79
118 9 77 71 72 80
119 9 78 71 72 79
120 9 78 71 72 80
121 1 42 41 46 44
122 2 42 41 46 44
123 6 46 41 42 49
124 7 46 41 42 49
125 6 46 41 42 50
126 7 46 41 42 50
127 9 47 41 42 49
128 9 47 41 42 50
129 9 48 41 42 49
130 9 48 41 42 50
131 3 41 46 44 43
132 3 41 46 44 45
133 8 44 46 41 47
134 8 44 46 41 48
135 10 505 506 507 508
136 11 505 506 507 508
137 12 505 506 507 509
138 8 507 506 505 511
139 8 507 506 505 512
140 8 507 506 505 513
141 1 12 11 16 14
142 2 12 11 16 14
143 6 16 11 12 19
144 7 16 11 12 19
145 6 16 11 12 20
146 7 16 11 12 20
147 9 17 11 12 19
148 9 17 11 12 20
149 9 18 11 12 19
150 9 18 11 12 20
151 1 11 12 13 14
152 2 11 12 13 14
153 4 13 12 11 16
154 5 13 12 11 16
155 6 13 12 11 17
156 7 13 12 11 17
157 6 13 12 11 18
158 7 13 12 11 18
159 8 399 401 402 406
160 8 399 401 402 407
161 8 399 401 402 408
162 12 398 399 401 402
163 10 400 399 401 402
164 11 400 399 401 402
165 10 397 398 399 400
166 11 397 398 399 400
167 12 397 398 399 401
168 8 399 398 397 403
169 8 399 398 397 404
170 8 399 398 397 405
171 3 11 16 14 13
172 3 11 16 14 15
173 8 14 16 11 17
174 8 14 16 11 18
175 3 61 66 64 63
176 3 61 66 64 65
177 8 64 66 61 67
178 8 64 66 61 68
179 3 12 13 14 15
180 3 12 13 14 16
181 8 14 13 12 19
182 8 14 13 12 20
183 1 62 61 66 64
184 2 62 61 66 64
185 6 66 61 62 69
186 7 66 61 62 69
187 6 66 61 62 70
188 7 66 61 62 70
189 9 67 61 62 69
190 9 67 61 62 70
191 9 68 61 62 69
192 9 68 61 62 70
193 3 72 73 74 75
194 3 72 73 74 76
195 8 74 73 72 79
196 8 74 73 72 80
197 1 71 72 73 74
198 2 71 72 73 74
199 4 73 72 71 76
200 5 73 72 71 76
201 6 73 72 71 77
202 7 73 72 71 77
203 6 73 72 71 78
204 7 73 72 71 78
205 1 142 141 146 144
206 2 142 141 146 144
207 6 146 141 142 149
208 7 146 141 142 149
209 6 146 141 142 150
210 7 146 141 142 150
211 9 147 141 142 149
212 9 147 141 142 150
213 9 148 141 142 149
214 9 148 141 142 150
215 1 141 142 143 144
216 2 141 142 143 144
217 4 143 142 141 146
218 5 143 142 141 146
219 6 143 142 141 147
220 7 143 142 141 147
221 6 143 142 141 148
222 7 143 142 141 148
223 3 142 143 144 145
224 3 142 143 144 146
225 8 144 143 142 149
226 8 144 143 142 150
227 1 61 62 63 64
228 2 61 62 63 64
229 4 63 62 61 66
230 5 63 62 61 66
231 6 63 62 61 67
232 7 63 62 61 67
233 6 63 62 61 68
234 7 63 62 61 68
235 12 710 711 713 714
236 10 712 711 713 714
237 11 712 711 713 714
238 10 661 662 663 664
239 11 661 662 663 664
240 12 661 662 663 665
241 8 663 662 661 667
242 8 663 662 661 668
243 8 663 662 661 669
244 8 663 665 666 670
245 8 663 665 666 671
246 8 663 665 666 672
247 10 709 710 711 712
248 11 709 710 711 712
249 12 709 710 711 713
250 8 711 710 709 715
251 8 711 710 709 716
252 8 711 710 709 717
253 10 457 458 459 460
254 11 457 458 459 460
255 12 457 458 459 461
256 8 459 458 457 463
257 8 459 458 457 464
258 8 459 458 457 465
259 12 662 663 665 666
260 10 664 663 665 666
261 11 664 663 665 666
262 1 152 151 156 154
263 2 152 151 156 154
264 6 156 151 152 159
265 7 156 151 152 159
266 6 156 151 152 160
267 7 156 151 152 160
268 9 157 151 152 159
269 9 157 151 152 160
270 9 158 151 152 159
271 9 158 151 152 160
272 8 375 377 378 382
273 8 375 377 378 383
274 8 375 377 378 384
275 10 721 722 723 724
276 11 721 722 723 724
277 12 721 722 723 725
278 8 723 722 721 727
279 8 723 722 721 728
280 8 723 722 721 729
281 12 374 375 377 378
282 10 376 375 377 378
283 11 376 375 377 378
284 3 242 243 244 245
285 3 242 243 244 246
286 8 244 243 242 249
287 8 244 243 242 250
288 3 241 246 244 243
289 3 241 246 244 245
290 8 244 246 241 247
291 8 244 246 241 248
292 10 373 374 375 376
293 11 373 374 375 376
294 12 373 374 375 377
295 8 375 374 373 379
296 8 375 374 373 380
297 8 375 374 373 381
298 3 151 156 154 153
299 3 151 156 154 155
300 8 154 156 151 157
301 8 154 156 151 158
302 1 151 152 153 154
303 2 151 152 153 154
304 4 153 152 151 156
305 5 153 152 151 156
306 6 153 152 151 157
307 7 153 152 151 157
308 6 153 152 151 158
309 7 153 152 151 158
310 10 841 842 843 844
311 11 841 842 843 844
312 12 841 842 843 845
313 8 843 842 841 847
314 8 843 842 841 848
315 8 843 842 841 849
316 3 152 153 154 155
317 3 152 153 154 156
318 8 154 153 152 159
319 8 154 153 152 160
320 8 747 749 750 754
321 8 747 749 750 755
322 8 747 749 750 756
323 12 962 963 965 966
324 10 964 963 965 966
325 11 964 963 965 966
326 10 817 818 819 820
327 11 817 818 819 820
328 12 817 818 819 821
329 8 819 818 817 823
330 8 819 818 817 824
331 8 819 818 817 825
332 10 961 962 963 964
333 11 961 962 963 964
334 12 961 962 963 965
335 8 963 962 961 967
336 8 963 962 961 968
337 8 963 962 961 969
338 1 242 241 246 244
339 2 242 241 246 244
340 6 246 241 242 249
341 7 246 241 242 249
342 6 246 241 242 250
343 7 246 241 242 250
344 9 247 241 242 249
345 9 247 241 242 250
346 9 248 241 242 249
347 9 248 241 242 250
348 12 746 747 749 750
349 10 748 747 749 750
350 11 748 747 749 750
351 12 362 363 365 366
352 10 364 363 365 366
353 11 364 363 365 366
354 8 363 365 366 370
355 8 363 365 366 371
356 8 363 365 366 372
357 10 745 746 747 748
358 11 745 746 747 748
359 12 745 746 747 749
360 8 747 746 745 751
361 8 747 746 745 752
362 8 747 746 745 753
363 12 686 687 689 690
364 10 688 687 689 690
365 11 688 687 689 690
366 1 1 2 3 4
367 2 1 2 3 4
368 4 3 2 1 6
369 5 3 2 1 6
370 6 3 2 1 7
371 7 3 2 1 7
372 6 3 2 1 8
373 7 3 2 1 8
374 1 52 51 56 54
375 2 52 51 56 54
376 6 56 51 52 59
377 7 56 51 52 59
378 6 56 51 52 60
379 7 56 51 52 60
380 9 57 51 52 59
381 9 57 51 52 60
382 9 58 51 52 59
383 9 58 51 52 60
384 8 807 809 810 814
385 8 807 809 810 815
386 8 807 809 810 816
387 10 805 806 807 808
388 11 805 806 807 808
389 12 805 806 807 809
390 8 807 806 805 811
391 8 807 806 805 812
392 8 807 806 805 813
393 12 806 807 809 810
394 10 808 807 809 810
395 11 808 807 809 810
396 8 411 413 414 418
397 8 411 413 414 419
398 8 411 413 414 420
399 3 62 63 64 65
400 3 62 63 64 66
401 8 64 63 62 69
402 8 64 63 62 70
403 10 433 434 435 436
404 11 433 434 435 436
405 12 433 434 435 437
406 8 435 434 433 439
407 8 435 434 433 440
408 8 435 434 433 441
409 12 434 435 437 438
410 10 436 435 437 438
411 11 436 435 437 438
412 8 435 437 438 442
413 8 435 437 438 443
414 8 435 437 438 444
415 10 553 554 555 556
416 11 553 554 555 556
417 12 553 554 555 557
418 8 555 554 553 559
419 8 555 554 553 560
420 8 555 554 553 561
421 12 554 555 557 558
422 10 556 555 557 558
423 11 556 555 557 558
424 1 101 102 103 104
425 2 101 102 103 104
426 4 103 102 101 106
427 5 103 102 101 106
428 6 103 102 101 107
429 7 103 102 101 107
430 6 103 102 101 108
431 7 103 102 101 108
432 3 102 103 104 105
433 3 102 103 104 106
434 8 104 103 102 109
435 8 104 103 102 110
436 1 102 101 106 104
437 2 102 101 106 104
438 6 106 101 102 109
439 7 106 101 102 109
440 6 106 101 102 110
441 7 106 101 102 110
442 9 107 101 102 109
443 9 107 101 102 110
444 9 108 101 102 109
445 9 108 101 102 110
446 3 101 106 104 103
447 3 101 106 104 105
448 8 104 106 101 107
449 8 104 106 101 108
450 12 926 927 929 930
451 10 928 927 929 930
452 11 928 927 929 930
453 10 925 926 927 928
454 11 925 926 927 928
455 12 925 926 927 929
456 8 927 926 925 931
457 8 927 926 925 932
458 8 927 926 925 933
459 8 843 845 846 850
460 8 843 845 846 851
461 8 843 845 846 852
462 12 842 843 845 846
463 10 844 843 845 846
464 11 844 843 845 846
465 1 112 111 116 114
466 2 112 111 116 114
467 6 116 111 112 119
468 7 116 111 112 119
469 6 116 111 112 120
470 7 116 111 112 120
471 9 117 111 112 119
472 9 117 111 112 120
473 9 118 111 112 119
474 9 118 111 112 120
475 1 111 112 113 114
476 2 111 112 113 114
477 4 113 112 111 116
478 5 113 112 111 116
479 6 113 112 111 117
480 7 113 112 111 117
481 6 113 112 111 118
482 7 113 112 111 118
483 10 877 878 879 880
484 11 877 878 879 880
485 12 877 878 879 881
486 8 879 878 877 883
487 8 879 878 877 884
488 8 879 878 877 885
489 12 878 879 881 882
490 10 880 879 881 882
491 11 880 879 881 882
492 8 963 965 966 970
493 8 963 965 966 971
494 8 963 965 966 972
495 1 241 242 243 244
496 2 241 242 243 244
497 4 243 242 241 246
498 5 243 242 241 246
499 6 243 242 241 247
500 7 243 242 241 247
501 6 243 242 241 248
502 7 243 242 241 248
503 10 361 362 363 364
504 11 361 362 363 364
505 12 361 362 363 365
506 8 363 362 361 367
507 8 363 362 361 368
508 8 363 362 361 369
509 12 818 819 821 822
510 10 820 819 821 822
511 11 820 819 821 822
512 8 819 821 822 826
513 8 819 821 822 827
514 8 819 821 822 828
515 8 927 929 930 934
516 8 927 929 930 935
517 8 927 929 930 936
518 8 555 557 558 562
519 8 555 557 558 563
520 8 555 557 558 564
521 1 221 222 223 224
522 2 221 222 223 224
523 4 223 222 221 226
524 5 223 222 221 226
525 6 223 222 221 227
526 7 223 222 221 227
527 6 223 222 221 228
528 7 223 222 221 228
529 3 222 223 224 225
530 3 222 223 224 226
531 8 224 223 222 229
532 8 224 223 222 230
533 10 625 626 627 628
534 11 625 626 627 628
535 12 625 626 627 629
536 8 627 626 625 631
537 8 627 626 625 632
538 8 627 626 625 633
539 1 282 281 286 284
540 2 282 281 286 284
541 6 286 281 282 289
542 7 286 281 282 289
543 6 286 281 282 290
544 7 286 281 282 290
545 9 287 281 282 289
546 9 287 281 282 290
547 9 288 281 282 289
548 9 288 281 282 290
549 1 281 282 283 284
550 2 281 282 283 284
551 4 283 282 281 286
552 5 283 282 281 286
553 6 283 282 281 287
554 7 283 282 281 287
555 6 283 282 281 288
556 7 283 282 281 288
557 3 282 283 284 285
558 3 282 283 284 286
559 8 284 283 282 289
560 8 284 283 282 290
561 12 626 627 629 630
562 10 628 627 629 630
563 11 628 627 629 630
564 3 281 286 284 283
565 3 281 286 284 285
566 8 284 286 281 287
567 8 284 286 281 288
568 3 131 136 134 133
569 3 131 136 134 135
570 8 134 136 131 137
571 8 134 136 131 138
572 10 541 542 543 544
573 11 541 542 543 544
574 12 541 542 543 545
575 8 543 542 541 547
576 8 543 542 541 548
577 8 543 542 541 549
578 1 222 221 226 224
579 2 222 221 226 224
580 6 226 221 222 229
581 7 226 221 222 229
582 6 226 221 222 230
583 7 226 221 222 230
584 9 227 221 222 229
585 9 227 221 222 230
586 9 228 221 222 229
587 9 228 221 222 230
588 8 687 689 690 694
589 8 687 689 690 695
590 8 687 689 690 696
591 1 132 131 136 134
592 2 132 131 136 134
593 6 136 131 132 139
594 7 136 131 132 139
595 6 136 131 132 140
596 7 136 131 132 140
597 9 137 131 132 139
598 9 137 131 132 140
599 9 138 131 132 139
600 9 138 131 132 140
601 12 542 543 545 546
602 10 544 543 545 546
603 11 544 543 545 546
604 3 221 226 224 223
605 3 221 226 224 225
606 8 224 226 221 227
607 8 224 226 221 228
608 12 566 567 569 570
609 10 568 567 569 570
610 11 568 567 569 570
611 8 567 569 570 574
612 8 567 569 570 575
613 8 567 569 570 576
614 1 2 1 6 4
615 2 2 1 6 4
616 6 6 1 2 9
617 7 6 1 2 9
618 6 6 1 2 10
619 7 6 1 2 10
620 9 7 1 2 9
621 9 7 1 2 10
622 9 8 1 2 9
623 9 8 1 2 10
624 3 1 6 4 3
625 3 1 6 4 5
626 8 4 6 1 7
627 8 4 6 1 8
628 12 410 411 413 414
629 10 412 411 413 414
630 11 412 411 413 414
631 10 565 566 567 568
632 11 565 566 567 568
633 12 565 566 567 569
634 8 567 566 565 571
635 8 567 566 565 572
636 8 567 566 565 573
637 10 517 518 519 520
638 11 517 518 519 520
639 12 517 518 519 521
640 8 519 518 517 523
641 8 519 518 517 524
642 8 519 518 517 525
643 12 518 519 521 522
644 10 520 519 521 522
645 11 520 519 521 522
646 3 112 113 114 115
647 3 112 113 114 116
648 8 114 113 112 119
649 8 114 113 112 120
650 1 231 232 233 234
651 2 231 232 233 234
652 4 233 232 231 236
653 5 233 232 231 236
654 6 233 232 231 237
655 7 233 232 231 237
656 6 233 232 231 238
657 7 233 232 231 238
658 1 232 231 236 234
659 2 232 231 236 234
660 6 236 231 232 239
661 7 236 231 232 239
662 6 236 231 232 240
663 7 236 231 232 240
664 9 237 231 232 239
665 9 237 231 232 240
666 9 238 231 232 239
667 9 238 231 232 240
668 3 231 236 234 233
669 3 231 236 234 235
670 8 234 236 231 237
671 8 234 236 231 238
672 8 879 881 882 886
673 8 879 881 882 887
674 8 879 881 882 888
675 3 232 233 234 235
676 3 232 233 234 236
677 8 234 233 232 239
678 8 234 233 232 240
679 3 132 133 134 135
680 3 132 133 134 136
681 8 134 133 132 139
682 8 134 133 132 140
683 1 131 132 133 134
684 2 131 132 133 134
685 4 133 132 131 136
686 5 133 132 131 136
687 6 133 132 131 137
688 7 133 132 131 137
689 6 133 132 131 138
690 7 133 132 131 138
691 8 855 857 858 862
692 8 855 857 858 863
693 8 855 857 858 864
694 12 854 855 857 858
695 10 856 855 857 858
696 11 856 855 857 858
697 10 853 854 855 856
698 11 853 854 855 856
699 12 853 854 855 857
700 8 855 854 853 859
701 8 855 854 853 860
702 8 855 854 853 861
703 8 543 545 546 550
704 8 543 545 546 551
705 8 543 545 546 552
706 12 506 507 509 510
707 10 508 507 509 510
708 11 508 507 509 510
709 8 507 509 510 514
710 8 507 509 510 515
711 8 507 509 510 516
712 1 192 191 196 194
713 2 192 191 196 194
714 6 196 191 192 199
715 7 196 191 192 199
716 6 196 191 192 200
717 7 196 191 192 200
718 9 197 191 192 199
719 9 197 191 192 200
720 9 198 191 192 199
721 9 198 191 192 200
722 3 191 196 194 193
723 3 191 196 194 195
724 8 194 196 191 197
725 8 194 196 191 198
726 1 191 192 193 194
727 2 191 192 193 194
728 4 193 192 191 196
729 5 193 192 191 196
730 6 193 192 191 197
731 7 193 192 191 197
732 6 193 192 191 198
733 7 193 192 191 198
734 3 192 193 194 195
735 3 192 193 194 196
736 8 194 193 192 199
737 8 194 193 192 200
738 1 212 211 216 214
739 2 212 211 216 214
740 6 216 211 212 219
741 7 216 211 212 219
742 6 216 211 212 220
743 7 216 211 212 220
744 9 217 211 212 219
745 9 217 211 212 220
746 9 218 211 212 219
747 9 218 211 212 220
748 1 211 212 213 214
749 2 211 212 213 214
750 4 213 212 211 216
751 5 213 212 211 216
752 6 213 212 211 217
753 7 213 212 211 217
754 6 213 212 211 218
755 7 213 212 211 218
756 3 212 213 214 215
757 3 212 213 214 216
758 8 214 213 212 219
759 8 214 213 212 220
760 3 291 296 294 293
761 3 291 296 294 295
762 8 294 296 291 297
763 8 294 296 291 298
764 1 292 291 296 294
765 2 292 291 296 294
766 6 296 291 292 299
767 7 296 291 292 299
768 6 296 291 292 300
769 7 296 291 292 300
770 9 297 291 292 299
771 9 297 291 292 300
772 9 298 291 292 299
773 9 298 291 292 300
774 10 697 698 699 700
775 11 697 698 699 700
776 12 697 698 699 701
777 8 699 698 697 703
778 8 699 698 697 704
779 8 699 698 697 705
780 12 698 699 701 702
781 10 700 699 701 702
782 11 700 699 701 702
783 3 251 256 254 253
784 3 251 256 254 255
785 8 254 256 251 257
786 8 254 256 251 258
787 8 627 629 630 634
788 8 627 629 630 635
789 8 627 629 630 636
790 10 529 530 531 532
791 11 529 530 531 532
792 12 529 530 531 533
793 8 531 530 529 535
794 8 531 530 529 536
795 8 531 530 529 537
796 3 111 116 114 113
797 3 111 116 114 115
798 8 114 116 111 117
799 8 114 116 111 118
800 8 519 521 522 526
801 8 519 521 522 527
802 8 519 521 522 528
803 12 422 423 425 426
804 10 424 423 425 426
805 11 424 423 425 426
806 12 914 915 917 918
807 10 916 915 917 918
808 11 916 915 917 918
809 10 589 590 591 592
810 11 589 590 591 592
811 12 589 590 591 593
812 8 591 590 589 595
813 8 591 590 589 596
814 8 591 590 589 597
815 8 759 761 762 766
816 8 759 761 762 767
817 8 759 761 762 768
818 12 938 939 941 942
819 10 940 939 941 942
820 11 940 939 941 942
821 1 181 182 183 184
822 2 181 182 183 184
823 4 183 182 181 186
824 5 183 182 181 186
825 6 183 182 181 187
826 7 183 182 181 187
827 6 183 182 181 188
828 7 183 182 181 188
829 8 939 941 942 946
830 8 939 941 942 947
831 8 939 941 942 948
832 10 325 326 327 328
833 11 325 326 327 328
834 12 325 326 327 329
835 8 327 326 325 331
836 8 327 326 325 332
837 8 327 326 325 333
838 1 182 181 186 184
839 2 182 181 186 184
840 6 186 181 182 189
841 7 186 181 182 189
842 6 186 181 182 190
843 7 186 181 182 190
844 9 187 181 182 189
845 9 187 181 182 190
846 9 188 181 182 189
847 9 188 181 182 190
848 3 141 146 144 143
849 3 141 146 144 145
850 8 144 146 141 147
851 8 144 146 141 148
852 8 951 953 954 958
853 8 951 953 954 959
854 8 951 953 954 960
855 12 950 951 953 954
856 10 952 951 953 954
857 11 952 951 953 954
858 12 590 591 593 594
859 10 592 591 593 594
860 11 592 591 593 594
861 8 591 593 594 598
862 8 591 593 594 599
863 8 591 593 594 600
864 10 421 422 423 424
865 11 421 422 423 424
866 12 421 422 423 425
867 8 423 422 421 427
868 8 423 422 421 428
869 8 423 422 421 429
870 1 32 31 36 34
871 2 32 31 36 34
872 6 36 31 32 39
873 7 36 31 32 39
874 6 36 31 32 40
875 7 36 31 32 40
876 9 37 31 32 39
877 9 37 31 32 40
878 9 38 31 32 39
879 9 38 31 32 40
880 1 31 32 33 34
881 2 31 32 33 34
882 4 33 32 31 36
883 5 33 32 31 36
884 6 33 32 31 37
885 7 33 32 31 37
886 6 33 32 31 38
887 7 33 32 31 38
888 10 865 866 867 868
889 11 865 866 867 868
890 12 865 866 867 869
891 8 867 866 865 871
892 8 867 866 865 872
893 8 867 866 865 873
894 12 866 867 869 870
895 10 868 867 869 870
896 11 868 867 869 870
897 3 32 33 34 35
898 3 32 33 34 36
899 8 34 33 32 39
900 8 34 33 32 40
901 8 867 869 870 874
902 8 867 869 870 875
903 8 867 869 870 876
904 3 31 36 34 33
905 3 31 36 34 35
906 8 34 36 31 37
907 8 34 36 31 38
908 10 937 938 939 940
909 11 937 938 939 940
910 12 937 938 939 941
911 8 939 938 937 943
912 8 939 938 937 944
913 8 939 938 937 945
914 8 423 425 426 430
915 8 423 425 426 431
916 8 423 425 426 432
917 10 913 914 915 916
918 11 913 914 915 916
919 12 913 914 915 917
920 8 915 914 913 919
921 8 915 914 913 920
922 8 915 914 913 921
923 3 182 183 184 185
924 3 182 183 184 186
925 8 184 183 182 189
926 8 184 183 182 190
927 3 91 96 94 93
928 3 91 96 94 95
929 8 94 96 91 97
930 8 94 96 91 98
931 12 350 351 353 354
932 10 352 351 353 354
933 11 352 351 353 354
934 10 349 350 351 352
935 11 349 350 351 352
936 12 349 350 351 353
937 8 351 350 349 355
938 8 351 350 349 356
939 8 351 350 349 357
940 3 181 186 184 183
941 3 181 186 184 185
942 8 184 186 181 187
943 8 184 186 181 188
944 12 614 615 617 618
945 10 616 615 617 618
946 11 616 615 617 618
947 8 615 617 618 622
948 8 615 617 618 623
949 8 615 617 618 624
950 10 673 674 675 676
951 11 673 674 675 676
952 12 673 674 675 677
953 8 675 674 673 679
954 8 675 674 673 680
955 8 675 674 673 681
956 1 92 91 96 94
957 2 92 91 96 94
958 6 96 91 92 99
959 7 96 91 92 99
960 6 96 91 92 100
961 7 96 91 92 100
962 9 97 91 92 99
963 9 97 91 92 100
964 9 98 91 92 99
965 9 98 91 92 100
966 10 613 614 615 616
967 11 613 614 615 616
968 12 613 614 615 617
969 8 615 614 613 619
970 8 615 614 613 620
971 8 615 614 613 621
972 1 121 122 123 124
973 2 121 122 123 124
974 4 123 122 121 126
975 5 123 122 121 126
976 6 123 122 121 127
977 7 123 122 121 127
978 6 123 122 121 128
979 7 123 122 121 128
980 12 602 603 605 606
981 10 604 603 605 606
982 11 604 603 605 606
983 12 674 675 677 678
984 10 676 675 677 678
985 11 676 675 677 678
986 3 122 123 124 125
987 3 122 123 124 126
988 8 124 123 122 129
989 8 124 123 122 130
990 8 771 773 774 778
991 8 771 773 774 779
992 8 771 773 774 780
993 1 122 121 126 124
994 2 122 121 126 124
995 6 126 121 122 129
996 7 126 121 122 129
997 6 126 121 122 130
998 7 126 121 122 130
999 9 127 121 122 129
1000 9 127 121 122 130
1001 9 128 121 122 129
1002 9 128 121 122 130
1003 3 121 126 124 123
1004 3 121 126 124 125
1005 8 124 126 121 127
1006 8 124 126 121 128
1007 12 770 771 773 774
1008 10 772 771 773 774
1009 11 772 771 773 774
1010 10 769 770 771 772
1011 11 769 770 771 772
1012 12 769 770 771 773
1013 8 771 770 769 775
1014 8 771 770 769 776
1015 8 771 770 769 777
1016 10 829 830 831 832
1017 11 829 830 831 832
1018 12 829 830 831 833
1019 8 831 830 829 835
1020 8 831 830 829 836
1021 8 831 830 829 837
1022 12 830 831 833 834
1023 10 832 831 833 834
1024 11 832 831 833 834
1025 8 831 833 834 838
1026 8 831 833 834 839
1027 8 831 833 834 840
1028 10 733 734 735 736
1029 11 733 734 735 736
1030 12 733 734 735 737
1031 8 735 734 733 739
1032 8 735 734 733 740
1033 8 735 734 733 741
1034 8 735 737 738 742
1035 8 735 737 738 743
1036 8 735 737 738 744
1037 12 734 735 737 738
1038 10 736 735 737 738
1039 11 736 735 737 738
1040 12 458 459 461 462
1041 10 460 459 461 462
1042 11 460 459 461 462
1043 8 315 317 318 322
1044 8 315 317 318 323
1045 8 315 317 318 324
1046 10 493 494 495 496
1047 11 493 494 495 496
1048 12 493 494 495 497
1049 8 495 494 493 499
1050 8 495 494 493 500
1051 8 495 494 493 501
1052 8 327 329 330 334
1053 8 327 329 330 335
1054 8 327 329 330 336
1055 12 326 327 329 330
1056 10 328 327 329 330
1057 11 328 327 329 330
1058 1 202 201 206 204
1059 2 202 201 206 204
1060 6 206 201 202 209
1061 7 206 201 202 209
1062 6 206 201 202 210
1063 7 206 201 202 210
1064 9 207 201 202 209
1065 9 207 201 202 210
1066 9 208 201 202 209
1067 9 208 201 202 210
1068 1 201 202 203 204
1069 2 201 202 203 204
1070 4 203 202 201 206
1071 5 203 202 201 206
1072 6 203 202 201 207
1073 7 203 202 201 207
1074 6 203 202 201 208
1075 7 203 202 201 208
1076 3 202 203 204 205
1077 3 202 203 204 206
1078 8 204 203 202 209
1079 8 204 203 202 210
1080 3 201 206 204 203
1081 3 201 206 204 205
1082 8 204 206 201 207
1083 8 204 206 201 208
1084 8 339 341 342 346
1085 8 339 341 342 347
1086 8 339 341 342 348
1087 10 949 950 951 952
1088 11 949 950 951 952
1089 12 949 950 951 953
1090 8 951 950 949 955
1091 8 951 950 949 956
1092 8 951 950 949 957
1093 8 459 461 462 466
1094 8 459 461 462 467
1095 8 459 461 462 468
1096 8 891 893 894 898
1097 8 891 893 894 899
1098 8 891 893 894 900
1099 8 603 605 606 610
1100 8 603 605 606 611
1101 8 603 605 606 612
1102 1 261 262 263 264
1103 2 261 262 263 264
1104 4 263 262 261 266
1105 5 263 262 261 266
1106 6 263 262 261 267
1107 7 263 262 261 267
1108 6 263 262 261 268
1109 7 263 262 261 268
1110 3 262 263 264 265
1111 3 262 263 264 266
1112 8 264 263 262 269
1113 8 264 263 262 270
1114 1 262 261 266 264
1115 2 262 261 266 264
1116 6 266 261 262 269
1117 7 266 261 262 269
1118 6 266 261 262 270
1119 7 266 261 262 270
1120 9 267 261 262 269
1121 9 267 261 262 270
1122 9 268 261 262 269
1123 9 268 261 262 270
1124 10 601 602 603 604
1125 11 601 602 603 604
1126 12 601 602 603 605
1127 8 603 602 601 607
1128 8 603 602 601 608
1129 8 603 602 601 609
1130 12 338 339 341 342
1131 10 340 339 341 342
1132 11 340 339 341 342
1133 10 337 338 339 340
1134 11 337 338 339 340
1135 12 337 338 339 341
1136 8 339 338 337 343
1137 8 339 338 337 344
1138 8 339 338 337 345
1139 12 314 315 317 318
1140 10 316 315 317 318
1141 11 316 315 317 318
1142 8 351 353 354 358
1143 8 351 353 354 359
1144 8 351 353 354 360
1145 8 675 677 678 682
1146 8 675 677 678 683
1147 8 675 677 678 684
1148 12 494 495 497 498
1149 10 496 495 497 498
1150 11 496 495 497 498
1151 8 495 497 498 502
1152 8 495 497 498 503
1153 8 495 497 498 504
1154 8 579 581 582 586
1155 8 579 581 582 587
1156 8 579 581 582 588
1157 12 578 579 581 582
1158 10 580 579 581 582
1159 11 580 579 581 582
1160 8 447 449 450 454
1161 8 447 449 450 455
1162 8 447 449 450 456
1163 12 446 447 449 450
1164 10 448 447 449 450
1165 11 448 447 449 450
1166 10 445 446 447 448
1167 11 445 446 447 448
1168 12 445 446 447 449
1169 8 447 446 445 451
1170 8 447 446 445 452
1171 8 447 446 445 453
1172 10 469 470 471 472
1173 11 469 470 471 472
1174 12 469 470 471 473
1175 8 471 470 469 475
1176 8 471 470 469 476
1177 8 471 470 469 477
1178 10 889 890 891 892
1179 11 889 890 891 892
1180 12 889 890 891 893
1181 8 891 890 889 895
1182 8 891 890 889 896
1183 8 891 890 889 897
1184 12 890 891 893 894
1185 10 892 891 893 894
1186 11 892 891 893 894
1187 3 261 266 264 263
1188 3 261 266 264 265
1189 8 264 266 261 267
1190 8 264 266 261 268
1191 8 651 653 654 658
1192 8 651 653 654 659
1193 8 651 653 654 660
1194 12 650 651 653 654
1195 10 652 651 653 654
1196 11 652 651 653 654
1197 10 649 650 651 652
1198 11 649 650 651 652
1199 12 649 650 651 653
1200 8 651 650 649 655
1201 8 651 650 649 656
1202 8 651 650 649 657
1203 10 577 578 579 580
1204 11 577 578 579 580
1205 12 577 578 579 581
1206 8 579 578 577 583
1207 8 579 578 577 584
1208 8 579 578 577 585
1209 1 162 161 166 164
1210 2 162 161 166 164
1211 6 166 161 162 169
1212 7 166 161 162 169
1213 6 166 161 162 170
1214 7 166 161 162 170
1215 9 167 161 162 169
1216 9 167 161 162 170
1217 9 168 161 162 169
1218 9 168 161 162 170
1219 1 161 162 163 164
1220 2 161 162 163 164
1221 4 163 162 161 166
1222 5 163 162 161 166
1223 6 163 162 161 167
1224 7 163 162 161 167
1225 6 163 162 161 168
1226 7 163 162 161 168
1227 3 162 163 164 165
1228 3 162 163 164 166
1229 8 164 163 162 169
1230 8 164 163 162 170
1231 12 470 471 473 474
1232 10 472 471 473 474
1233 11 472 471 473 474
1234 8 483 485 486 490
1235 8 483 485 486 491
1236 8 483 485 486 492
1237 10 481 482 483 484
1238 11 481 482 483 484
1239 12 481 482 483 485
1240 8 483 482 481 487
1241 8 483 482 481 488
1242 8 483 482 481 489
1243 12 482 483 485 486
1244 10 484 483 485 486
1245 11 484 483 485 486
1246 10 637 638 639 640
1247 11 637 638 639 640
1248 12 637 638 639 641
1249 8 639 638 637 643
1250 8 639 638 637 644
1251 8 639 638 637 645
1252 10 313 314 315 316
1253 11 313 314 315 316
1254 12 313 314 315 317
1255 8 315 314 313 319
1256 8 315 314 313 320
1257 8 315 314 313 321
1258 8 471 473 474 478
1259 8 471 473 474 479
1260 8 471 473 474 480
1261 12 758 759 761 762
1262 10 760 759 761 762
1263 11 760 759 761 762
1264 1 171 172 173 174
1265 2 171 172 173 174
1266 4 173 172 171 176
1267 5 173 172 171 176
1268 6 173 172 171 177
1269 7 173 172 171 177
1270 6 173 172 171 178
1271 7 173 172 171 178
1272 10 757 758 759 760
1273 11 757 758 759 760
1274 12 757 758 759 761
1275 8 759 758 757 763
1276 8 759 758 757 764
1277 8 759 758 757 765
1278 1 172 171 176 174
1279 2 172 171 176 174
1280 6 176 171 172 179
1281 7 176 171 172 179
1282 6 176 171 172 180
1283 7 176 171 172 180
1284 9 177 171 172 179
1285 9 177 171 172 180
1286 9 178 171 172 179
1287 9 178 171 172 180
1288 10 781 782 783 784
1289 11 781 782 783 784
1290 12 781 782 783 785
1291 8 783 782 781 787
1292 8 783 782 781 788
1293 8 783 782 781 789
1294 3 171 176 174 173
1295 3 171 176 174 175
1296 8 174 176 171 177
1297 8 174 176 171 178
1298 3 22 23 24 25
1299 3 22 23 24 26
1300 8 24 23 22 29
1301 8 24 23 22 30
1302 1 21 22 23 24
1303 2 21 22 23 24
1304 4 23 22 21 26
1305 5 23 22 21 26
1306 6 23 22 21 27
1307 7 23 22 21 27
1308 6 23 22 21 28
1309 7 23 22 21 28
1310 12 782 783 785 786
1311 10 784 783 785 786
1312 11 784 783 785 786
1313 8 783 785 786 790
1314 8 783 785 786 791
1315 8 783 785 786 792
1316 3 211 216 214 213
1317 3 211 216 214 215
1318 8 214 216 211 217
1319 8 214 216 211 218
1320 3 292 293 294 295
1321 3 292 293 294 296
1322 8 294 293 292 299
1323 8 294 293 292 300
1324 1 291 292 293 294
1325 2 291 292 293 294
1326 4 293 292 291 296
1327 5 293 292 291 296
1328 6 293 292 291 297
1329 7 293 292 291 297
1330 6 293 292 291 298
1331 7 293 292 291 298
1332 8 699 701 702 706
1333 8 699 701 702 707
1334 8 699 701 702 708
1335 3 252 253 254 255
1336 3 252 253 254 256
1337 8 254 253 252 259
1338 8 254 253 252 260
1339 1 252 251 256 254
1340 2 252 251 256 254
1341 6 256 251 252 259
1342 7 256 251 252 259
1343 6 256 251 252 260
1344 7 256 251 252 260
1345 9 257 251 252 259
1346 9 257 251 252 260
1347 9 258 251 252 259
1348 9 258 251 252 260
1349 1 251 252 253 254
1350 2 251 252 253 254
1351 4 253 252 251 256
1352 5 253 252 251 256
1353 6 253 252 251 257
1354 7 253 252 251 257
1355 6 253 252 251 258
1356 7 253 252 251 258
1357 8 639 641 642 646
1358 8 639 641 642 647
1359 8 639 641 642 648
1360 3 172 173 174 175
1361 3 172 173 174 176
1362 8 174 173 172 179
1363 8 174 173 172 180
1364 10 301 302 303 304
1365 11 301 302 303 304
1366 12 301 302 303 305
1367 8 303 302 301 307
1368 8 303 302 301 308
1369 8 303 302 301 309
1370 1 272 271 276 274
1371 2 272 271 276 274
1372 6 276 271 272 279
1373 7 276 271 272 279
1374 6 276 271 272 280
1375 7 276 271 272 280
1376 9 277 271 272 279
1377 9 277 271 272 280
1378 9 278 271 272 279
1379 9 278 271 272 280
1380 1 271 272 273 274
1381 2 271 272 273 274
1382 4 273 272 271 276
1383 5 273 272 271 276
1384 6 273 272 271 277
1385 7 273 272 271 277
1386 6 273 272 271 278
1387 7 273 272 271 278
1388 12 302 303 305 306
1389 10 304 303 305 306
1390 11 304 303 305 306
1391 8 303 305 306 310
1392 8 303 305 306 311
1393 8 303 305 306 312
1394 3 271 276 274 273
1395 3 271 276 274 275
1396 8 274 276 271 277
1397 8 274 276 271 278
1398 3 272 273 274 275
1399 3 272 273 274 276
1400 8 274 273 272 279
1401 8 274 273 272 280
1402 1 22 21 26 24
1403 2 22 21 26 24
1404 6 26 21 22 29
1405 7 26 21 22 29
1406 6 26 21 22 30
1407 7 26 21 22 30
1408 9 27 21 22 29
1409 9 27 21 22 30
1410 9 28 21 22 29
1411 9 28 21 22 30
1412 3 21 26 24 23
1413 3 21 26 24 25
1414 8 24 26 21 27
1415 8 24 26 21 28
1416 3 161 166 164 163
1417 3 161 166 164 165
1418 8 164 166 161 167
1419 8 164 166 161 168
1420 1 91 92 93 94
1421 2 91 92 93 94
1422 4 93 92 91 96
1423 5 93 92 91 96
1424 6 93 92 91 97
1425 7 93 92 91 97
1426 6 93 92 91 98
1427 7 93 92 91 98
1428 3 92 93 94 95
1429 3 92 93 94 96
1430 8 94 93 92 99
1431 8 94 93 92 100
1432 12 794 795 797 798
1433 10 796 795 797 798
1434 11 796 795 797 798
1435 12 530 531 533 534
1436 10 532 531 533 534
1437 11 532 531 533 534
1438 8 531 533 534 538
1439 8 531 533 534 539
1440 8 531 533 534 540
1441 8 795 797 798 802
1442 8 795 797 798 803
1443 8 795 797 798 804
1444 12 638 639 641 642
1445 10 640 639 641 642
1446 11 640 639 641 642
1447 10 793 794 795 796
1448 11 793 794 795 796
1449 12 793 794 795 797
1450 8 795 794 793 799
1451 8 795 794 793 800
1452 8 795 794 793 801

Impropers

1 1 84 86 83 85
2 1 84 83 85 86
3 1 54 55 56 53
4 1 711 713 710 712
5 1 711 712 713 710
6 1 54 53 55 56
7 1 723 725 722 724
8 1 54 56 53 55
9 1 687 686 688 689
10 1 723 724 725 722
11 1 915 917 914 916
12 1 387 389 386 388
13 1 387 386 388 389
14 1 387 388 389 386
15 1 4 3 5 6
16 1 411 410 412 413
17 1 903 902 904 905
18 1 903 904 905 902
19 1 903 905 902 904
20 1 44 43 45 46
21 1 74 76 73 75
22 1 44 45 46 43
23 1 74 75 76 73
24 1 44 46 43 45
25 1 507 506 508 509
26 1 399 401 398 400
27 1 399 400 401 398
28 1 399 398 400 401
29 1 14 16 13 15
30 1 64 66 63 65
31 1 14 15 16 13
32 1 14 13 15 16
33 1 74 73 75 76
34 1 144 143 145 146
35 1 663 662 664 665
36 1 663 665 662 664
37 1 663 664 665 662
38 1 711 710 712 713
39 1 459 458 460 461
40 1 375 377 374 376
41 1 723 722 724 725
42 1 244 245 246 243
43 1 375 376 377 374
44 1 104 105 106 103
45 1 843 844 845 842
46 1 244 243 245 246
47 1 244 246 243 245
48 1 375 374 376 377
49 1 154 156 153 155
50 1 843 842 844 845
51 1 154 153 155 156
52 1 154 155 156 153
53 1 747 749 746 748
54 1 963 964 965 962
55 1 819 818 820 821
56 1 963 962 964 965
57 1 747 748 749 746
58 1 363 365 362 364
59 1 363 364 365 362
60 1 747 746 748 749
61 1 64 65 66 63
62 1 807 809 806 808
63 1 807 806 808 809
64 1 411 413 410 412
65 1 64 63 65 66
66 1 435 434 436 437
67 1 435 437 434 436
68 1 435 436 437 434
69 1 555 554 556 557
70 1 104 103 105 106
71 1 104 106 103 105
72 1 927 928 929 926
73 1 927 926 928 929
74 1 843 845 842 844
75 1 555 556 557 554
76 1 879 878 880 881
77 1 879 880 881 878
78 1 963 965 962 964
79 1 363 362 364 365
80 1 819 820 821 818
81 1 819 821 818 820
82 1 927 929 926 928
83 1 555 557 554 556
84 1 224 223 225 226
85 1 627 626 628 629
86 1 284 283 285 286
87 1 284 286 283 285
88 1 134 136 133 135
89 1 543 542 544 545
90 1 687 689 686 688
91 1 284 285 286 283
92 1 687 688 689 686
93 1 224 225 226 223
94 1 224 226 223 225
95 1 567 568 569 566
96 1 567 569 566 568
97 1 4 5 6 3
98 1 4 6 3 5
99 1 519 520 521 518
100 1 807 808 809 806
101 1 567 566 568 569
102 1 519 518 520 521
103 1 234 235 236 233
104 1 114 113 115 116
105 1 234 236 233 235
106 1 879 881 878 880
107 1 234 233 235 236
108 1 134 135 136 133
109 1 134 133 135 136
110 1 855 857 854 856
111 1 855 856 857 854
112 1 855 854 856 857
113 1 543 544 545 542
114 1 543 545 542 544
115 1 507 509 506 508
116 1 194 195 196 193
117 1 194 196 193 195
118 1 214 215 216 213
119 1 194 193 195 196
120 1 214 213 215 216
121 1 411 412 413 410
122 1 294 296 293 295
123 1 254 255 256 253
124 1 699 698 700 701
125 1 254 256 253 255
126 1 627 629 626 628
127 1 531 530 532 533
128 1 114 116 113 115
129 1 519 521 518 520
130 1 423 424 425 422
131 1 591 590 592 593
132 1 759 761 758 760
133 1 939 940 941 938
134 1 939 941 938 940
135 1 327 326 328 329
136 1 327 328 329 326
137 1 144 146 143 145
138 1 294 295 296 293
139 1 144 145 146 143
140 1 951 953 950 952
141 1 951 952 953 950
142 1 84 85 86 83
143 1 591 593 590 592
144 1 423 422 424 425
145 1 591 592 593 590
146 1 867 866 868 869
147 1 867 868 869 866
148 1 34 33 35 36
149 1 867 869 866 868
150 1 34 36 33 35
151 1 939 938 940 941
152 1 423 425 422 424
153 1 915 916 917 914
154 1 915 914 916 917
155 1 184 183 185 186
156 1 94 96 93 95
157 1 184 185 186 183
158 1 351 352 353 350
159 1 351 350 352 353
160 1 184 186 183 185
161 1 615 617 614 616
162 1 675 674 676 677
163 1 615 614 616 617
164 1 603 604 605 602
165 1 675 676 677 674
166 1 124 123 125 126
167 1 771 773 770 772
168 1 339 340 341 338
169 1 124 125 126 123
170 1 124 126 123 125
171 1 771 770 772 773
172 1 771 772 773 770
173 1 831 830 832 833
174 1 831 832 833 830
175 1 831 833 830 832
176 1 735 734 736 737
177 1 735 737 734 736
178 1 315 317 314 316
179 1 495 494 496 497
180 1 327 329 326 328
181 1 204 203 205 206
182 1 204 206 203 205
183 1 204 205 206 203
184 1 339 341 338 340
185 1 951 950 952 953
186 1 459 461 458 460
187 1 459 460 461 458
188 1 891 893 890 892
189 1 603 605 602 604
190 1 264 263 265 266
191 1 615 616 617 614
192 1 603 602 604 605
193 1 339 338 340 341
194 1 315 316 317 314
195 1 483 484 485 482
196 1 507 508 509 506
197 1 34 35 36 33
198 1 351 353 350 352
199 1 675 677 674 676
200 1 495 496 497 494
201 1 495 497 494 496
202 1 579 581 578 580
203 1 579 580 581 578
204 1 447 449 446 448
205 1 447 446 448 449
206 1 471 470 472 473
207 1 891 890 892 893
208 1 891 892 893 890
209 1 264 265 266 263
210 1 264 266 263 265
211 1 651 653 650 652
212 1 651 652 653 650
213 1 651 650 652 653
214 1 579 578 580 581
215 1 164 163 165 166
216 1 447 448 449 446
217 1 483 485 482 484
218 1 483 482 484 485
219 1 639 638 640 641
220 1 315 314 316 317
221 1 471 473 470 472
222 1 471 472 473 470
223 1 114 115 116 113
224 1 759 760 761 758
225 1 759 758 760 761
226 1 783 782 784 785
227 1 783 784 785 782
228 1 174 176 173 175
229 1 24 23 25 26
230 1 783 785 782 784
231 1 214 216 213 215
232 1 294 293 295 296
233 1 699 701 698 700
234 1 254 253 255 256
235 1 699 700 701 698
236 1 94 95 96 93
237 1 639 641 638 640
238 1 174 173 175 176
239 1 174 175 176 173
240 1 303 302 304 305
241 1 303 304 305 302
242 1 303 305 302 304
243 1 274 276 273 275
244 1 274 273 275 276
245 1 24 26 23 25
246 1 164 166 163 165
247 1 94 93 95 96
248 1 164 165 166 163
249 1 24 25 26 23
250 1 531 532 533 530
251 1 531 533 530 532
252 1 795 797 794 796
253 1 795 796 797 794
254 1 627 628 629 626
255 1 639 640 641 638
256 1 795 794 796 797
257 1 735 736 737 734
258 1 274 275 276 273
