LAMMPS data file via write_data, version 22 Jul 2025, timestep = 525667, units = real

1014 atoms
8 atom types
944 bonds
6 bond types
1504 angles
7 angle types
1452 dihedrals
12 dihedral types
258 impropers
1 improper types

-0.20612460028582902 22.801416211285673 xlo xhi
-0.1741245913214673 22.8334162212913 ylo yhi
-0.21512459631664704 22.792416221316635 zlo zhi

Masses

1 12.01078
2 15.99943
3 12.01078
4 15.99943
5 1.007947
6 6.9412
7 18.998403
8 10.8117

Pair Coeffs # lj/cut/coul/long

1 0.108841 3.37953
2 0.168465 3.02511
3 0.0868793 3.48065
4 0.210206 3.03981
5 0.0164092 2.58323
6 0.0279896 1.82634
7 0.061 3.11993
8 0.095 3.42105

Bond Coeffs # harmonic

1 215.301 1.53363
2 227.037 1.43632
3 357.819 1.09421
4 291.342 1.35606
5 762.039 1.225
6 386.59 1.394

Angle Coeffs # harmonic

1 91.5186 108.173
2 66.7563 109.938
3 63.31 123.606
4 36.7766 108.354
5 119.896 112.874
6 84.5477 120.105
7 80.005 109.5

Dihedral Coeffs # opls

1 1 0.111303 3 0
2 1 0.438911 1 180
3 1 1.76361 2 180
4 1 -0.0153377 3 0
5 1 0.41915 2 0
6 1 0.131135 3 0
7 1 0.436547 1 0
8 1 0.263111 3 0
9 1 0.227995 3 0
10 1 0.302195 2 180
11 1 1.35005 1 180
12 1 3.48187 2 180

Improper Coeffs # cvff

1 4.30523 -1 2

Atoms # full

986 95 8 1 4.4193012953715165 5.086460089906049 8.493294341731536 0 0 0
988 95 7 -0.5 3.969550127422524 6.283328291512603 9.07285464105622 0 0 0
973 87 6 1 3.000552136570621 7.939302622398293 9.41900757346337 0 0 0
985 95 7 -0.5 5.808674472025328 5.16567977982618 8.34740598364082 0 0 0
989 95 7 -0.5 3.8448079416532166 4.942075738436398 7.22378207543541 0 0 0
987 95 7 -0.5 3.961834681749303 4.086226459633727 9.324370834024728 0 0 0
1006 99 8 1 4.721761427269267 9.536033031254108 10.851917227517927 0 0 0
903 81 3 0.7551165 1.5988029726795825 0.04586979477324969 2.0012120888398233 1 0 0
712 65 4 -0.5800835 2.6399789894003405 9.055988960639691 7.76171068916612 0 0 0
717 65 5 0.0582835 2.502991743412386 6.897950083490418 6.27680020153331 0 0 0
904 81 4 -0.5800835 0.9980285094207182 0.8071094213772537 2.71842445149483 1 0 0
369 36 5 0.0582835 11.7158747441718 7.714908461408532 10.451799025417097 0 0 0
711 65 3 0.7551165 1.6247445818219737 9.2916080704737 7.063291223017165 0 0 0
709 65 1 0.1266165 1.4200238415004185 6.973025651096975 6.596023870269354 0 0 0
716 65 5 0.0582835 0.8734032997185465 6.19142689933937 5.987316521520988 0 0 0
710 65 2 -0.3889835 0.9475552997569752 8.28713157586442 6.429348157774593 0 0 0
715 65 5 0.0582835 1.4274222365074758 6.547569501391563 7.609438284879929 0 0 0
940 84 4 -0.5800835 1.202436222597003 7.767745881616442 10.308393354931193 0 0 0
769 70 1 0.1266165 5.116784315474887 6.245243427636701 4.869306484497894 1 0 0
777 70 5 0.0582835 5.302181632576527 7.281064329009064 5.281626451415108 1 0 0
775 70 5 0.0582835 4.129301874254597 5.9615100080893475 5.157737342966887 1 0 0
388 38 4 -0.5800835 3.313301713655424 3.6111590129155138 2.533055681091074 0 0 1
387 38 3 0.7551165 3.39274049751533 3.687932396570419 1.3303726643026927 0 0 1
901 81 1 0.1266165 3.3567147553129644 0.09640519797418073 3.5879847709637787 1 0 0
392 38 5 0.0582835 6.575612735964076 2.8234218397117368 0.8364168471571705 0 0 1
909 81 5 0.0582835 3.3792540528495847 1.201700782490759 3.6866245721331246 1 0 0
939 84 3 0.7551165 0.18538694346647056 7.682050726903302 10.95134300761672 0 0 0
776 70 5 0.0582835 5.787451418579465 5.475095919549152 5.294838225771318 1 0 0
70 7 5 0.0798 6.346570995738263 8.232190437996257 7.929730896896742 0 0 0
68 7 5 0.0798 5.130567263783447 9.798720424264406 6.535043050863693 0 0 0
318 32 1 0.1266165 5.200456557812324 1.1081120717309692 7.149118444027973 1 1 0
323 32 5 0.0582835 4.901169085902104 2.0111302270220244 6.563806400823477 1 1 0
1007 99 7 -0.5 4.882862947879465 9.581462912330707 9.476580352663486 0 0 0
608 56 5 0.0582835 1.4672111244089712 2.5740015889019467 5.8228767433587665 0 0 0
770 70 2 -0.3889835 5.218653350561006 6.186306630457365 3.412238267254999 1 0 0
609 56 5 0.0582835 1.497949017983702 3.146876951595148 7.444442731427757 0 0 0
601 56 1 0.1266165 1.0979193772932698 2.3364620378026517 6.829113845445876 0 0 0
62 7 1 0.0955 6.934441498418067 8.840763937450815 7.233651636148774 0 0 0
61 7 1 0.0955 6.2190826481947825 10.013427793429228 6.611015356482803 0 0 0
144 15 3 0.8478 0.09694395919583336 11.070918513084294 2.2915279566012043 0 0 0
910 81 5 0.0582835 -0.1893921517810533 1.1615504216894712 0.20467427105633607 1 0 0
386 38 2 -0.3889835 4.574965583068925 3.477633330291045 0.6539485116599394 0 0 1
607 56 5 0.0582835 1.3995789788713946 1.3514374159375615 7.232234815046708 0 0 0
574 53 5 0.0582835 6.649163273803669 11.178998903588495 2.408964145409481 0 0 1
945 84 5 0.0582835 22.70981606452126 5.671959430994525 8.940517167358681 -1 0 0
391 38 5 0.0582835 5.539757735913658 2.303892601914931 2.1390587923258764 0 0 1
385 38 1 0.1266165 5.710841462227994 3.1461345216079803 1.466264223014788 0 0 1
381 37 5 0.0582835 -0.18534804727859822 5.3512203476269615 3.298652459850541 1 0 0
393 38 5 0.0582835 6.049221236139 3.866514658988096 2.278188634439703 0 0 1
380 37 5 0.0582835 22.59117448111017 5.084340466971474 4.957679783064097 0 0 0
324 32 5 0.0582835 4.494029552342836 0.9442741567681187 7.996082465578808 1 1 0
322 32 5 0.0582835 6.174917043866798 1.3085512565393798 7.633662088229815 1 1 0
772 70 4 -0.5800835 3.6214082225053374 7.789482453522203 3.3335616097403866 1 0 0
713 65 2 -0.3889835 1.2062567892541622 10.562236338188578 6.943609047821109 0 0 0
148 15 5 0.0798 0.8386260895420198 8.631150693947182 3.1981559400919513 0 0 0
67 7 5 0.0798 6.277746169632647 11.001532645786904 7.058009915664031 0 0 0
66 7 2 -0.4048 6.612383410423759 10.027209226164981 5.309239014969619 0 0 0
943 84 5 0.0582835 0.8338361811964522 5.191858818343883 10.347724812772245 0 0 0
790 71 5 0.0582835 6.881975513845105 0.8108646482258558 3.4084783045424456 0 1 1
146 15 2 -0.4048 0.5533134178397152 9.89487642692128 1.7417294034748507 0 0 0
668 61 5 0.0582835 3.8599184748429547 10.855740881869458 2.466806081687264 0 0 0
937 84 1 0.1266165 22.79025346945839 5.462856169729445 10.029302237771024 -1 0 0
771 70 3 0.7551165 4.389035093148997 7.045836665285815 2.7385201390790903 1 0 0
948 84 5 0.0582835 0.6435232817640022 10.277125619476646 10.886585776916824 0 0 0
394 38 5 0.0582835 1.3551505207304713 5.173666383551369 1.916360167678709 0 0 1
317 32 2 -0.3889835 5.257360245752335 -0.09873345670422017 6.279981652138807 1 1 0
944 84 5 0.0582835 22.128271054372117 4.5515201474536005 10.050403275163212 -1 0 0
938 84 2 -0.3889835 22.352114005641507 6.556088028091791 10.895919532112272 -1 0 0
906 81 1 0.1266165 22.77167053084417 0.07080136300057278 0.5082296816911185 0 0 0
245 25 4 -0.5484 11.872142497705966 4.874223070119628 10.565367680119234 0 0 0
773 70 2 -0.3889835 4.42292863474881 7.054266135585095 1.3872596217415398 1 0 0
778 70 5 0.0582835 3.6555905335713814 9.01826672571614 0.9146795204537371 1 0 0
69 7 5 0.0798 7.7313932577265305 9.273370460095101 7.835106967280429 0 0 0
15 2 4 -0.5484 9.670690463123607 11.205174042204938 6.478933430253432 0 0 0
1002 98 7 -0.5 15.736365215053194 1.8342542381646756 9.866831898246526 0 0 0
5 1 4 -0.5484 17.047171426120563 5.446097233998042 -0.06609160609077698 0 0 1
71 8 1 0.0955 20.209227715029087 7.519799771992351 0.17179577758550327 0 0 0
77 8 5 0.0798 21.07969430829984 6.917099593988503 0.21923169600346767 0 0 0
395 38 5 0.0582835 0.3322235340300406 4.432111681507483 0.555301801353047 0 0 1
396 38 5 0.0582835 0.9051825677464661 3.328930020371792 1.829487788634249 0 0 1
774 70 1 0.1266165 3.586454707275758 7.91647059000455 0.697382923374187 1 0 0
977 91 6 1 10.034651601644434 11.226676164172401 4.385295619410236 0 0 1
407 39 5 0.0582835 9.202082138621938 0.1526378404207785 7.448679889163992 0 1 0
75 8 4 -0.5484 18.80555389501032 10.613951658007736 0.7087828875007647 0 0 0
368 36 5 0.0582835 11.763750669524228 9.514651512028587 10.84727930104192 0 0 0
448 43 4 -0.5800835 18.527810611677268 8.61017999711193 11.200833301355871 -1 0 0
9 1 5 0.0798 12.937425200181389 5.247329376762994 -0.053285538221837354 0 0 1
390 38 1 0.1266165 1.1416550088369803 4.247804391706155 1.2526894444775758 0 0 1
586 54 5 0.0582835 6.5350634468858 7.940515166134869 0.7776094333029916 0 0 1
876 78 5 0.0582835 17.2194546518437 -0.03187642468077061 8.373813289272256 0 1 0
598 55 5 0.0582835 10.382395256945244 3.6624564683027554 0.6084286076609993 0 0 0
780 70 5 0.0582835 2.5962563579331115 7.583616302410176 1.006644227312001 1 0 0
383 37 5 0.0582835 18.855855442081083 1.7539000306510337 0.5799095627739601 0 0 0
382 37 5 0.0582835 20.11970074405967 2.791606606617805 0.08852939910668635 0 0 0
270 27 5 0.0798 13.479933432307613 0.8352269029903437 7.576292002946539 0 1 0
956 85 5 0.0582835 15.222158586228797 10.523437709999188 11.136500243288696 0 0 0
707 64 5 0.0582835 19.040118948512863 11.296806043707504 9.094035154384121 0 0 1
361 36 1 0.1266165 12.34679690741768 8.581646687800424 10.80464044159126 0 0 0
795 72 3 0.7551165 15.937346800322876 0.5618344657304849 0.24672463763098337 0 1 1
599 55 5 0.0582835 8.91772023693963 2.7269998835901728 0.5738144162555129 0 0 0
519 49 3 0.7551165 11.982306361301207 0.25064754713942605 1.3430089829560283 0 0 1
63 7 2 -0.4048 7.662139232654429 8.217096287306966 6.244163848435973 0 0 0
20 2 5 0.0798 8.39742443023163 9.918378086996167 10.20516163289404 0 0 0
207 21 5 0.0798 13.56401814091012 10.802677442638979 5.192952935471432 0 0 0
784 71 4 -0.5800835 7.290289585268888 0.3983228260771946 0.9230056133063458 0 1 1
193 20 2 -0.4048 11.769606674133062 7.651230517832259 0.40508650748162645 0 0 1
241 25 1 0.0955 8.65957034104954 4.486658408743497 9.321251721017138 0 0 0
528 49 5 0.0582835 12.747548529375752 0.2499494128087491 3.959587869974142 0 0 1
250 25 5 0.0798 8.625937525449922 6.667374877351067 9.130058410326466 0 0 0
243 25 2 -0.4048 10.439947209345192 5.968263454404842 9.137572866820188 0 0 0
244 25 3 0.8478 10.760380565958625 4.9581132083107216 9.989321100834022 0 0 0
247 25 5 0.0798 8.692501991252989 3.684421959132969 8.635267411754073 0 0 0
13 2 2 -0.4048 9.672240811515657 10.25892606925137 8.541284830137023 0 0 0
209 21 5 0.0798 15.028185604967216 10.24463197516557 6.744145770391381 0 0 0
200 20 5 0.0798 11.338138801524423 8.68791333877828 1.9861726848302812 0 0 1
192 20 1 0.0955 12.088097927693488 7.883581855474154 1.7485086683341329 0 0 1
526 49 5 0.0582835 11.410343591635892 1.4357595658274402 3.691329023809422 0 0 1
520 49 4 -0.5800835 12.657716184816097 1.3012135090143584 1.3341893674417256 0 0 1
196 20 2 -0.4048 13.860735604223203 8.661383526372475 0.30236149297019355 0 0 1
268 27 5 0.0798 13.077980674452073 2.4576214770446683 9.18998987444944 0 1 0
249 25 5 0.0798 8.965029900923703 5.707716508336886 7.5895439381992436 0 0 0
267 27 5 0.0798 13.235400904360022 3.7103278607695405 8.006706180645873 0 1 0
261 27 1 0.0955 12.846403522998708 2.740367328528024 8.143413203395934 0 1 0
269 27 5 0.0798 14.400382878771422 1.9417081176745274 6.722315065266405 0 1 0
264 27 3 0.8478 11.17486797954228 2.158250333519661 6.7004235234320095 0 1 0
242 25 1 0.0955 9.115208968596232 5.734614314949947 8.687305114041514 0 0 0
968 86 5 0.0582835 7.625270787886652 5.541479027659902 3.253460506742154 0 0 0
967 86 5 0.0582835 8.928804517405208 6.427536042987591 4.15261316118192 0 0 0
266 27 2 -0.4048 11.408565749233956 2.9516952735063327 7.796428049414841 0 1 0
235 24 4 -0.5484 10.648239277084544 9.454339922293192 4.701475735870769 0 0 0
969 86 5 0.0582835 8.3741265916483 4.77908364429251 4.7406933185361 0 0 0
961 86 1 0.1266165 8.531740090182547 5.459999868198093 3.8352869327286743 0 0 0
232 24 1 0.0955 13.211759011638426 7.5482365377528495 6.004929755656929 0 0 0
964 86 4 -0.5800835 11.04306063457028 5.200179533749814 4.600119010494383 0 0 0
64 7 3 0.8478 7.4551671661094305 8.966583279103775 5.092465224138266 0 0 0
962 86 2 -0.3889835 9.510490189337768 4.745296631136111 2.982383841939905 0 0 0
197 20 5 0.0798 14.305324156112828 7.976831982080834 2.1436898328205114 0 0 1
963 86 3 0.7551165 10.80012564672242 4.700432640978852 3.5200242048229065 0 0 0
965 86 2 -0.3889835 11.711750143144645 4.052518420120288 2.761412061392488 0 0 0
236 24 2 -0.4048 10.954043506722867 7.901114949921848 6.345637535415816 0 0 0
231 24 1 0.0955 12.046253008682875 7.142427390888227 6.846325199378336 0 0 0
237 24 5 0.0798 12.20163532135982 7.56076516428241 7.777086593332525 0 0 0
65 7 4 -0.5484 7.9224607706885 8.778720572831578 3.997910440368068 0 0 0
191 20 1 0.0955 13.474942719038935 8.541097179935843 1.6999022325592033 0 0 1
234 24 3 0.8478 11.391118614232482 8.69213816175439 5.328501897330967 0 0 0
238 24 5 0.0798 11.992421268575049 6.053269146901999 7.036135072648834 0 0 0
233 24 2 -0.4048 12.757495185705702 8.51575486291252 5.080039776053909 0 0 0
239 24 5 0.0798 14.114329625513093 7.800169042994249 6.509192520851624 0 0 0
265 27 4 -0.5484 10.123724749888552 2.0619041775016385 6.104401961770706 0 1 0
240 24 5 0.0798 13.4425971069376 6.7361320909188445 5.36214955943557 0 0 0
262 27 1 0.0955 13.39482840930003 1.7691712706327842 7.173507162035289 0 1 0
12 2 1 0.0955 9.143526807482642 10.65757648905505 9.868269468212901 0 0 0
199 20 5 0.0798 11.893373890666588 7.103543955712175 2.4481969979215674 0 0 1
966 86 1 0.1266165 13.015467063676107 4.004721457396175 3.3127629400036223 0 0 0
972 86 5 0.0582835 13.475707719913416 5.022453214303001 3.3055576978774335 0 0 0
970 86 5 0.0582835 13.027825953892915 3.556359033432866 4.328591008254967 0 0 0
198 20 5 0.0798 13.5995450625877 9.53491578111423 2.268856014440934 0 0 1
19 2 5 0.0798 10.016900600592418 10.706769465710702 10.556845292781688 0 0 0
971 86 5 0.0582835 13.621078632600469 3.3670872673042522 2.619726039835437 0 0 0
389 38 2 -0.3889835 2.339547455632598 4.009774102886118 0.4906906326478326 0 0 1
1004 98 7 -0.5 15.271650749291336 3.8349489491202817 10.825528079140284 0 0 0
786 71 1 0.1266165 8.007742526753631 0.8156773737801104 3.421697050810159 0 1 1
362 36 2 -0.3889835 13.444891215845425 8.782010846619714 9.86644828429442 0 0 0
149 15 5 0.0798 21.1810065414913 9.16854245151208 3.4167982163811352 -1 0 0
78 8 5 0.0798 19.46762479284781 6.901308645384758 0.7206562332918822 0 0 0
792 71 5 0.0582835 8.415523224582687 1.6744618628393062 2.941735881009336 0 1 1
263 27 2 -0.4048 12.310811985857281 1.4371810224937536 6.275502779259302 0 1 0
834 75 1 0.1266165 21.060961214125353 9.186506659385568 8.265477532692216 0 0 0
246 25 2 -0.4048 9.73082356481598 4.03673884345405 10.139801901785576 0 0 0
248 25 5 0.0798 7.755880209083619 4.648051138926317 9.936258431254366 0 0 0
401 39 2 -0.3889835 9.844610673035458 0.34291317305468505 9.361309594846048 0 1 0
587 54 5 0.0582835 8.186212579438797 7.339331076674431 1.0121852557128892 0 0 1
791 71 5 0.0582835 8.33425251815861 0.6949429735728109 4.480427238409618 0 1 1
326 33 2 -0.3889835 17.96492553883678 6.990730777947061 2.979486285517467 0 0 0
27 3 5 0.0798 4.135239110155451 0.9623675599552517 0.19347072513231983 0 1 1
10 1 5 0.0798 13.426991980124058 3.5152487053295465 -0.09640752883216089 0 0 1
836 75 5 0.0582835 18.61419867427359 4.192902260538731 7.015389559284944 0 0 0
363 36 3 0.7551165 14.427166113492879 7.886045126478999 9.862296528639042 0 0 0
610 56 5 0.0582835 20.349116753774318 2.63826047234383 9.772377863365216 -1 0 0
406 39 5 0.0582835 7.973059157212544 0.8335453911023626 8.598214410130709 0 1 0
522 49 1 0.1266165 11.671630836224368 0.37156128668663846 3.7329949182684423 0 0 1
582 54 1 0.1266165 7.564691123616901 8.119222652402224 0.6171525144839969 0 0 1
588 54 5 0.0582835 7.962961663468121 9.021444959974449 1.0859059786880936 0 0 1
364 36 4 -0.5800835 14.45840662921446 6.868827445394904 10.571762501702647 0 0 0
832 75 4 -0.5800835 20.586125516447073 7.3218225496765506 6.273745163609971 0 0 0
373 37 1 0.1266165 22.051046339204845 5.228392231804812 4.017005771317807 0 0 0
605 56 2 -0.3889835 20.59460661928054 1.9941144304212999 7.883421259528583 -1 0 0
594 55 1 0.1266165 9.663718126399024 3.2506672461286925 -0.07488437976057627 0 0 0
327 33 3 0.7551165 17.090112464501345 5.9230040764945615 3.0695112703026313 0 0 0
602 56 2 -0.3889835 22.713729549660037 2.2255716981953517 6.778084802048592 -1 0 0
379 37 5 0.0582835 21.370709896766016 6.112587343034279 4.035943396368363 0 0 0
141 15 1 0.0955 -0.005854923664668443 8.883697964862428 2.5679670421311984 0 0 0
604 56 4 -0.5800835 22.587406929152294 2.0361509940105225 9.020598858470295 -1 0 0
793 72 1 0.1266165 15.593491935337743 0.3225498841594592 2.665593694540421 0 1 1
800 72 5 0.0582835 15.5210975123465 0.9854908276917618 3.6437845270088784 0 1 1
329 33 2 -0.3889835 17.7879183492287 4.762822595540675 3.064419217160538 0 0 0
370 36 5 0.0582835 16.2689453765515 6.292542448046622 8.483449215581905 0 0 0
334 33 5 0.0582835 16.111727603765672 3.4873977169204613 2.3589228570018004 0 0 0
920 82 5 0.0582835 20.973447522560285 0.5637022673593988 4.42697278815073 -1 0 0
830 75 2 -0.3889835 19.496003054343706 5.9776232227117525 7.691664899600875 0 0 0
374 37 2 -0.3889835 21.245897916268646 3.992475476466826 3.819924892740051 0 0 0
377 37 2 -0.3889835 19.925395362690534 2.7310669287547396 2.241658591593379 0 0 0
331 33 5 0.0582835 16.71950754380293 8.545286306995163 3.8320509181215576 0 0 0
76 8 2 -0.4048 19.99775353696314 8.689128359860753 1.058365675809477 0 0 0
335 33 5 0.0582835 17.506838179057386 2.6842751564572023 3.1938446366126194 0 0 0
365 36 2 -0.3889835 15.43429962715559 8.187410604915335 8.92552459164499 0 0 0
143 15 2 -0.4048 22.2619037555958 10.89252326366346 3.380898553381595 -1 0 0
150 15 5 0.0798 22.3213823400962 9.174756975546037 4.616656404805198 -1 0 0
698 64 2 -0.3889835 18.573779302819375 10.703245190894805 5.213987557828862 0 0 1
330 33 1 0.1266165 16.898183771481722 3.6007145431805383 3.1346232792651496 0 0 0
328 33 4 -0.5800835 15.894657310734758 5.991601371109211 3.1325078419255044 0 0 0
835 75 5 0.0582835 20.156037389479643 4.633362181674645 6.1663157083031575 0 0 0
699 64 3 0.7551165 18.49417073709189 11.233995344217933 6.417898828679569 0 0 1
706 64 5 0.0582835 17.696909891461495 10.111455054794313 9.370438465507387 0 0 1
325 33 1 0.1266165 17.298245192393843 8.303297579742244 2.941427524412665 0 0 0
833 75 2 -0.3889835 20.329444769066303 7.956129927692397 8.498465508644948 0 0 0
366 36 1 0.1266165 16.57219560376597 7.315546989630608 8.770583660024899 0 0 0
1005 99 7 -0.5 3.965384378320272 8.390527828655854 10.984878883542269 0 0 0
838 75 5 0.0582835 20.59625908288246 9.696628269560096 7.4374831921515066 0 0 0
333 33 5 0.0582835 16.681699762941186 8.335515263524949 2.0563242973013693 0 0 0
701 64 2 -0.3889835 18.10624909962355 10.386188742464306 7.426374856813439 0 0 1
371 36 5 0.0582835 17.339216566381733 7.702254434444825 8.113308366601531 0 0 0
702 64 1 0.1266165 18.004613688223486 10.966384308002361 8.707285643288616 0 0 1
840 75 5 0.0582835 21.98245188272077 8.747503425414335 7.873786804583809 0 0 0
606 56 1 0.1266165 19.92451999327881 1.8566879195129073 9.187525904500312 -1 0 0
603 56 3 0.7551165 21.99588079326803 2.0794048284192583 7.958099074859255 -1 0 0
3 1 2 -0.4048 14.912660778444977 4.834233634820791 0.41980474889128266 0 0 1
202 21 1 0.0955 14.838073288025875 11.323195398520244 6.824616937831417 0 0 0
875 78 5 0.0582835 18.51688310804095 0.09056254713248801 7.124784467300164 0 1 0
1000 98 7 -0.5 15.70659280072944 3.8590364085318996 8.669573493320044 0 0 0
332 33 5 0.0582835 18.052182952288025 9.064720258103238 2.987878740744779 0 0 0
142 15 1 0.0955 22.15897641825941 9.499977565789523 3.6075290584843103 -1 0 0
378 37 1 0.1266165 19.337376770231327 2.72189589774072 0.8375776181016411 0 0 0
147 15 5 0.0798 -0.14277424064507116 7.887231900695954 2.1776445793768824 0 0 0
612 56 5 0.0582835 20.28033883149626 0.9150214670702178 9.697943814778926 -1 0 0
384 37 5 0.0582835 18.620980678664047 3.5160883223427795 0.6677449374502827 0 0 0
1003 98 7 -0.5 17.314700458021726 3.512713651838927 10.189174858251832 0 0 0
611 56 5 0.0582835 18.807737007233378 1.9199763335222446 9.150450172724407 -1 0 0
451 43 5 0.0582835 19.80699399294848 6.182878344701279 10.488025984250598 -1 0 0
74 8 3 0.8478 19.234811831191262 9.53007838644858 0.3172462420549952 0 0 0
58 6 5 0.0798 5.212072958992176 5.669359093797587 11.246822793070002 0 0 0
829 75 1 0.1266165 19.241614791726228 5.032410892972728 6.635805344728207 0 0 0
375 37 3 0.7551165 20.65564824623555 3.9022284374224134 2.5216554313551423 0 0 0
376 37 4 -0.5800835 20.82607076343505 4.782540670509366 1.6795521115235506 0 0 0
839 75 5 0.0582835 21.149674650976504 9.854431918161543 9.113558334252552 0 0 0
1001 98 8 1 16.03406012488724 3.215431498276313 9.852975269835733 0 0 0
336 33 5 0.0582835 16.26687183339587 3.7051230022081247 4.036397490250452 0 0 0
831 75 3 0.7551165 20.196763520202133 7.139141325679331 7.415085746940742 0 0 0
372 36 5 0.0582835 17.135002156948293 7.101758401542202 9.610568858879793 0 0 0
794 72 2 -0.3889835 15.792920727025287 1.160961180531822 1.4634542449851502 0 1 1
837 75 5 0.0582835 18.61930055792635 5.538979981666374 5.844859964295423 0 0 0
704 64 5 0.0582835 18.857770230835573 10.997231694256156 3.173999579515128 0 0 1
415 40 5 0.0582835 16.432495592224765 10.947023338558441 0.0008240885921728643 -1 0 0
997 97 7 -0.5 11.27886384529937 11.055997832986723 2.177390933305996 0 0 1
402 39 1 0.1266165 8.801605008342845 0.12917595341271343 8.463577482340867 0 1 0
14 2 3 0.8478 9.403370638140977 11.232376821237104 7.636946280231565 0 0 0
912 81 5 0.0582835 22.130730929550044 0.05504992175626455 1.4458242610177203 0 0 0
453 43 5 0.0582835 18.104753760189197 5.94502237443446 11.022054245240644 -1 0 0
54 6 3 0.8478 3.225566193562751 6.457969325796709 13.665498534877772 0 0 0
53 6 2 -0.4048 4.475956212786865 6.739279477248922 14.173230166419797 0 0 0
55 6 4 -0.5484 2.174548529603053 6.759130901161424 14.170280812385444 0 0 0
632 58 5 0.0582835 0.8984979765678776 6.215703430197088 20.239138757225962 0 0 0
631 58 5 0.0582835 0.2508020596419123 5.833460445333069 18.68192628330213 0 0 0
514 48 5 0.0582835 3.1661021454197913 5.851958724617859 16.94275010868202 0 0 -1
510 48 1 0.1266165 3.406690009853367 6.872958653551419 17.154660513604803 0 0 -1
509 48 2 -0.3889835 3.4946533467597876 6.996092442080563 18.567960312001702 0 0 -1
515 48 5 0.0582835 2.6271154877067824 7.52947544447178 16.682209197573975 0 0 -1
96 10 2 -0.4048 2.43745706108934 3.6865562787834456 15.481777354376034 0 1 -1
94 10 3 0.8478 1.7379235225168126 2.932159136731225 16.374217368457025 0 1 -1
91 10 1 0.0955 3.857696225233522 3.492637284818122 15.627616668808047 0 1 -1
97 10 5 0.0798 4.346064170384936 3.015865617271289 14.725156871205215 0 1 -1
98 10 5 0.0798 4.268678552810382 4.4338523426145064 15.826254505336506 0 1 -1
507 48 3 0.7551165 4.568848809110259 6.399875118140135 19.159368587676973 0 0 -1
516 48 5 0.0582835 4.322006902305014 7.15506893422507 16.726217010844092 0 0 -1
506 48 2 -0.3889835 4.649791995225752 6.496978700479615 20.432585277831976 0 0 -1
92 10 1 0.0955 3.902715358858993 2.46770311635051 16.826901844894877 0 1 -1
99 10 5 0.0798 4.688694403480764 1.7342162216263555 16.72096434607375 0 1 -1
93 10 2 -0.4048 2.5826151718067494 2.180658299149035 17.18550687285074 0 1 -1
100 10 5 0.0798 4.3063689494794115 3.0184995467100886 17.671764148692766 0 1 -1
23 3 2 -0.4048 4.770485184335042 2.0795314710957866 20.559260673259185 0 1 0
551 51 5 0.0582835 0.11705596607732693 9.240499597425309 20.879818280998133 0 0 0
508 48 4 -0.5800835 5.406334040726115 5.771239335047862 18.51646514014738 0 0 -1
427 41 5 0.0582835 16.982992560807013 0.060375060752550454 13.54255520776276 -1 0 -1
52 6 1 0.0955 5.503420430942532 6.229600012100609 13.31585356033636 0 0 0
286 29 2 -0.4048 5.6371878424544635 10.36535792466727 15.999320543620357 0 0 0
24 3 3 0.8478 3.436773599799008 2.051316402718571 20.694147149261454 0 1 0
545 51 2 -0.3889835 -0.10482355450924734 9.942040107326898 18.818952337659994 0 0 0
56 6 2 -0.4048 3.363057549640848 5.739539937434244 12.501433557034616 0 0 0
26 3 2 -0.4048 2.982179312171623 1.2072812892235658 21.59738980559403 0 1 0
25 3 4 -0.5484 2.6115703780964723 2.7123450495355907 20.060018768310464 0 1 0
21 3 1 0.0955 4.124944319148215 0.5447448599273607 22.178623261698878 0 1 0
29 3 5 0.0798 6.076262646304647 1.62152933487987 22.085043308038134 0 1 0
22 3 1 0.0955 5.314637448311542 1.15482138559793 21.465833367278332 0 1 0
723 66 3 0.7551165 8.022666385229838 3.909999782960867 14.64544491672364 0 0 -1
256 26 2 -0.4048 2.742564317428883 1.495217792075319 12.910993698265875 0 1 0
51 6 1 0.0955 4.764883365556704 5.542868125458673 12.190468957887877 0 0 0
724 66 4 -0.5800835 7.044503554289408 3.193898361380761 14.772440406541277 0 0 -1
513 48 5 0.0582835 5.770264169048796 4.770759933812788 20.97761765129405 0 0 -1
505 48 1 0.1266165 5.761519339794375 5.835384327785902 21.091602826632553 0 0 -1
512 48 5 0.0582835 5.841399689074495 6.063243448928543 22.18901204720593 0 0 -1
511 48 5 0.0582835 6.723570563043719 6.1513108296957615 20.73097146418432 0 0 -1
585 54 5 0.0582835 5.70752273974504 10.098839509144321 19.49221829510326 0 0 0
259 26 5 0.0798 0.03969394543212611 3.256281429178364 12.615859884430483 0 1 0
57 6 5 0.0798 4.966082119374861 4.4768426210976715 12.391899727808577 0 0 0
298 30 5 0.0798 11.968457325611816 11.248905083052868 20.25702296682482 0 0 -1
287 29 5 0.0798 5.050935325647857 9.738711446311637 14.005935717133962 0 0 0
732 66 5 0.0582835 8.760400161040108 1.672470231808783 13.150958618422724 0 0 -1
59 6 5 0.0798 6.303468722642954 5.622206700861932 13.726479479647237 0 0 0
726 66 1 0.1266165 8.692176939958358 2.6765810690957443 12.774532645027438 0 0 -1
584 54 5 0.0582835 7.096861112999679 10.035403520636985 18.29710206862883 0 0 0
578 54 2 -0.3889835 7.415099222810723 9.097291725657909 20.11280376849402 0 0 0
577 54 1 0.1266165 6.762361143578875 10.140077187667513 19.35578718242025 0 0 0
60 6 5 0.0798 5.944463287801742 7.140535926438781 12.899151804029826 0 0 0
30 3 5 0.0798 5.821923271312968 0.37305780139948325 20.919035330703228 0 1 0
253 26 2 -0.4048 0.5118199414347926 1.1283422203453013 13.024356689828686 0 1 0
252 26 1 0.0955 0.6999959223348258 2.416459412926344 12.30838810106116 0 1 0
730 66 5 0.0582835 7.710569521787904 2.691995819713074 12.308102181914519 0 0 -1
449 43 2 -0.3889835 19.11860571186177 9.118558170475765 13.333366320529631 -1 0 0
729 66 5 0.0582835 6.43103022262801 5.29414742029276 15.940405514645649 0 0 -1
254 26 3 0.8478 1.7926510244746539 0.6554501486084475 13.326165408604375 0 1 0
550 51 5 0.0582835 1.148615933115926 8.50745270190215 19.54848829639194 0 0 0
288 29 5 0.0798 4.077424114204898 9.212816035234571 15.286726745890832 0 0 0
725 66 2 -0.3889835 8.914056434719743 3.7689783622614557 13.69513241103922 0 0 -1
194 20 3 0.8478 12.788378300616483 8.100695717894187 22.560508772616288 0 0 0
727 66 5 0.0582835 7.3098086056997875 4.3284216109795715 17.156332975782398 0 0 -1
692 63 5 0.0582835 0.528346857767267 0.7124747754275178 20.77247509353383 0 0 0
721 66 1 0.1266165 7.389009331668463 5.193861572092647 16.483852526654346 0 0 -1
580 54 4 -0.5800835 6.441985079213246 9.93819356742637 22.00487496921848 0 0 0
583 54 5 0.0582835 7.221484898078088 11.073093620349518 19.740935480339875 0 0 0
946 84 5 0.0582835 0.19161481828017773 10.607719334560258 12.547375969818244 0 0 0
260 26 5 0.0798 0.402785010102867 2.0647364927091236 11.372455735573494 0 1 0
156 16 2 -0.4048 8.129732130263573 7.891602529461586 14.37159716044777 1 0 0
942 84 1 0.1266165 0.5762200267635704 9.842051365682849 11.863154944318328 0 0 0
291 30 1 0.0955 10.979045799834546 10.837800216758918 20.497930511409322 0 0 -1
155 16 4 -0.5484 8.502639698693685 6.613574153269502 12.48698064581404 1 0 0
95 10 4 -0.5484 0.5545455207608717 2.8178781743278223 16.537700269940075 0 1 -1
633 58 5 0.0582835 0.8557659621037299 4.483884036934354 19.64132622138341 0 0 0
625 58 1 0.1266165 0.3087154619032041 5.440830709441754 19.65745315624081 0 0 0
693 63 5 0.0582835 0.5873148396334387 1.8116161340536043 19.358160610123686 0 0 0
947 84 5 0.0582835 1.5476504594418554 9.564179807335307 12.298586906002049 0 0 0
525 49 5 0.0582835 11.878231947557946 0.9829051894838249 21.810713639279232 0 0 0
157 16 5 0.0798 7.427984637640188 9.52242376330654 14.816972434800602 1 0 0
454 43 5 0.0582835 19.053628834636434 11.11330148020115 13.847200993516305 -1 0 0
464 44 5 0.0582835 14.53101593205297 0.39240418712126757 16.387491534165477 0 0 0
579 54 3 0.7551165 7.138956016235741 9.124671809912895 21.444569337438253 0 0 0
195 20 4 -0.5484 12.716486880022218 7.985514054138093 21.358731160322016 0 0 0
299 30 5 0.0798 10.46462319345994 10.044855620107821 22.48219142463971 0 0 -1
367 36 5 0.0582835 12.608405740194462 8.398261671153135 11.81644961797345 0 0 0
158 16 5 0.0798 9.004721410846322 9.397314930499599 15.669932291798863 1 0 0
974 88 6 1 14.270986634658195 5.1748628069095215 11.739363550652175 0 0 0
581 54 2 -0.3889835 7.771064422387109 8.146327119479203 22.098860414969973 0 0 0
151 16 1 0.0955 8.405345017355705 9.220364484145419 14.740968071786085 1 0 0
159 16 5 0.0798 8.537266427021397 10.81275993490062 13.268623599339044 1 0 0
2 1 1 0.0955 13.721181367972251 4.519043884807588 22.757904727838007 0 0 0
445 43 1 0.1266165 19.198099499399074 5.978411375501266 11.370195786821178 -1 0 0
160 16 5 0.0798 10.108128090890427 10.078231228408875 13.782347804960192 1 0 0
152 16 1 0.0955 9.064746285437902 9.87611009714503 13.551866429828934 1 0 0
722 66 2 -0.3889835 8.323622215199121 4.9825210810459 15.447620674727686 0 0 -1
461 44 2 -0.3889835 14.818869034521986 4.676859371697105 16.931191577136573 0 0 0
229 23 5 0.0798 11.293205567471698 0.10394533608840922 17.508946250908124 0 0 0
728 66 5 0.0582835 7.584221352870555 6.137432582362417 17.073359410819794 0 0 -1
153 16 2 -0.4048 9.140867571974667 8.820867224114494 12.554247821557924 1 0 0
226 23 2 -0.4048 9.147063347930374 2.1690823106928976 18.36090470476093 0 0 0
228 23 5 0.0798 10.848225855991164 2.9488847237895284 17.453079985382786 0 0 0
230 23 5 0.0798 12.175219204190466 1.3778269777594467 18.409709978499862 0 0 0
845 76 2 -0.3889835 11.806571355619491 4.769459294900113 15.128237799932805 0 0 0
214 22 3 0.8478 12.56832575285005 10.161390159734713 16.24546707517297 0 0 0
595 55 5 0.0582835 9.923043014547577 5.589390372251802 18.442320528592145 0 0 -1
154 16 3 0.8478 8.579629451858226 7.661796735562306 13.105137686752485 1 0 0
597 55 5 0.0582835 10.606458456370785 6.923773024630949 19.453574940679296 0 0 -1
224 23 3 0.8478 9.282978698037564 1.3162905750778573 19.49130391504901 0 0 0
851 76 5 0.0582835 11.40864451119919 6.754723268841152 15.53074037279392 0 0 0
215 22 4 -0.5484 11.739180300686932 9.349759557977862 15.830598878596168 0 0 0
846 76 1 0.1266165 11.958159494902784 6.230852357957495 14.753412958326521 0 0 0
852 76 5 0.0582835 13.019433983428367 6.384928098175072 14.65876846931271 0 0 0
589 55 1 0.1266165 9.68407830045258 6.369588293541529 19.19292671098239 0 0 -1
596 55 5 0.0582835 9.05553175349326 7.2068131960267765 18.75136341733777 0 0 -1
591 55 3 0.7551165 9.65383045465026 4.747260138898222 21.1323386797823 0 0 -1
213 22 2 -0.4048 13.720844892536844 10.540625422832541 15.59124522195572 0 0 0
590 55 2 -0.3889835 8.9572352886629 5.7268133785311734 20.347232689243363 0 0 -1
592 55 4 -0.5800835 10.79480890653487 4.448934145150987 20.84879736766085 0 0 -1
850 76 5 0.0582835 11.46534419203296 6.411878875354907 13.846578866208223 0 0 0
843 76 3 0.7551165 12.403100597722613 3.9512156866504946 14.205696137006377 0 0 0
222 23 1 0.0955 11.20342229312704 0.9723047680460739 18.169702814029577 0 0 0
223 23 2 -0.4048 10.47280077274588 0.5976261007855281 19.405034835740558 0 0 0
221 23 1 0.0955 10.30578474086403 2.0262990353438792 17.528563633497928 0 0 0
844 76 4 -0.5800835 12.990396383222679 4.374042486811464 13.204661650311412 0 0 0
842 76 2 -0.3889835 12.303366209740252 2.613703523194898 14.47356901716851 0 0 0
225 23 4 -0.5484 8.453750099902331 1.233736366811438 20.39828829982767 0 0 0
841 76 1 0.1266165 12.891236812164456 1.613590336895111 13.595591292093564 0 0 0
848 76 5 0.0582835 12.85687155782136 0.7053790428589886 14.134910821501535 0 0 0
847 76 5 0.0582835 13.85821147297815 1.9297556733628667 13.32980831873815 0 0 0
227 23 5 0.0798 9.959163819443498 1.7263591662332125 16.506200558421714 0 0 0
458 44 2 -0.3889835 14.609354025553301 2.474898957787395 16.686102228023895 0 0 0
941 84 2 -0.3889835 22.74799218042175 8.652670807913507 11.786203628518784 -1 0 0
849 76 5 0.0582835 12.371259933038301 1.4421870307200961 12.679325638674278 0 0 0
600 55 5 0.0582835 10.077886614553723 2.44902363835169 22.353910648300335 0 0 -1
122 13 1 0.0955 20.09079823108615 11.299706863700399 19.97105178924967 0 0 -1
593 55 2 -0.3889835 8.98618439442697 4.234987389991321 22.125040105076287 0 0 -1
73 8 2 -0.4048 18.908177199568236 9.105861683840034 22.07188527887045 0 0 -1
457 44 1 0.1266165 15.082968282161533 1.0703680500595059 17.01925941485341 0 0 0
1 1 1 0.0955 14.111584447878991 4.6388294858353705 21.316489889904325 0 0 0
463 44 5 0.0582835 14.775091081769222 0.6899841289233986 18.01326863511785 0 0 0
8 1 5 0.0798 13.963822152956983 3.792064371775073 20.715178442176686 0 0 0
297 30 5 0.0798 10.955711418978531 9.828732845475999 20.052921835769418 0 0 -1
779 70 5 0.0582835 3.816370879950924 7.8526199359314655 22.629911955351464 1 0 -1
7 1 5 0.0798 13.40609345964099 5.343521049682575 20.87108143684694 0 0 0
467 44 5 0.0582835 14.889451112982748 6.631762207513984 17.044984825528882 0 0 0
765 69 5 0.0582835 14.994780620650111 9.543071401565495 19.403747383637374 -1 0 -1
459 44 3 0.7551165 15.309141222613055 3.4609401269461006 17.291067557363522 0 0 0
462 44 1 0.1266165 15.478160011030036 5.864595416934835 17.49728222150639 0 0 0
468 44 5 0.0582835 15.680031645947873 5.812227494768105 18.512176866243156 0 0 0
764 69 5 0.0582835 15.732701050854976 9.01620465321146 21.04334083000629 -1 0 -1
460 44 4 -0.5800835 16.255843270352774 3.248797426333694 18.041826925957093 0 0 0
452 43 5 0.0582835 19.465484550168036 4.984388962947953 11.74987316376437 -1 0 0
216 22 2 -0.4048 12.443494404810135 10.772937910379717 17.453013076910093 0 0 0
447 43 3 0.7551165 18.980809603925614 8.223119135407009 12.27781547759407 -1 0 0
257 26 5 0.0798 2.291705824146998 3.4045984001840948 13.01194839011623 0 1 0
455 43 5 0.0582835 19.273108725481258 10.876345755952798 12.149278604953782 -1 0 0
1009 99 7 -0.5 5.985288097480592 9.380828258869323 11.3781647375415 0 0 0
757 69 1 0.1266165 15.8295496180563 9.07612882048764 19.93030867487289 -1 0 -1
763 69 5 0.0582835 15.871611297057624 8.024021044945428 19.713528809349985 -1 0 -1
421 41 1 0.1266165 17.273367223589688 -0.12066641892384214 12.453126961975025 -1 0 -1
300 30 5 0.0798 11.929118547513994 11.088502064799078 22.366716647112938 0 0 -1
282 29 1 0.0955 3.680757994418822 11.271904768797079 14.980132441254895 0 0 0
114 12 3 0.8478 19.270272467884443 0.3714583535608516 17.409579020750513 0 0 0
428 41 5 0.0582835 17.406003419178084 0.9113848462619974 12.004934768083862 -1 0 -1
546 51 1 0.1266165 0.16314788002922273 8.909995060196733 19.83737567565622 0 0 0
290 29 5 0.0798 2.678502566096157 10.930056050172068 15.046378321772108 0 0 0
465 44 5 0.0582835 16.144946681971565 0.895423788416543 16.815890778806363 0 0 0
638 59 2 -0.3889835 20.698169375929023 2.748980381796493 13.473277096858514 -1 1 0
281 29 1 0.0955 4.71826129793416 10.113144341049365 15.003350999325109 0 0 0
644 59 5 0.0582835 20.097193884869732 0.698619211154285 13.20406054209651 -1 1 0
72 8 1 0.0955 19.483626675045606 7.8113049300209125 21.83839952361325 0 0 -1
456 43 5 0.0582835 17.650498513746346 10.475691088494393 12.873977581266614 -1 0 0
446 43 2 -0.3889835 19.336917177276867 6.927634871890335 12.505287897021564 -1 0 0
823 74 5 0.0582835 14.802286681184484 8.228471847804316 14.269201335947757 -1 0 0
544 51 4 -0.5800835 0.030561364992614415 8.382628986825019 17.2194469742068 0 0 0
768 69 5 0.0582835 18.989392504756726 9.332824492360245 15.936527704970409 -1 0 -1
760 69 4 -0.5800835 16.41779231039035 9.317763796739692 17.275259138521612 -1 0 -1
640 59 4 -0.5800835 21.06558992043693 3.3887218524972162 15.487913962280729 -1 1 0
466 44 5 0.0582835 16.524826223491065 5.884249690979356 17.183382625693834 0 0 0
627 58 3 0.7551165 21.188794903145894 4.440707730615829 19.80700803334737 -1 0 0
647 59 5 0.0582835 22.046189049629877 6.759487507730423 14.546581575362376 -1 1 0
759 69 3 0.7551165 17.28354937158099 9.688914062503265 18.083416278449334 -1 0 -1
629 58 2 -0.3889835 20.001645370927477 4.312065058786812 20.46772140758246 -1 0 0
762 69 1 0.1266165 18.84646159678904 10.354841359618304 16.34480007667566 -1 0 -1
450 43 1 0.1266165 18.710276036400295 10.44315726443941 13.03732715645456 -1 0 0
639 59 3 0.7551165 21.054469587556138 3.625183756699983 14.294175383000294 -1 1 0
6 1 2 -0.4048 15.517752093047308 5.046837090835608 21.26965425361632 0 0 0
79 8 5 0.0798 20.170252648955586 7.937617620459634 21.071837754039137 0 0 -1
828 74 5 0.0582835 16.049596062233277 3.4642629970074825 14.407383297211762 -1 0 0
542 51 2 -0.3889835 22.630345071785477 10.485340059413856 16.614937925888924 -1 0 0
548 51 5 0.0582835 22.440853754675988 11.077255465414089 14.783401375900247 -1 0 0
549 51 5 0.0582835 0.5077534336851842 9.678061648034738 14.912807072658033 0 0 0
541 51 1 0.1266165 22.59018698869407 10.06871023035192 15.243736777320636 -1 0 0
636 58 5 0.0582835 18.507799333855374 3.824091174274566 19.10017210679836 -1 0 0
641 59 2 -0.3889835 21.386361393870224 4.858865004491779 13.791787966906345 -1 1 0
821 74 2 -0.3889835 17.38181767515459 5.193618709501778 14.251773869693467 -1 0 0
635 58 5 0.0582835 18.132667024432685 3.2993445217812063 20.61723602806663 -1 0 0
802 72 5 0.0582835 15.254822825354337 0.1396187341900762 20.67992696593137 0 1 0
767 69 5 0.0582835 19.802889335109832 10.841687710016167 16.336701034545708 -1 0 -1
634 58 5 0.0582835 19.39046747222939 2.43303308187619 19.75220449867873 -1 0 0
642 59 1 0.1266165 21.722130404407395 5.787678991976922 14.842396647306545 -1 1 0
4 1 3 0.8478 15.936120846648903 5.1371621343485 22.573089332192726 0 0 0
630 58 1 0.1266165 18.97730917687645 3.4142778500747886 19.96766870495265 -1 0 0
543 51 3 0.7551165 -0.14913599322257137 9.535099727439976 17.539537800825634 0 0 0
80 8 5 0.0798 18.740591515913195 7.096948412309773 21.455882873099803 0 0 -1
115 12 4 -0.5484 19.784346980373282 1.4805431224771126 17.253597034523498 0 0 0
547 51 5 0.0582835 21.758785868911655 9.511096121446606 14.922326238995122 -1 0 0
731 66 5 0.0582835 9.515007300380214 2.6539207571587635 11.954842796934747 0 0 -1
766 69 5 0.0582835 18.058984628766314 10.906554592767243 15.771408627340442 -1 0 -1
819 74 3 0.7551165 16.410466622654166 6.043667169124626 13.860034817761655 -1 0 0
761 69 2 -0.3889835 18.496113829387284 10.220552013723243 17.766494422213864 -1 0 -1
626 58 2 -0.3889835 22.027487769249383 5.33956019739033 20.418386253428494 -1 0 0
628 58 4 -0.5800835 21.4325392647491 3.8370595576943987 18.7833522346715 -1 0 0
818 74 2 -0.3889835 16.73395467004379 7.3518077582761565 14.0972795345722 -1 0 0
643 59 5 0.0582835 19.39516997170272 1.4765081480065563 14.579563505435575 -1 1 0
797 72 2 -0.3889835 16.149299585803984 1.3684218949128961 22.075516164768814 0 1 0
648 59 5 0.0582835 20.79570151172766 6.041308503370357 15.410410580486776 -1 1 0
826 74 5 0.0582835 17.203944691058883 3.5229478113704094 12.956846784151116 -1 0 0
803 72 5 0.0582835 16.539607533725007 1.230381907984409 20.073557368055486 0 1 0
646 59 5 0.0582835 22.504575044170945 5.29799180071223 15.49930283890936 -1 1 0
685 63 1 0.1266165 0.152163564803333 0.8911404048260843 19.765936207461053 0 0 0
645 59 5 0.0582835 21.155020902865537 0.9971956122762379 14.636329071301887 -1 1 0
292 30 1 0.0955 10.933031478648436 10.929625747864275 21.970614003371963 0 0 -1
825 74 5 0.0582835 15.478474085134184 8.320837959209188 12.667302948385798 -1 0 0
691 63 5 0.0582835 22.028750924924655 0.9586800816521659 19.928197034323315 -1 0 0
552 51 5 0.0582835 22.423081464447666 8.173923402007347 19.74314136356033 -1 0 0
688 63 4 -0.5800835 22.325526339912713 0.5167721902478971 17.288615065585297 -1 0 0
824 74 5 0.0582835 15.973757762187814 9.409412652420265 13.950641248309697 -1 0 0
817 74 1 0.1266165 15.747967543541723 8.40202582886298 13.732599468512438 -1 0 0
820 74 4 -0.5800835 15.281934850970584 5.770254385092545 13.365186550802397 -1 0 0
129 13 5 0.0798 19.657758014261983 10.29970965475057 20.01897256253739 0 0 -1
758 69 2 -0.3889835 17.09028767240088 9.610100021390775 19.498747376910504 -1 0 -1
358 35 5 0.0582835 4.245709808573745 0.14154074610913628 18.66448158472478 0 1 -1
637 59 1 0.1266165 20.327520392369006 1.4007966276429387 14.028059561761452 -1 1 0
822 74 1 0.1266165 17.133101443981406 3.711601400638895 14.076523024939785 -1 0 0
798 72 1 0.1266165 16.28013226699072 0.5619361128576527 20.92499409939348 0 1 0
827 74 5 0.0582835 17.825035483928 3.167117020129134 14.76330194565982 -1 0 0
978 92 6 1 21.628827750790016 2.415611181304188 17.168511655361634 0 1 0
251 26 1 0.0955 2.1260746011500955 2.6822677742599246 12.242276383657813 0 1 0
218 22 5 0.0798 14.062514537673556 11.262351926070343 18.467025883459364 0 0 0
523 49 5 0.0582835 13.308029351582684 0.0790951459739851 22.054368129286168 0 0 0
517 49 1 0.1266165 12.251715493374853 -0.015022071989751685 22.02582080296737 0 0 0
258 26 5 0.0798 2.5494127091507375 3.087479120437568 11.326739003393183 0 1 0
1008 99 7 -0.5 3.8714485074439438 10.592651077220196 11.359624112089845 0 0 0
617 57 2 -0.3889835 4.625247167601175 17.457511370844745 2.6227292580531034 0 0 0
657 60 5 0.0582835 1.952209108396199 17.658576077126362 8.65375162224455 1 0 0
614 57 2 -0.3889835 3.569225249210305 19.206664562183008 3.917296536433544 0 0 0
615 57 3 0.7551165 3.970683437833697 17.86813403298819 3.7948163467015483 0 0 0
664 61 4 -0.5800835 3.5104208006560653 13.818854399202857 4.76630094299151 0 0 0
616 57 4 -0.5800835 3.7050896112615033 17.081502402582377 4.713970465338478 0 0 0
618 57 1 0.1266165 5.005742241038026 16.026776837819725 2.5228984131263545 0 0 0
624 57 5 0.0582835 5.817641180726296 15.754273777416659 3.2791189022542535 0 0 0
613 57 1 0.1266165 2.8785954075688776 19.664467744367872 5.073105920677714 0 0 0
43 5 2 -0.4048 2.3381137746956258 17.501364775864644 1.074013046913229 1 -1 0
621 57 5 0.0582835 1.8696465775264526 19.249427501935067 5.081405488874135 0 0 0
619 57 5 0.0582835 3.2513802987870983 19.35289269430001 6.056810131776231 0 0 0
622 57 5 0.0582835 4.147997284262295 15.330336483906422 2.6649513808748564 0 0 0
314 32 2 -0.3889835 5.741484238794684 20.674856824955267 5.875642340079057 1 0 0
620 57 5 0.0582835 2.7680793848384084 20.696498563404162 5.08123231491594 0 0 0
319 32 5 0.0582835 5.494263716891302 19.082856069724013 7.0514846039959265 1 0 0
623 57 5 0.0582835 5.39872971845848 15.746298450822522 1.5078251560294305 0 0 0
106 11 2 -0.4048 3.312393892043412 20.338991917677 8.79523006021249 0 -1 0
649 60 1 0.1266165 1.662768312631632 17.795276742708147 7.645733505024026 1 0 0
655 60 5 0.0582835 2.394515584275613 17.401921069713303 7.011134663903397 1 0 0
656 60 5 0.0582835 1.5876221597358933 18.8537747459675 7.465307066073242 1 0 0
49 5 5 0.0798 3.977843263414836 18.86782174694971 0.7353071359944289 1 -1 0
884 79 5 0.0582835 0.29210059086113016 18.9363849415326 2.6954168560431264 1 -1 1
103 11 2 -0.4048 2.4538319138742803 22.215386667141065 9.801061250366304 0 -1 0
104 11 3 0.8478 2.737982984435104 21.565959095397965 8.566255067132776 0 -1 0
89 9 5 0.0798 18.4676706721213 18.80162424471955 0.45391871606318035 -1 -1 0
492 46 5 0.0582835 1.6296371560342884 12.904229939276497 10.357190179526285 1 0 0
101 11 1 0.0955 3.437125036134205 20.11928578922263 10.18416994618419 0 -1 0
569 53 2 -0.3889835 6.798369400788979 13.194681180960233 2.5099528867217407 0 0 1
108 11 5 0.0798 4.484198648608054 20.13766682255677 10.424866342908807 0 -1 0
663 61 3 0.7551165 4.4361451264181975 12.98805618215062 4.999703497207048 0 0 0
975 89 6 1 0.22753944095543652 13.906424136698432 0.587980904677388 1 0 0
204 21 3 0.8478 12.9699845665988 11.700999457371163 8.058981514324767 0 0 0
670 61 5 0.0582835 4.070442946748677 14.552959131394545 7.069492167293923 0 0 0
652 60 4 -0.5800835 1.0081547444011536 15.175617528147653 8.007175665797044 1 0 0
719 65 5 0.0582835 1.6270145064146313 12.61353742312347 7.289540605342473 0 0 0
672 61 5 0.0582835 5.44269659339784 15.356655452953598 6.340693589596504 0 0 0
650 60 2 -0.3889835 0.3519947850163833 17.271258484429794 7.436604801956894 1 0 0
651 60 3 0.7551165 0.15051528105745257 15.957247119266894 7.654093828995484 1 0 0
105 11 4 -0.5484 2.5534800871339454 21.959918558432463 7.463615986349416 0 -1 0
343 34 5 0.0582835 0.7328136949158272 15.502549161430093 3.3899528976697195 0 0 0
666 61 1 0.1266165 5.12848442296598 14.395376312010736 6.837657127199262 0 0 0
671 61 5 0.0582835 5.699907452476564 14.344989954930337 7.7387115347195445 0 0 0
665 61 2 -0.3889835 5.33209874061913 13.1854274956698 6.057195963539647 0 0 0
667 61 5 0.0582835 3.676465097592786 12.594643362495068 2.5905732625173825 0 0 0
501 47 5 0.0582835 6.33389360883706 15.748367873242751 10.163454749132875 0 0 0
493 47 1 0.1266165 6.592404981302677 16.719519210150416 9.793726436631456 0 0 0
409 40 1 0.1266165 15.946963852098628 11.7686095676836 0.6109006594757646 -1 0 0
500 47 5 0.0582835 5.649877845588891 17.04201656105291 9.240014175855626 0 0 0
102 11 1 0.0955 2.8632259256839485 21.347148194710766 10.83903006544053 0 -1 0
490 46 5 0.0582835 1.7910333251108133 14.638642450544864 10.754269532980953 1 0 0
570 53 1 0.1266165 6.8134986960526325 11.969185981405959 1.771861941350636 0 0 1
934 83 5 0.0582835 22.29417638393925 20.70614195838911 7.852503631583653 0 0 0
883 79 5 0.0582835 22.488129376606413 17.633689805451624 1.7204106651437787 0 -1 1
345 34 5 0.0582835 0.7894964620048013 13.804831771804128 3.756420079068391 0 0 0
474 45 1 0.1266165 9.201616141261521 19.80372281499822 10.52949604311882 1 0 0
145 15 4 -0.5484 0.38047263570391626 12.186214942602406 1.8650463560178214 0 0 0
337 34 1 0.1266165 0.3547926889520135 14.761684078494387 4.086073038628055 0 0 0
714 65 1 0.1266165 1.9991503394172514 11.610003870789958 7.655426447849924 0 0 0
344 34 5 0.0582835 0.7763064950524476 14.993133312284419 5.081002835771419 0 0 0
936 83 5 0.0582835 21.936722587462118 21.742384471634967 9.266378140306042 0 0 0
718 65 5 0.0582835 3.095216303604905 11.60464968282981 7.278665600897273 0 0 0
499 47 5 0.0582835 6.816519094114576 17.24772988394686 10.753486146846953 0 0 0
313 32 1 0.1266165 6.248331697662841 19.431030973230524 6.349660184136077 1 0 0
494 47 2 -0.3889835 7.788147186251706 16.72790439277328 8.947474498287482 0 0 0
316 32 4 -0.5800835 6.139335446295356 21.584304068170045 7.917129426785965 1 0 0
801 72 5 0.0582835 14.647172649308377 22.762277853995133 2.5641484686340017 0 0 1
812 73 5 0.0582835 8.480284531033002 18.931229501271574 1.5256651882950545 0 -1 0
50 5 5 0.0798 2.2852835879984017 19.279762090596176 0.18656145405509195 1 -1 0
661 61 1 0.1266165 3.701623211270549 11.665275138674952 3.1666155056397054 0 0 0
662 61 2 -0.3889835 4.600581900408418 11.801744638137691 4.1792110518301575 0 0 0
107 11 5 0.0798 3.1333230185976286 19.05901785559716 10.499410877838887 0 -1 0
930 83 1 0.1266165 21.507391883846218 20.95913533064503 8.58735281081295 0 0 0
928 83 4 -0.5800835 0.19687494191239122 19.495691679178343 9.937835466956127 1 0 0
576 53 5 0.0582835 7.788431769548103 11.694543645342142 1.2862996970811136 0 0 1
799 72 5 0.0582835 16.451195015504087 22.595096153603627 2.841200873849043 0 0 1
575 53 5 0.0582835 6.111578541068554 11.90272364318673 0.8210975700252905 0 0 1
18 2 5 0.0798 7.476252447677892 11.956015315878984 9.916493105868915 0 0 0
527 49 5 0.0582835 11.124506613059648 22.779413803529618 4.528734229401944 0 -1 1
521 49 2 -0.3889835 11.437888017503514 22.67938423915749 2.430653811411172 0 -1 1
566 53 2 -0.3889835 7.62617462040133 14.472077637386022 4.170163226580309 0 0 1
572 53 5 0.0582835 8.544843332116898 15.55849057649604 5.693730368477477 0 0 1
565 53 1 0.1266165 8.56254051355281 14.55453249519124 5.296434796616529 0 0 1
567 53 3 0.7551165 7.688487331878131 13.2646875067416 3.5493339078407367 0 0 1
132 14 1 0.0955 10.224772128398897 15.78437240265718 0.3516555017997046 0 0 1
921 82 5 0.0582835 22.248767584846618 22.659803825202538 5.348717718686677 -1 -1 0
320 32 5 0.0582835 6.410873276967222 18.790347034489102 5.484819790325558 1 0 0
479 45 5 0.0582835 9.049461709229417 19.641473497553775 9.449739727594945 1 0 0
495 47 3 0.7551165 8.870218906696337 16.12796627683486 9.497353310820904 0 0 0
496 47 4 -0.5800835 8.802253294339913 15.651168105354298 10.603803143983928 0 0 0
995 97 7 -0.5 13.254199318195406 11.705188040026359 3.032432321150416 0 0 1
315 32 3 0.7551165 5.7607729867894815 21.681390214640693 6.787725516638218 1 0 0
399 39 3 0.7551165 10.912071533208609 22.46568841083716 9.245795740889475 0 0 0
403 39 5 0.0582835 13.665484813519047 21.940828637473103 9.139926602863644 0 0 0
720 65 5 0.0582835 1.965156616472255 11.516933127381083 8.717699802128903 0 0 0
17 2 5 0.0798 9.111788067879003 12.704439054404183 10.16477523070055 0 0 0
16 2 2 -0.4048 8.72378032426695 12.259505385946158 8.24209556601164 0 0 0
573 53 5 0.0582835 8.419746937767997 13.897894443986273 6.105908279419786 0 0 1
872 78 5 0.0582835 12.68732515987097 21.245128418492467 5.184024624236589 0 0 0
321 32 5 0.0582835 7.217606547165796 19.515970108663257 6.812251132125574 1 0 0
486 46 1 0.1266165 1.9508021142666947 13.610528821762152 11.16289128791092 1 0 0
397 39 1 0.1266165 13.040861155100593 21.81819727132362 10.057707618250332 0 0 0
811 73 5 0.0582835 9.910037662592545 19.63309152656261 1.9892432876269925 0 -1 0
805 73 1 0.1266165 9.113464744892404 19.013778985025166 2.344384282275326 0 -1 0
813 73 5 0.0582835 8.549616137591773 19.473953312506488 3.151115523661786 0 -1 0
806 73 2 -0.3889835 9.549338384284981 17.693060743723553 2.7264001729031246 0 -1 0
136 14 2 -0.4048 7.867459528285823 15.479049504194355 0.557135393931186 0 0 1
137 14 5 0.0798 9.230576086027947 14.823988722673134 2.0512279783641585 0 0 1
131 14 1 0.0955 9.11489716748743 14.996319057479903 0.970621007096864 0 0 1
138 14 5 0.0798 9.042881737040034 14.01917849631528 0.49806022359402297 0 0 1
865 78 1 0.1266165 13.511569705158943 20.995239653710648 5.866822911640753 0 0 0
497 47 2 -0.3889835 9.99643412805301 16.118829957897727 8.780656743259975 0 0 0
206 21 2 -0.4048 12.506816151353972 11.868729385133081 6.774854912959316 0 0 0
502 47 5 0.0582835 10.94044273496154 14.507187766927748 9.961686598577476 0 0 0
498 47 1 0.1266165 11.176569223239799 15.461011376485727 9.484304194611807 0 0 0
866 78 2 -0.3889835 14.610571392765115 21.866296862900757 5.645886689365661 0 0 0
808 73 4 -0.5800835 10.676717599668601 18.56956771059362 4.459426915779353 0 -1 0
873 78 5 0.0582835 13.864674554721162 20.008449048051673 5.915284779440338 0 0 0
815 73 5 0.0582835 11.806273973070098 15.256794893275112 5.536756875158024 0 -1 0
810 73 1 0.1266165 11.54055725286868 16.30667205863346 5.3159487562960255 0 -1 0
571 53 5 0.0582835 9.592469170116358 14.32238318796824 4.9795308854287965 0 0 1
814 73 5 0.0582835 10.89520551967815 16.72820052252697 6.133842527934247 0 -1 0
816 73 5 0.0582835 12.459156000061537 16.9296147941008 5.2406858443224476 0 -1 0
342 34 1 0.1266165 19.10914923166723 14.173473481112762 1.91145850649544 -1 0 0
809 73 2 -0.3889835 10.71791861634942 16.303859522692143 4.156210760544304 0 -1 0
807 73 3 0.7551165 10.341792848819747 17.55185372277518 3.8386020100053724 0 -1 0
996 97 8 1 11.989633530998779 12.169998946433422 2.692606943912807 0 0 1
678 62 1 0.1266165 12.805287761737683 19.44577485892928 1.7668859839725495 0 0 0
677 62 2 -0.3889835 14.000110713296376 19.925773808353192 2.4558112872840865 0 0 0
682 62 5 0.0582835 12.044575825736773 19.151116433452675 2.393559219342216 0 0 0
999 97 7 -0.5 12.092309372749964 13.234745130595066 1.8051749687752021 0 0 1
444 42 5 0.0582835 13.152789457549313 17.719870096311283 9.446139842354544 0 0 0
40 4 5 0.0798 13.273299162461457 16.276095577774228 1.4465912753673713 -1 -1 0
503 47 5 0.0582835 12.010025757596996 15.325252550293168 8.783197592010536 0 0 0
84 9 3 0.8478 19.161108986131076 21.750786467167686 -0.14572626540455386 -1 -1 0
683 62 5 0.0582835 12.407206094539491 20.232889520232145 1.1289858253264018 0 0 0
39 4 5 0.0798 14.003280704315426 14.956778677329204 0.3944131048656293 -1 -1 0
32 4 1 0.0955 14.151752265105864 15.666324409069054 1.225319257719702 -1 -1 0
684 62 5 0.0582835 13.0273539645328 18.69788501326187 1.1679122498700691 0 0 0
708 64 5 0.0582835 17.243176779170348 11.783087154174915 8.728585751733252 0 0 1
871 78 5 0.0582835 13.123748522355617 21.28093885308647 6.816960032376626 0 0 0
438 42 1 0.1266165 14.255640453838447 17.842923168273668 9.724023572534072 0 0 0
443 42 5 0.0582835 14.371774576228132 18.865987190701457 10.132105920205618 0 0 0
568 53 4 -0.5800835 8.433483097790251 12.30788651636948 3.8434191472546937 0 0 1
563 52 5 0.0582835 19.206513531494487 18.425962675528663 8.056691713487858 0 -1 0
139 14 5 0.0798 10.873030659889157 16.27728408687134 1.1583169698111142 0 0 1
346 34 5 0.0582835 19.325287556174906 13.316538471380335 1.3164687981570924 -1 0 0
400 39 4 -0.5800835 10.936405712472757 21.57709947365692 8.41037013603881 0 0 0
998 97 7 -0.5 11.327549478640739 12.606456441814089 3.894994033901578 0 0 1
915 82 3 0.7551165 21.015603955294385 20.330965443304528 4.863998654452548 -1 -1 0
208 21 5 0.0798 13.878394493189166 12.62561482501341 5.379874848501245 0 0 0
442 42 5 0.0582835 14.457197927240808 17.117613034083337 10.484887831052806 0 0 0
504 47 5 0.0582835 11.557456096063643 16.081668946298315 10.30535354624885 0 0 0
437 42 2 -0.3889835 15.118932420772806 17.6699080681349 8.517219884582284 0 0 0
782 71 2 -0.3889835 8.344958652610574 21.393200496466093 0.7379820975809881 0 0 1
867 78 3 0.7551165 15.631492676041459 21.850510811301945 6.606594998730405 0 0 0
868 78 4 -0.5800835 15.514576299086055 21.079614938828517 7.571147605446895 0 0 0
38 4 5 0.0798 14.131771055050958 15.13139531720392 3.2998551882905613 -1 -1 0
31 4 1 0.0955 14.651425665115106 14.872364573108896 2.3730345518978724 -1 -1 0
348 34 5 0.0582835 19.35471974641596 14.92826737945014 1.2603265622664563 -1 0 0
33 4 2 -0.4048 15.191382422102482 16.46749811315624 0.8303441170689528 -1 -1 0
436 42 4 -0.5800835 14.352823053286093 15.622052734789303 8.368913339672835 0 0 0
675 62 3 0.7551165 14.605383101637733 18.985740694282256 3.266229863423835 0 0 0
676 62 4 -0.5800835 14.235697023101608 17.82558640557106 3.4436936024105957 0 0 0
957 85 5 0.0582835 15.40166098703484 12.258440468926942 11.061850104522584 0 0 0
555 52 3 0.7551165 17.484028444506826 16.5090088739987 10.263703003566627 0 -1 0
885 79 5 0.0582835 21.56915594972715 19.19956052897701 2.1657361070494585 0 -1 1
878 79 2 -0.3889835 -0.05512134877143916 19.321699358445485 0.657153081908654 1 -1 1
558 52 1 0.1266165 18.88081239938151 17.48546111435506 8.451765544731009 0 -1 0
916 82 4 -0.5800835 22.20792591959031 20.103259579065423 4.660114567704209 -1 -1 0
914 82 2 -0.3889835 20.44877754431769 21.56642189819777 4.848451944394183 -1 -1 0
933 83 5 0.0582835 0.47222714611342675 17.074455756236333 10.678693348549608 1 0 0
338 34 2 -0.3889835 21.929271984259085 14.616470446928789 4.129786985650236 -1 0 0
11 2 1 0.0955 8.543020170244814 11.97270305373085 9.58087944860386 0 0 0
340 34 4 -0.5800835 21.861324360677273 14.455999069014773 1.8898764984945338 -1 0 0
42 5 1 0.0955 3.0685027541307424 18.529508399808044 0.24945667559036178 1 -1 0
82 9 1 0.0955 18.23630777064545 19.83390346727554 0.5754252764733429 -1 -1 0
869 78 2 -0.3889835 16.693269848666418 22.692403593467596 6.406870824782269 0 0 0
90 9 5 0.0798 17.142450868859505 19.95295532497117 0.6551168470106271 -1 -1 0
924 82 5 0.0582835 21.307000248108526 17.8563113589215 4.1574011140321705 -1 -1 0
935 83 5 0.0582835 20.658450650814036 21.42995530738809 8.117020568046748 0 0 0
86 9 2 -0.4048 19.386217683791983 21.876986279827015 1.1866900516216563 -1 -1 0
210 21 5 0.0798 15.734474642474668 11.802382450269452 6.651279500158764 0 0 0
700 64 4 -0.5800835 18.73317232300793 12.418098555935543 6.638887533294445 0 0 1
478 45 5 0.0582835 9.707181394219997 19.00698866786278 11.117117144742478 1 0 0
877 79 1 0.1266165 22.539777583897617 18.750617098121484 1.8919168892012355 0 -1 1
680 62 5 0.0582835 17.304079389685878 19.27570498820087 5.201018142374615 0 0 0
658 60 5 0.0582835 21.88031908489916 13.95985534408283 8.690219258945582 0 0 0
926 83 2 -0.3889835 21.65463112966056 18.101615046624687 10.755308900399323 0 0 0
703 64 5 0.0582835 20.035907808778397 11.779504802477218 4.183602194566406 0 0 1
674 62 2 -0.3889835 15.729858228083927 19.534274016295818 3.8617396151637635 0 0 0
205 21 4 -0.5484 12.384098150234733 11.788097231747752 9.124689462977102 0 0 0
37 4 5 0.0798 14.360865836671014 13.814968194785425 2.361223253596003 -1 -1 0
408 39 5 0.0582835 8.288095963911198 22.146769074007338 8.575723086734042 0 0 0
557 52 2 -0.3889835 17.930882266410652 17.601641891907118 9.614927853982792 0 -1 0
918 82 1 0.1266165 20.733412849904163 17.95710865647435 5.080182381596286 -1 -1 0
439 42 5 0.0582835 14.700991259712467 14.758346765885106 6.071860352818117 0 0 0
88 9 5 0.0798 18.07213523643257 20.894531106699453 2.529837253620951 -1 -1 0
874 78 5 0.0582835 17.906285361617304 21.563733376677344 7.578582178626566 0 0 0
81 9 1 0.0955 18.834793528959008 20.65557103063228 1.791302794320823 -1 -1 0
34 4 3 0.8478 16.27087188841669 16.215077772824866 1.6145121121925199 -1 -1 0
564 52 5 0.0582835 19.78540171280176 16.98200849694523 8.845691664443086 0 -1 0
659 60 5 0.0582835 20.535760387413347 14.01493379976489 7.575620409287725 0 0 0
441 42 5 0.0582835 16.323492204259768 14.31017379871315 6.789149778269479 0 0 0
913 82 1 0.1266165 21.452992680672896 22.602965994409033 4.558665829882779 -1 -1 0
679 62 5 0.0582835 16.90938791992394 17.82819333255038 4.2623283199556115 0 0 0
347 34 5 0.0582835 18.07881258970559 14.091340902757956 2.087435330251399 -1 0 0
556 52 4 -0.5800835 17.839697910890873 15.36585720580827 9.950059047217433 0 -1 0
923 82 5 0.0582835 19.882930766589578 17.182086139540267 5.2325684780290285 -1 -1 0
87 9 5 0.0798 19.722305786573894 20.101482872390285 2.2335687152064447 -1 -1 0
922 82 5 0.0582835 21.448628157186295 17.76125252202069 5.853278696070856 -1 -1 0
654 60 1 0.1266165 21.636357251849986 14.139272319773513 7.600187322091904 0 0 0
673 62 1 0.1266165 16.489159585786194 18.6964460120007 4.756588792937479 0 0 0
36 4 2 -0.4048 15.998087366946317 15.26713681960852 2.5594063081379153 -1 -1 0
697 64 1 0.1266165 18.967130738922165 11.58896059254557 4.114812205257864 0 0 1
417 40 5 0.0582835 14.8459821420152 11.62142040400547 0.5971965771808713 -1 0 0
35 4 4 -0.5484 17.374917261789523 16.735277435828458 1.5251800826803315 -1 -1 0
705 64 5 0.0582835 18.227007834612895 12.416058664634825 4.111060665690068 0 0 1
929 83 2 -0.3889835 21.0810277064606 19.7783839239965 9.397553400028944 0 0 0
433 42 1 0.1266165 15.795311083501455 15.067408978505181 6.203473918302792 0 0 0
660 60 5 0.0582835 22.06372648926829 13.510595717258921 6.839682450699253 0 0 0
435 42 3 0.7551165 15.077493003217992 16.482134179585547 7.90469374767959 0 0 0
681 62 5 0.0582835 15.946510193871942 18.410231718247974 5.641365548816853 0 0 0
440 42 5 0.0582835 16.28691825321608 15.051679819967083 5.217515756296441 0 0 0
927 83 3 0.7551165 22.033983041104428 19.14490924970424 10.020983096816511 0 0 0
339 34 3 0.7551165 21.258952766837023 14.466857862575456 2.9634772569199974 -1 0 0
653 60 2 -0.3889835 21.911279147389376 15.58716060621986 7.4154082758692805 0 0 0
917 82 2 -0.3889835 20.147054086128314 19.26117241770289 5.091026705699029 -1 -1 0
341 34 2 -0.3889835 19.884502898302483 14.31584641676538 3.104057619070026 -1 0 0
562 52 5 0.0582835 18.50955554686355 16.91479732489808 7.607746426171205 0 -1 0
434 42 2 -0.3889835 15.86136586467612 16.389446236919657 6.8158558492524035 0 0 0
796 72 4 -0.5800835 15.89172518426065 22.36699332826833 0.12430333393093328 0 0 1
410 40 2 -0.3889835 16.267849970158178 13.080733099098572 0.15855642975836579 -1 0 0
518 49 2 -0.3889835 11.747136202976584 22.56259988546791 0.25314682978869624 0 -1 1
416 40 5 0.0582835 16.201721675928326 11.670237955542808 1.6787455253156196 -1 0 0
45 5 4 -0.5484 1.4552453794596132 15.385514983392786 0.4887362642719519 1 -1 0
919 82 5 0.0582835 22.04260221710311 22.35291558894537 3.641558764597197 -1 -1 0
201 21 1 0.0955 13.620527926200731 11.650423063587176 5.8760132053365455 0 0 0
480 45 5 0.0582835 9.77301748509145 20.69452849173314 10.725754067402425 1 0 0
404 39 5 0.0582835 13.853766921329104 22.113198668989973 10.75745652279629 0 0 0
405 39 5 0.0582835 12.777115514416531 20.714481399533557 10.07073875616859 0 0 0
44 5 3 0.8478 2.034082834098218 16.406217343654237 0.24788720989740504 1 -1 0
473 45 2 -0.3889835 7.788799616959476 19.978116336051713 10.946184526706228 1 0 0
905 81 2 -0.3889835 1.125070655262851 22.569879733803205 0.8177164256737507 1 -1 0
398 39 2 -0.3889835 11.920377438844438 22.684773499706306 10.162312805001417 0 0 0
783 71 3 0.7551165 7.976706544095642 22.55327780752129 1.4802966207080646 0 0 1
870 78 1 0.1266165 17.63614448229893 22.600820968373284 7.420925209224558 0 0 0
669 61 5 0.0582835 2.6945958416457487 11.510752922107738 3.575536109533678 0 0 0
908 81 5 0.0582835 4.346692834755603 22.757807913627442 3.7856191973185638 1 -1 0
902 81 2 -0.3889835 2.868081379519631 22.599266937691258 2.363320698057348 1 -1 0
785 71 2 -0.3889835 8.392171805879173 22.629528148591966 2.720269894531476 0 0 1
203 21 2 -0.4048 14.299050585508141 11.398865253361931 8.110961422982259 0 0 0
907 81 5 0.0582835 2.7977115855896315 22.70145627988104 4.4447263192753494 1 -1 0
140 14 5 0.0798 10.858515053837674 15.017187802601585 -0.1703236368212906 0 0 1
554 52 2 -0.3889835 16.62269596769327 16.67851683881392 11.273078954458413 0 -1 0
491 46 5 0.0582835 3.079499310909115 13.538812779899702 11.196587307112816 1 0 0
303 31 3 0.7551165 4.223100301431372 17.101786828510544 17.899567570360986 0 0 0
469 45 1 0.1266165 6.044605053280658 20.584937681511853 14.06483120352997 1 0 0
302 31 2 -0.3889835 3.23003513476088 17.760228556640765 18.565178051914014 0 0 0
309 31 5 0.0582835 2.907359549892339 19.35554102252233 17.22139832522511 0 0 0
308 31 5 0.0582835 1.5750776089624987 19.099892709600628 18.343641073979434 0 0 0
301 31 1 0.1266165 2.331369978190252 18.60171842883351 17.71813450902088 0 0 0
305 31 2 -0.3889835 5.095445268870556 16.293054067909452 18.59168363198985 0 0 0
304 31 4 -0.5800835 4.419239044694684 17.173119637851894 16.704440167827244 0 0 0
360 35 5 0.0582835 2.8852775199295557 21.948260899560424 18.831913743075695 0 0 -1
354 35 1 0.1266165 3.7048494388203426 22.315497221226885 18.22590830600044 0 0 -1
880 79 4 -0.5800835 21.14646522928378 18.387811974943162 22.667212529725145 0 -1 0
312 31 5 0.0582835 5.73935234773443 14.822696816721464 17.278169846007255 0 0 0
353 35 2 -0.3889835 4.772252484106333 21.36405933429662 17.900260048775667 0 0 -1
352 35 4 -0.5800835 4.878738468941851 20.666001099411254 20.093136598371547 0 0 -1
306 31 1 0.1266165 6.162779061228899 15.595367405034198 17.892377546317523 0 0 0
351 35 3 0.7551165 5.285465008912162 20.598384282807917 18.91836469844478 0 0 -1
350 35 2 -0.3889835 6.2641039541284815 19.754375646104457 18.51450781570151 0 0 -1
311 31 5 0.0582835 6.646087997919528 14.97758070780565 18.65737535639137 0 0 0
310 31 5 0.0582835 6.860180067450481 16.18542425998148 17.33836850475059 0 0 0
355 35 5 0.0582835 6.097752662749438 18.240772870020557 19.8918028264731 0 0 -1
477 45 5 0.0582835 6.338897397502082 19.76584955641818 14.668385611020378 1 0 0
279 28 5 0.0798 2.242759302628528 15.007739366178843 17.65262636613034 0 0 0
186 19 2 -0.4048 3.0080150260723006 15.9889513971396 13.23530617264908 0 0 0
307 31 5 0.0582835 1.8382989845050002 18.00290426690722 16.97780272485325 0 0 0
184 19 3 0.8478 3.639493812335313 16.996147643744557 12.650921370079951 0 0 0
183 19 2 -0.4048 3.289787641720981 18.24472764303448 13.110683123747963 0 0 0
349 35 1 0.1266165 6.8373279595586105 18.931531417669913 19.51803435571211 0 0 -1
476 45 5 0.0582835 4.933735720518343 20.785970458739893 14.263299466752358 1 0 0
171 18 1 0.0955 4.913658898349214 14.161605561620592 21.577692994866258 0 0 0
181 19 1 0.0955 2.09808610985966 16.522859075971677 14.230730698854998 0 0 0
179 18 5 0.0798 4.749782882381931 13.889389862403243 19.329890741712497 0 0 0
172 18 1 0.0955 4.573092110839081 13.453370033759546 20.329733504194742 0 0 0
182 19 1 0.0955 2.2933597848677105 18.038960073949365 14.16009011762556 0 0 0
277 28 5 0.0798 0.8987437724929163 15.947557155529596 19.42748755082765 0 0 0
271 28 1 0.0955 0.7026056804266085 14.868330898179273 19.330356932792796 0 0 0
272 28 1 0.0955 1.3336174244967036 14.43411558932398 18.008112424723397 0 0 0
278 28 5 0.0798 1.0833010762308266 14.396417710592512 20.2016943079429 0 0 0
471 45 3 0.7551165 7.609905339621664 20.203005071181813 12.289490788659872 1 0 0
475 45 5 0.0582835 6.593825987535443 21.442941802620528 14.431371069609298 1 0 0
190 19 5 0.0798 2.862356163562203 18.303082988701124 15.05607605336137 0 0 0
189 19 5 0.0798 1.306534854856171 18.562371695204213 14.180217863568172 0 0 0
185 19 4 -0.5484 4.496381276222729 16.86117525642311 11.765355688561284 0 0 0
879 79 3 0.7551165 22.142632829068088 19.063018180621736 22.609994478062635 0 -1 0
900 80 5 0.0582835 5.773275895987167 14.415809204040972 14.111563615704783 0 0 0
894 80 1 0.1266165 6.406136581637945 13.737725055577945 13.390409278029383 0 0 0
289 29 5 0.0798 3.6620578457842603 11.796487178127533 14.052080660392614 0 0 0
188 19 5 0.0798 2.0473892142831622 16.02748702802329 15.206515544234081 0 0 0
280 28 5 0.0798 1.708686429532579 13.437807951706127 18.21659645355262 0 0 0
283 29 2 -0.4048 4.10653508131984 12.173594305707741 16.042270833613976 0 0 0
173 18 2 -0.4048 3.344359690991617 12.796020511108894 20.575799930645342 0 0 0
788 71 5 0.0582835 8.19948333806802 20.475597967649296 21.940620190128264 0 0 0
899 80 5 0.0582835 5.777040363074723 13.256221736975089 12.626831906333244 0 0 0
470 45 2 -0.3889835 6.295805003914636 20.355069642666443 12.631288672367901 1 0 0
46 5 2 -0.4048 2.484670923295238 16.58749354038484 21.991281955362638 1 -1 -1
177 18 5 0.0798 4.797414628704921 15.261588347368074 21.37621446482751 0 0 0
925 83 1 0.1266165 22.749004962845955 17.453434061030702 11.45835958289888 0 0 0
187 19 5 0.0798 1.0635194115846796 16.36354571454619 13.966565931077634 0 0 0
47 5 5 0.0798 4.209155755072626 17.58909187973967 21.76319047543233 1 -1 -1
180 18 5 0.0798 5.120515315402265 12.542150318001834 20.37725391747731 0 0 0
893 80 2 -0.3889835 7.127235728856104 12.713912288004764 14.071764765740376 0 0 0
898 80 5 0.0582835 7.137850004153198 14.437461230039323 12.8774612295548 0 0 0
485 46 2 -0.3889835 1.3563443598591631 13.450775515131994 12.432501757643422 1 0 0
284 29 3 0.8478 5.246121067262182 11.562357528052486 16.573124726261046 0 0 0
41 5 1 0.0955 3.1690145222503654 17.90300079969981 21.87177336607199 1 -1 -1
48 5 5 0.0798 2.9467663540789797 18.481729451356077 20.962542815234695 1 -1 -1
285 29 4 -0.5484 5.813256965842079 12.135880347254666 17.522945818604207 0 0 0
276 28 2 -0.4048 22.3274206243958 14.766850060721655 19.190983924815683 -1 0 0
687 63 3 0.7551165 0.03473824719193525 22.65908047453564 17.775199402239153 0 -1 0
781 71 1 0.1266165 7.854751539669011 21.396547572548883 22.397690875641526 0 0 0
175 18 4 -0.5484 1.9106168548647786 12.65459837987352 22.489107074381167 0 0 0
359 35 5 0.0582835 3.227742450185711 22.756761247577877 17.29838544912296 0 0 -1
789 71 5 0.0582835 6.770572545206179 21.370508366909274 22.22887471020426 0 0 0
896 80 5 0.0582835 9.942628637358522 11.784963195117196 17.371052514680716 0 0 0
178 18 5 0.0798 5.898112859388069 13.889311759800357 21.943782360507736 0 0 0
483 46 3 0.7551165 -0.036700624060808124 13.638021735286713 12.473749723693944 1 0 0
273 28 2 -0.4048 0.21617809192110854 14.159542721286078 17.16249543845698 0 0 0
429 41 5 0.0582835 16.457353624156056 22.342317322639367 11.93411619035523 -1 -1 -1
211 22 1 0.0955 13.519397136354486 11.599523064378282 17.621320554895327 0 0 0
28 3 5 0.0798 4.123689349102984 22.4988512725372 22.220470072559813 0 0 0
357 35 5 0.0582835 7.2634149103412975 19.543565845481826 20.32223858205419 0 0 -1
472 45 4 -0.5800835 8.560083720801952 20.236459404251356 13.051102870545764 1 0 0
130 13 5 0.0798 20.33223310727245 11.476681679100627 18.979415098629925 0 0 -1
932 83 5 0.0582835 22.36206108351586 16.531528449784783 11.951213426448062 0 0 0
116 12 2 -0.4048 18.72931411239357 22.684920262982306 16.392270986118476 0 -1 0
356 35 5 0.0582835 7.647623208691658 18.28065376986278 19.07452177196035 0 0 -1
412 40 4 -0.5800835 15.583337895492194 12.357821032479274 21.175557270726674 -1 0 -1
891 80 3 0.7551165 7.934569077545658 13.116371137147889 15.098730708898447 0 0 0
890 80 2 -0.3889835 8.603568283803419 12.114254448463713 15.77312661487337 0 0 0
524 49 5 0.0582835 12.042778567849874 22.323358745841396 21.135379963759405 0 -1 0
561 52 5 0.0582835 15.535230943713545 14.877689500860452 11.320367905994075 0 -1 0
161 17 1 0.0955 14.682410923733466 19.652171555571115 21.51675875029026 0 0 0
958 85 5 0.0582835 11.433431946805682 14.746311440041072 12.519856428163118 0 0 0
134 14 3 0.8478 8.163058357319372 16.43341823237627 22.705814198426946 0 0 0
959 85 5 0.0582835 10.02471319477732 13.726295910062094 13.017593641305725 0 0 0
295 30 4 -0.5484 8.59995304246652 13.340563089524968 20.96377958189655 0 0 -1
296 30 2 -0.4048 10.089367152628606 11.74641420195495 19.952553579752163 0 0 -1
954 85 1 0.1266165 11.087825290730176 13.852980658019721 13.04970008226439 0 0 0
895 80 5 0.0582835 8.81478195384655 13.123978563158277 17.558287767595218 0 0 0
892 80 4 -0.5800835 8.050626152336884 14.314633945140123 15.417233808835874 0 0 0
863 77 5 0.0582835 8.875795475751486 16.6900487542994 13.518843905156888 0 0 0
217 22 5 0.0798 13.303680347386038 12.609975618560346 17.87377878289785 0 0 0
897 80 5 0.0582835 10.200308429600753 13.244214454720876 16.387567106508502 0 0 0
293 30 2 -0.4048 9.979553739849068 11.977065668128322 22.191795582334308 0 0 -1
755 68 5 0.0582835 9.695864379457884 15.340134096039304 19.31101239536808 0 0 0
534 50 1 0.1266165 9.083705465123263 21.254526585903985 16.22319126628893 0 0 0
991 96 8 1 13.544040555261672 20.621074259754753 17.545228807420283 0 0 0
540 50 5 0.0582835 8.61823720531839 20.413058308820926 15.875608827816631 0 0 0
756 68 5 0.0582835 10.811663233074224 16.676192352441713 19.365969832154818 0 0 0
750 68 1 0.1266165 10.270514458945577 16.037896671714584 18.695335878899133 0 0 0
536 50 5 0.0582835 10.851439902400582 19.805293615036152 21.43507718116528 0 0 0
530 50 2 -0.3889835 10.120263075124873 20.46562873778732 19.612803335758617 0 0 0
533 50 2 -0.3889835 9.307628807570246 21.323940757402305 17.596170427875414 0 0 0
537 50 5 0.0582835 10.270952406920054 18.425899378866756 20.35838976111805 0 0 0
529 50 1 0.1266165 10.735512003926571 19.428012199882705 20.398721893528382 0 0 0
535 50 5 0.0582835 11.746926084068335 19.264715929740074 20.06053340328007 0 0 0
531 50 3 0.7551165 9.919925560171833 20.281321811959124 18.258723300502584 0 0 0
749 68 2 -0.3889835 11.26242453696291 15.252684319748422 17.942837303950107 0 0 0
754 68 5 0.0582835 9.664507273708463 16.635006517481877 18.04267727775408 0 0 0
532 50 4 -0.5800835 10.263772207043537 19.229935138375698 17.68556598806848 0 0 0
856 77 4 -0.5800835 11.946099263867541 18.541401584110794 14.657879155944624 0 0 0
748 68 4 -0.5800835 12.164223414224672 17.056995971903063 16.97215050695474 0 0 0
747 68 3 0.7551165 12.13083671035695 15.853346159081383 17.12614248797907 0 0 0
979 93 6 1 11.943156193247479 18.96746771284517 16.674917539739834 0 0 0
165 17 4 -0.5484 13.061028606483113 16.882386389176986 20.43790627851674 0 0 0
164 17 3 0.8478 13.848776073576198 17.803721302071377 20.60259627291119 0 0 0
746 68 2 -0.3889835 12.940250109241857 15.023336983163487 16.523552022686754 0 0 0
745 68 1 0.1266165 13.932612994839419 15.639444406212883 15.626351225866236 0 0 0
751 68 5 0.0582835 14.439618081091885 16.41024571436716 16.135533026731355 0 0 0
857 77 2 -0.3889835 10.868475587955459 17.300248166560717 13.043113626371074 0 0 0
855 77 3 0.7551165 11.924948168987163 18.05186964441743 13.515998095254615 0 0 0
858 77 1 0.1266165 9.761657195639804 17.110729161795295 13.98428926776687 0 0 0
864 77 5 0.0582835 9.999959191408914 16.479246583444308 14.87930777543767 0 0 0
862 77 5 0.0582835 9.488758539663504 18.11390797957916 14.407696169990059 0 0 0
294 30 3 0.8478 9.482914566388844 12.431215474235199 20.999432906701095 0 0 -1
539 50 5 0.0582835 10.062158474875812 21.372150554559965 15.733550322421184 0 0 0
994 96 7 -0.5 13.51521015072099 19.29917635300864 17.969547835011813 0 0 0
951 85 3 0.7551165 13.018805035262963 12.63811556062859 12.355088536942409 0 0 0
952 85 4 -0.5800835 13.768889702652181 13.518925180684963 12.78742444023404 0 0 0
993 96 7 -0.5 12.756438205544782 20.662538635621814 16.432566502700656 0 0 0
992 96 7 -0.5 13.129526613586922 21.43677272812438 18.58843232943295 0 0 0
753 68 5 0.0582835 13.453878988277173 16.14109451561141 14.782558521536808 0 0 0
854 77 2 -0.3889835 12.97303611123681 18.198714046558955 12.627757766006035 0 0 0
859 77 5 0.0582835 14.712911935797647 18.44171957750896 13.945892111179905 0 0 0
861 77 5 0.0582835 13.843710409926546 19.87682743893493 13.561912354042041 0 0 0
853 77 1 0.1266165 14.199289573868809 19.011173465701493 13.147943958710913 0 0 0
889 80 1 0.1266165 9.441614720597508 12.594385056186493 16.84074553830899 0 0 0
166 17 2 -0.4048 13.58997193733174 18.69877954862349 21.56527519975301 0 0 0
953 85 2 -0.3889835 11.6554645369413 12.66405921385227 12.410235141744396 0 0 0
960 85 5 0.0582835 11.40109376021991 13.925629447845218 14.033221744902045 0 0 0
860 77 5 0.0582835 14.973199417405457 19.143944773285952 12.424237886172296 0 0 0
752 68 5 0.0582835 14.618685394303073 14.856858732846531 15.232568975392123 0 0 0
167 17 5 0.0798 14.14675319011473 20.5479104997777 21.141828272704377 0 0 0
163 17 2 -0.4048 14.982393870184746 18.03475511775708 19.89374738853928 0 0 0
133 14 2 -0.4048 9.494073522490098 16.66650970031389 22.529595770166534 0 0 0
538 50 5 0.0582835 8.547238137156121 22.125928350005513 15.8342176449592 0 0 0
949 85 1 0.1266165 15.026113076753816 11.432351341604885 11.675789139492007 0 0 0
418 40 5 0.0582835 14.959760466384976 14.372975314285805 19.566493349883583 -1 0 -1
219 22 5 0.0798 14.215699041030541 12.43298222652645 15.95031079837701 0 0 0
430 41 5 0.0582835 19.03673941125135 18.16481100522916 12.838724915302018 -1 -1 -1
85 9 4 -0.5484 19.534457309102066 22.61495628731267 22.063807267195134 -1 -1 -1
950 85 2 -0.3889835 13.585107717754997 11.520362633684764 11.771384096190133 0 0 0
212 22 1 0.0955 14.373917493291193 11.495178081348245 16.425924263573368 0 0 0
174 18 3 0.8478 2.9286761680679714 13.047206430946709 21.86715128018001 0 0 0
135 14 4 -0.5484 7.250260253951024 17.058292707999318 22.13565318189453 0 0 0
255 26 4 -0.5484 2.0359858443266203 22.628471716076444 13.909803012763042 0 0 0
787 71 5 0.0582835 8.24949761889193 22.26143018115583 21.87701918992001 0 0 0
694 63 5 0.0582835 0.20839926141354517 20.575830114602592 15.322514292120431 0 -1 0
220 22 5 0.0798 15.516302537087943 11.516074283800975 16.56923033603932 0 0 0
804 72 5 0.0582835 17.089642007471152 22.733017179393475 21.02225699577875 0 0 0
689 63 2 -0.3889835 0.36611387488477903 21.553019760496298 17.07279894907471 0 -1 0
117 12 5 0.0798 17.189320035122037 21.143230100115677 16.62793208378594 0 -1 0
736 67 4 -0.5800835 18.264411862674944 16.119340870660974 18.30309750074268 0 0 -1
553 52 1 0.1266165 16.117671790230254 15.534307936283946 11.996813378362956 0 -1 0
125 13 4 -0.5484 21.86216244434619 13.319632943562102 22.30000978645305 0 0 -1
176 18 2 -0.4048 3.8628814038064054 13.865250534835294 22.494684496625773 0 0 0
990 96 7 -0.5 14.828153012692862 20.943012752315784 17.217535660944176 0 0 0
432 41 5 0.0582835 19.337464253194927 18.859280076396868 14.47613067461135 -1 -1 -1
426 41 1 0.1266165 19.67031135998974 18.805035252748333 13.419849557113857 -1 -1 -1
162 17 1 0.0955 15.562739509335985 19.150167537017744 20.404910259567064 0 0 0
931 83 5 0.0582835 0.19577068225290475 18.1869925106488 12.127820970083574 1 0 0
169 17 5 0.0798 15.979049732170726 19.90954116035836 19.71453653130434 0 0 0
983 94 7 -0.5 22.18045779381742 17.8734804732399 15.56445530543577 0 0 0
881 79 2 -0.3889835 22.603777588515307 19.64904718753196 21.45500869016938 0 -1 0
127 13 5 0.0798 18.53653103182863 11.922705769225585 21.210143813512964 0 0 -1
887 79 5 0.0582835 22.402390143128635 19.867804763284738 19.433584352788216 0 -1 0
482 46 2 -0.3889835 22.386002974326924 13.52342629020954 13.739808910533323 0 0 0
274 28 3 0.8478 22.049626666742807 14.350360223464852 17.90848318197941 -1 0 0
275 28 4 -0.5484 20.96728939442661 14.205061080717773 17.441017386754844 -1 0 0
560 52 5 0.0582835 15.372487073956883 15.92099185052785 12.70547613848342 0 -1 0
489 46 5 0.0582835 20.54611757250488 14.663901153856647 13.311966331015624 0 0 0
1013 100 7 -0.5 16.602869489625014 13.882699956059255 16.490625151440874 0 0 0
737 67 2 -0.3889835 17.71996434394806 18.267864253529787 18.197690175071564 0 0 -1
413 40 2 -0.3889835 16.28122236105191 14.521768070963988 21.29962181484501 -1 0 -1
411 40 3 0.7551165 16.010199033193025 13.266226044152505 21.81861554708464 -1 0 -1
487 46 5 0.0582835 20.33033617719167 12.972004030673146 13.183878315546307 0 0 0
742 67 5 0.0582835 16.572269665200533 17.349810006177474 16.816326086426102 0 0 -1
121 13 1 0.0955 19.15764344635961 12.372675986138015 20.467525253220348 0 0 -1
124 13 3 0.8478 21.107292496418776 12.740526468776046 21.530409805479053 0 0 -1
984 94 7 -0.5 20.360095969234866 16.710640108298254 16.145686487761324 0 0 0
695 63 5 0.0582835 21.740384350285986 21.377386082038626 15.748646067169098 -1 -1 0
734 67 2 -0.3889835 18.53192034444929 17.50091688362501 20.19134738540346 0 0 -1
419 40 5 0.0582835 16.245650522192477 15.686856867623643 19.46963111461128 -1 0 -1
414 40 1 0.1266165 16.011142239478797 14.627415591936384 19.865154963084706 -1 0 -1
118 12 5 0.0798 18.86110896022167 20.68921369671065 16.405976151191815 0 -1 0
733 67 1 0.1266165 18.97934595107761 16.410485006358112 20.86956657858859 0 0 -1
738 67 1 0.1266165 17.312723317247396 18.079537892249643 16.784470459417797 0 0 -1
882 79 1 0.1266165 21.82966121949605 19.442298019946293 20.248115049125378 0 -1 0
113 12 2 -0.4048 19.16598625094471 22.743046025101304 18.59661088400075 0 -1 0
484 46 4 -0.5800835 22.341872052061678 13.909012436210846 11.44119765427413 0 0 0
740 67 5 0.0582835 19.078531951264083 16.66697373794431 21.90786266735193 0 0 -1
981 94 8 1 21.242212183253358 17.724219130123586 16.572852725511805 0 0 0
425 41 2 -0.3889835 19.638218629130886 20.17055209281082 12.890611121981642 -1 -1 -1
422 41 2 -0.3889835 18.515246157719886 22.08943522673788 12.460742367054857 -1 -1 -1
123 13 2 -0.4048 21.346501505931723 11.640109357409584 20.746026640400434 0 0 -1
696 63 5 0.0582835 0.14101255655918202 22.368726177622268 15.272786536685524 0 -1 0
690 63 1 0.1266165 -0.15777039565608622 21.462882187925924 15.75464703952773 0 -1 0
128 13 5 0.0798 18.41527257312905 12.76998856443304 19.82960232582506 0 0 -1
982 94 7 -0.5 20.648589983209924 18.970572356944654 16.843801415221122 0 0 0
420 40 5 0.0582835 16.588257106264052 13.79885887167372 19.368861537989496 -1 0 -1
1014 100 7 -0.5 18.13952151875471 15.135341608565955 15.375219756449491 0 0 0
112 12 1 0.0955 18.50000844192183 21.529469096461245 18.303696248462007 0 -1 0
488 46 5 0.0582835 20.5722391852388 13.73692934128497 14.76474327900222 0 0 0
886 79 5 0.0582835 20.820811305975308 19.90525688174568 20.29397193183165 0 -1 0
739 67 5 0.0582835 20.052072129439228 16.200687781149295 20.651978325055953 0 0 -1
888 79 5 0.0582835 21.725791236748396 18.44934685700246 20.00445196955717 0 -1 0
120 12 5 0.0798 18.898652652507334 20.581626296072393 18.728425898187105 0 -1 0
1012 100 7 -0.5 17.44180786924999 13.200491673956513 14.47974268621178 0 0 0
111 12 1 0.0955 18.206717619198518 21.459105544730768 16.853683918250418 0 -1 0
976 90 6 1 19.35207341270006 15.161803756797116 16.931681345446993 -1 0 0
119 12 5 0.0798 17.51634461436377 21.56786087996738 18.847976927915568 0 -1 0
735 67 3 0.7551165 18.181411804403105 17.21945123433679 18.868947143344545 0 0 -1
481 46 1 0.1266165 20.89207421592323 13.74412414253733 13.731411584534461 0 0 0
741 67 5 0.0582835 18.352007938393104 15.497529739067131 20.676643606925374 0 0 -1
431 41 5 0.0582835 20.653616222483727 18.325089523255592 13.255534055505008 -1 -1 -1
126 13 2 -0.4048 19.822082756518935 13.178954533825117 21.35470515546409 0 0 -1
424 41 4 -0.5800835 17.3929426596156 20.327073733522223 13.343160436427343 -1 -1 -1
83 9 2 -0.4048 18.532519850472934 20.626857443924745 22.473210681917926 -1 -1 -1
744 67 5 0.0582835 18.113102379025946 17.697714720864347 16.279397998909374 0 0 -1
743 67 5 0.0582835 16.905777264348526 18.985309395415516 16.33706435472964 0 0 -1
980 94 7 -0.5 21.905308412845603 17.264998079186487 17.6548640177378 0 0 0
423 41 3 0.7551165 18.454353770859488 20.850608554050357 12.907643658083387 -1 -1 -1
559 52 5 0.0582835 16.932045853948374 14.972902166843795 12.460132161566333 0 -1 0
170 17 5 0.0798 16.396486026624753 18.669330142414218 20.90732832478669 0 0 0
1011 100 8 1 17.650736393035974 13.888492152882659 15.654130851367926 0 0 0
1010 100 7 -0.5 18.66857899760955 13.307799556307744 16.395013259309312 0 0 0
686 63 2 -0.3889835 0.5334305183396179 22.689976730175662 18.989094911676556 0 -1 0
110 11 5 0.0798 3.3715645857645398 21.799078173452916 11.626873673848637 0 -1 0
911 81 5 0.0582835 22.32165801765746 22.445293642464318 22.73204060476294 0 -1 -1
168 17 5 0.0798 15.12116850656699 19.911936495997573 22.463812670927158 0 0 0
955 85 5 0.0582835 15.417351190540254 11.520702564659688 12.674033062315678 0 0 0
109 11 5 0.0798 1.9418971822332716 21.13109721148497 11.326137802520881 0 -1 0

Velocities

986 0.007634295105868409 -0.0014961323003273592 -0.005658013426815223
988 -0.0030104270774120455 -0.003038020508577388 -0.0009080896418258944
973 0.0052661587781177655 0.014621255429402735 0.002290656265564155
985 0.004571825452134956 -0.005241227971751796 0.0009999629712837002
989 0.00025471625469015264 -0.0009110878038546228 0.0005557135037903385
987 0.0031712000512025213 0.0008601355162491728 0.004245023348557869
1006 -0.004189662496910027 0.0010260309553138025 -0.006544582041276333
903 -0.0017775382783390662 0.001095092911788827 -0.006281286139439812
712 0.005409041175867552 -0.01051270189725809 0.003672516673021608
717 0.005085387822952178 0.008875440994277745 -0.013469871034829698
904 0.00029371792342708516 -0.00011963757990653313 -0.007352709685853178
369 0.019672874803020293 0.005540617690256129 -0.0019234014609543922
711 -0.003400279693158367 0.002791668294779744 -0.000594069291222609
709 -0.007201915088501394 -0.003839098890385648 0.002045751788132045
716 0.0034471180986376535 -0.012415657818037428 -0.013442839847072086
710 -0.004841920996651056 0.0001402712652781813 0.0013938705765244033
715 -0.02768430011965844 0.015538557731474294 0.004697427688310965
940 -0.0021422915871886477 0.0010716606853336953 0.0015703832069880724
769 0.0021970755609766507 0.0024386402700094277 -0.000720572908884963
777 0.005611133432644691 0.025891991387093735 0.012811688166288448
775 -0.014048881995198367 -0.010013977606090558 -0.011278323613205986
388 -0.00415273374254809 -0.004766551903568664 0.00037027569749321134
387 -0.0005096335101878763 -0.0008938690819290645 0.0016248943303924371
901 -0.0068684680081184946 -0.0034828527646434825 -0.0008616952816977032
392 0.014135321548105238 0.0018485103120783582 -0.004066414803753376
909 0.003033652982052509 -0.014409871462825269 -0.013815740354725768
939 0.00552577406149193 0.0028950214443386408 0.008086999742419143
776 0.005515589726149893 -0.013525757345875121 -0.0030272286004496144
70 0.0017507465690694292 0.006944525004421185 -0.0013631725894134672
68 0.007719792415479394 -0.007340990958446854 -0.003849825860458957
318 0.005474495128596348 0.00035035225276655124 -0.0030568420731573666
323 -0.017274136696636022 -0.0029991367645087093 0.020140753860503433
1007 0.00014975072836710088 0.002886299457332585 0.0037963088351346853
608 0.01967009912112792 0.010857156031659924 0.02750899741887488
770 0.004444445165072868 0.0015628008538561356 -0.00036526269631293736
609 -0.022250911409262962 -0.0091075995117194 -0.013193505024602325
601 -0.007185948035378756 -0.0017568591918601492 0.00093779973625964
62 0.002435077072891768 -0.0028040005191574194 0.004211103304547897
61 -0.001991474674933428 -0.0038503487263607888 0.00030297353904750303
144 -0.0027665158842853184 -0.0011248175651409464 -0.0010527913903012652
910 -0.02242138158519149 0.017426137018190305 -0.01896351401584977
386 -0.0009236157940206868 -0.0019005886872435324 0.00037552695722114983
607 -0.015013616985320399 0.007407456381067238 0.01428863653262249
574 -0.001710367820777096 -0.04996926385775427 -0.013606413571356345
945 0.003481374377059352 -0.006187901720963224 -0.0032343438690572712
391 0.00026362738383704657 0.01348198152593541 -0.032535184706526846
385 0.0046100914782530545 -0.001979430340068191 0.002386986023725287
381 0.017113937397838168 0.004649902713440259 0.006485633898023592
393 0.02907672181616443 -0.013371312301920955 0.011724069219380604
380 -0.00040557268203246163 0.0109588910998826 0.007790242366056038
324 0.001407316618686881 0.01589453603757079 -0.0008732643493195216
322 0.011429444456061822 0.003067232488779532 0.023040231735316587
772 -0.0021881664497145114 0.0015394050068299856 0.000607999120639572
713 0.0020281504689355916 -0.00231258076250156 -0.0015393825863432413
148 -0.0027153303938844266 0.022742234966098562 0.016622237582396702
67 0.008451971841742482 -0.014043606511280367 -0.001492656293828454
66 -0.008338459569164226 0.006295761142781937 0.0003610826485954823
943 0.03239062393693028 0.012881076491325099 0.007550945812902398
790 -0.0002728689349140558 -0.009554170900184893 0.00464067689885706
146 -0.0002789905232986618 0.006225313134548963 -0.001847596321924288
668 0.007995927482007288 0.0035717495685161065 0.00999839327373564
937 -0.0052999619785884895 -0.0023250031838211267 -0.001559029070682051
771 -0.003589004694374514 -0.00033316942622209594 0.007620023031494593
948 0.0025789773138913705 0.0013779575183530983 -0.0029111801188840556
394 0.0041566983325502325 -0.009503213497677064 -0.011712372633570313
317 -0.0010066336381478968 0.0007708361210262542 -0.0026215540261302858
944 -0.0002484416175983651 0.006911300109546901 -0.01543078855686868
938 -0.0008998640411135371 -0.0003422903043072289 0.0005266258245803694
906 -0.008723907973527744 -0.0014815341140623848 0.004928183171815136
245 -0.0031851311924684365 0.0010836954977025172 -0.010958225351316048
773 0.00010992178208762342 0.0031969082562645686 -0.005297589915608899
778 0.007081958979950711 0.009073241801179686 -0.013406931644385653
69 -0.012855894714978229 -0.009683608473671454 0.010206846925401422
15 -8.07395304759683e-05 -0.004238876698091049 -0.005827140753266135
1002 0.0020620321029203186 -0.0032572837530113682 0.004597876377608971
5 0.003274768707586611 0.00131453892568516 -0.004277887383663296
71 -0.0028704140656097155 -0.00038118527747861813 -0.002110379282078102
77 -0.013417039869941392 -0.019735725016614386 -0.01919256318285785
395 -0.005861984923153137 0.008208092084701565 -0.011552706030899992
396 -0.019301232474737074 0.0070970611443057375 -0.024739629054196653
774 -0.0022167140727554803 0.00045497907502073495 -0.0009559120424698917
977 -0.0013965912772597824 0.0009387680343661054 -0.0004570791094003435
407 -0.010859376325164892 0.02126613053061514 -0.016005367927211956
75 -0.008184431020162187 -0.0002338172967362418 0.0018386458690372548
368 0.0019238065365774033 0.0009926125619107245 -0.002043326094025513
448 0.008566090734250704 -0.0003843985791607563 0.005921049742526135
9 0.0067909646732774685 -0.020633047610960267 0.006117828875567952
390 -0.0004518214297075263 0.003980348712943518 -0.00717896938174696
586 -0.005787615126595582 0.005362542599294583 0.03747766713242987
876 0.016657308010593938 -0.010327067638454935 0.021347818036072216
598 0.008540124581568649 -0.008584766137400612 -0.030124026645250362
780 -0.014638557967684603 -0.011458859242993209 0.011026003614070343
383 -0.0034270773086183203 0.006360546424957278 0.0010679307884113452
382 -0.000777888759394155 0.0008638183977231575 -0.007895677236427751
270 0.0060324889000186715 0.015124498736939988 -0.0025234989054503353
956 -0.0007965671179302803 0.01013360033584866 0.033020222292859246
707 -0.0013162698407982098 -0.0259071906516115 -0.006781483458778608
361 0.011110683969973318 0.0060149589533432255 -0.005195759773348891
795 -0.0029987582926440893 -0.0012678479338071652 -0.0005451815480074017
599 -0.01961118880149707 -0.008806776994449345 -0.026700432785189968
519 -2.7799142781630495e-05 -0.0011799110879662426 0.009136535557883387
63 -0.0011910995434722751 0.0016361175128778412 -0.004101369185900692
20 -0.00524326714179494 0.008726965610775319 0.007353418863759082
207 -0.004757673557112804 -0.019032556138843682 -0.010180188558344981
784 -0.004909683028979639 -0.00624526689145319 0.005865920221856019
193 0.010229854789887437 0.0008601670004845346 -0.0028808441175178037
241 -0.000807288102063445 -0.009724710687136278 -0.001163411542658952
528 -0.008657392530100696 0.01693672256637797 0.019443647733596466
250 0.0033114215924005272 0.013536013477495976 0.014983654183359478
243 -0.0043628927036246145 0.006920295595727023 -0.0005830832460317133
244 0.0014249687450920544 0.003935930476197672 0.0006859527123060094
247 -0.010530053474404097 0.030176602199589515 0.01850666426293074
13 -0.002313078242169007 -0.0001876507644126911 0.0017237453256575585
209 0.03358082211094207 0.015223174469634468 -0.015264518387884863
200 -0.009825899026012948 0.007456515974727294 0.006919685800844211
192 0.004686934876952169 -0.0022959746698678826 -0.0019854521317725447
526 0.023610523863327914 0.00796141188322937 -0.011817075996408665
520 0.0018201202322609975 -0.002889031061306112 -0.007410591345506809
196 -0.002672632027447223 0.0032026864189334944 -0.002935849017711843
268 0.004086932973485301 0.007912601147934895 0.026623197858186173
249 0.005547377760582476 0.013442652561984625 -0.008164872280715418
267 0.01823290242419961 -0.017652767912854413 -0.007333520555880133
261 0.0004953359291767945 0.0022359978176978035 -0.008767297328811024
269 0.014582734743832697 0.020883157157161474 0.009832291936231294
264 0.0018846573888204195 -0.0032220516536882377 0.0026742474816781898
242 0.000492542086601663 -0.0005611462730857029 -0.0049381934557921605
968 -0.014688355506546437 0.014812388369113716 -0.009491322331808834
967 -0.018148820784407712 0.006330307064318312 -0.006317442970152017
266 -0.005161546874299634 -0.002382987959451598 0.0014530556418658241
235 -0.005363097841739998 -0.00010696503578162438 0.003981089782183776
969 -0.01144412746067587 0.010516017714605015 -0.005257245577166427
961 -0.008067691512930299 -0.0011211225661066008 0.0022818119754429195
232 -0.0028601592182737607 0.002836468507572456 -0.0006963980648065179
964 0.0018367373035643268 0.0008800531430828928 -0.007120489051739014
64 -0.006763060067164569 0.0013534772832398889 0.002009851090667748
962 -0.005115828605445416 0.007321206589560803 0.0022028126856654963
197 -0.01895463097609728 -0.008005564625653822 0.002013832124204035
963 0.002420306851054778 -0.004796010472302944 -0.0013282480269900167
965 -0.0036995091674460506 0.0033535500801922784 0.00667747344215677
236 -0.006421990152130301 0.0020990727784546957 0.00469346988899977
231 0.0004099889114865115 -0.00556376558183668 -0.002732740848864251
237 -0.024576409085271714 0.013796448643185194 0.01954787475625782
65 0.0011214931394074922 -0.003999636600770253 -0.003965737511536802
191 0.003889408904639222 -0.0026225127670604373 0.005225313530596126
234 0.0016507806221738855 -0.0032192036666083904 -0.0023278229384003334
238 -0.001223685864302436 0.012272781769698059 0.012930378015761832
233 -0.004863187039091569 -0.0002708355806286107 -4.430796418195771e-05
239 -0.055245003121330315 0.03561506655079703 -0.009932338748388735
265 0.001000067683205124 -0.003708967309016961 -0.006157943666917832
240 -0.0006040977738214309 -0.05013694487490278 -0.00013978715612051815
262 0.0005162173543405714 -0.004369630530940452 -0.0038199288928384813
12 -0.002814796098350234 -0.0012937543821770908 0.0038609772239887163
199 0.008207356497153142 -0.02290391327455764 -0.03548000310514044
966 0.004726874455908473 -0.0052818868837456595 -0.004651119713422872
972 0.004927286008139875 -0.014577631149658975 -0.014492754346119747
970 0.024237970227753695 0.010591259271975061 0.007780798039109657
198 0.015378074071392168 0.014274782707733647 0.0026685424057540374
19 0.0034947992028402323 -0.005629668408775577 -0.023781619174733606
971 0.015771069241519404 0.02574387121734188 -0.002347157968569556
389 0.0018504343883228467 -0.0010052134084805014 -0.00015540000912694397
1004 -0.006995714135049786 0.0002144345396386978 -0.0005125753012813279
786 0.004741274307320414 -0.011029708385906774 -0.003640335963157903
362 0.0020490079442307897 -0.004081571512813281 -0.0021642241400401017
149 0.01112503453464353 0.01710598066957406 0.008835808958332993
78 -0.011310549686848668 -0.0013885394615060296 -0.001247928600103055
792 0.004008469657799683 -0.005980568119725812 0.005987581465125134
263 -0.0012433805459706672 -0.0021425566534519205 0.00021161739376070958
834 -0.008210027365898565 0.001120441867958501 0.0006059166546880156
246 -0.0015789966873218481 0.0009571298528007996 0.0007662661455784817
248 -0.028360825428147034 -0.030667327200714932 -0.017654700915020746
401 -0.00723484726157592 0.0017820237172814328 -0.004440363990115927
587 -0.0026953644541466005 -0.02016836537854106 -0.02797956639090776
791 -0.006661058012191676 0.001029463883032991 0.017384351422188166
326 -0.0010586765971865738 0.0017653506552876574 -0.001393466292865712
27 0.02615043785517599 0.014305328995863738 0.02889794655222635
10 0.0005907328837896674 0.02295025992182362 0.002534609533529114
836 0.004708771749975074 -0.0022645612190007676 0.02845137168365204
363 0.005115163020825147 -0.005836683193284235 0.003126392538845263
610 -0.008421365659136286 0.008214758732588714 0.008743828577071695
406 0.00530291373027428 0.012432098538464848 -0.0006136125999656075
522 -0.003021376495775791 0.006132896594709314 0.008400319581501049
582 0.00033163419541309844 0.005905131144098166 -0.0035407166898951854
588 0.004338606235306422 -0.02464033983343555 -0.0030646012991775474
364 0.0021264399367913727 -0.0031806232545810997 0.005463734356620722
832 -0.0038160910727931593 -0.00442294268061869 -0.00432352618207794
373 0.003566290895065471 -0.005754139467166684 0.007232655262804968
605 0.00014678612452747076 -0.0018950643023830465 -0.0025339293663761324
594 -0.002810023763574384 0.0016637314282554447 0.004500368472392704
327 0.0022629869767871983 -0.011360432322522884 0.005610110082133874
602 0.0006381846633397277 -0.004875572075088629 0.0006977919121549958
379 0.01563824255100727 -0.005915916057850825 0.005008427436462391
141 -0.006298625531178378 0.0007658870473073461 -0.0012168684147834305
604 0.0017503454318865443 0.0008418588273918808 0.0007265755108683913
793 0.0038677741714265306 0.0009287830093452183 -0.005259286026977453
800 -0.01258327544553594 -0.020723630935765992 0.0031784087508283793
329 -0.008742703151160453 -0.005762249298939545 -0.0002807493886929444
370 0.0035722086162376493 0.020337754251447564 -0.010813666932436445
334 0.003850755793324569 -0.017459928247294167 0.01070379442888477
920 -0.003747260326984145 -0.010646747063101487 0.00740404687950981
830 -0.0009260163236285549 -0.0003564696552588514 3.7263473818794176e-06
374 0.004857606949971696 -0.0020698863497588724 0.0009178474500874198
377 0.004091079396886591 0.0006869463029480364 -0.0033538847860134597
331 -0.0080061575308938 -0.018197847442407548 -0.010221688178636152
76 0.00046496783716373975 -0.0017421563387069025 0.004142184387919845
335 -0.0011876575163969826 0.016049399408479683 -0.007233155738220949
365 -0.001344661242172258 0.006729957826359515 -0.005119742352396223
143 0.00430071743587321 -0.0022112779466761955 0.003059322868141322
150 -0.009469483399448751 0.020301304213610618 -0.0012258401636961605
698 -0.0017927121149112094 0.004103183154897043 -0.00427600880211
330 0.0032897082224437203 -0.003576418433877372 -0.0072649603852964015
328 8.007124348152284e-05 -4.2929489310567686e-05 0.0038798880056075792
835 -0.012242240503233146 0.013833779711024011 0.006167309340576447
699 -0.002940028586464814 0.001161864679958151 -0.002974274986339905
706 -0.004715639426336334 0.01787322123768346 -0.014508497467517074
325 -0.0029844941825376402 -0.004619283525338822 -0.005484972106307546
833 -0.0008330221532515526 0.0036688295237223404 0.00825283978457568
366 -0.0015819192004156016 0.0036689884786786646 0.004870909827173178
1005 -0.007583225386568083 0.0013571278925503516 -0.0011836623021914579
838 -0.001706625061076163 -0.003987730691765459 -0.0010435845346461426
333 0.00044830220549328735 -0.009382686108448123 0.007362697092301888
701 -0.000953368368912906 0.0010737880341974409 -0.0022296791305367884
371 -0.0046138304574570976 -0.0049610322258042605 -0.0017326982001894687
702 -0.006009301550032233 0.0020410947731322646 0.005498788099006724
840 0.007801578562707211 0.0053157094367366695 -0.014343965471805819
606 0.005242392261927328 0.004694418629525407 0.0030145619722640946
603 0.002802560413142795 -0.002161100674159207 0.003115762601533091
3 -0.005848857921383112 0.005105681665883583 -0.002555658335139602
202 -0.0006174324522283626 0.005114473869146346 0.004765794565311461
875 0.003634305480106283 0.01061180863512701 -0.0007041055843833723
1000 -0.004601032508856932 0.00023882351327718986 0.004486043277375769
332 -0.0012943109308922209 0.008740894980833315 -0.021200464159037802
142 0.007675431237571769 0.005010595870395491 -0.002947258143486864
378 0.004434254109842758 0.002639270064311844 0.0053929007761412745
147 0.021465206012467753 -0.014989441073659255 0.0006850896836135902
612 -0.015881516338596822 -0.034039665580692886 -0.008120856153572208
384 0.0026395521046786463 -0.018594992517346524 0.02247483588603264
1003 0.004241319852149176 -0.0008553808294356436 0.004414197660745431
611 0.001580972228765947 0.01413297152125199 -0.02105456482974195
451 0.0021045098668247483 0.003103999760696438 -0.01006533949155805
74 -0.0007377603096851558 -0.0019644239273877975 -0.0047569371502778025
58 -0.02320227872631031 -0.0216798422991096 -0.0250078332350131
829 -0.004020371917523091 -0.008284242995925799 0.0011033262015387835
375 0.004134469291866718 0.0026667381268123585 0.009601388249145613
376 -0.007826018966061846 -0.004077267755624267 -0.002497423644557816
839 0.0028421150238908716 0.03255902013773228 0.011705353872132628
1001 -0.0004820412696016033 -0.007701316690025752 -0.010031735737527834
336 -0.03214438566139112 0.001120541269611745 -0.012348436280487613
831 0.0010769505325300918 0.004647714105147261 -0.00013904424139040756
372 -0.0026697312941391625 -0.007526441726679821 -0.01967890669571852
794 0.007206877843721543 -0.0018467170809969605 0.0026438330173236815
837 -0.012241782134217201 -0.001048836589240132 0.011319038199983323
704 0.020840527029636423 -0.014789154692061778 0.014453144308213246
415 0.0011098292599951906 -0.0020666388570151186 0.004095554243285369
997 0.00965905726822681 0.0012257186538583136 -0.0021309100904971863
402 0.0032232087299177785 7.930896768652358e-05 0.0003771832662127539
14 -0.003777622680371119 0.007583203283616479 -0.00475900618866246
912 0.0009064610684729436 0.02275126655178249 0.0027687909722481354
453 0.01084719964650651 0.020707915825977818 0.0015826397706754317
54 0.004969559404578637 -0.005070542910783186 -0.004555736735444955
53 -5.6058649453018245e-05 0.0012003216530451072 -0.0012993004306349064
55 0.0017612796454049254 0.0017023882118810453 -0.0005552030892600707
632 -0.040811225185799646 0.037432356455660426 0.010067516369157373
631 0.0013830055672284713 -0.001619359060075231 -0.007315150326679651
514 0.00202510565741493 -0.0009156334450942886 0.01863151313463872
510 0.007192702701294328 -0.009103148215632541 -0.0004524568575071983
509 -0.002043523607810258 0.00042386666689930115 0.002321211070660135
515 -0.013594400513617919 -0.00971471131471092 -0.04965853765722869
96 -0.0009867338841979237 -0.004924394961151294 -0.00477566617231533
94 0.0003758891602980139 0.0018147217099684734 0.007259173542279959
91 -0.002894985880740133 -0.0016407063122541184 -0.0010224027176452457
97 0.016684831059204215 0.003264529331029452 0.006861703677070726
98 0.020447956480350783 0.014226150857071474 0.0013901669538398
507 -0.001562955770053478 -0.0022256670799639506 0.008346632412422072
516 0.0022119546400514375 -0.011174895333559552 0.005548401963051638
506 0.005085184968485432 -0.0010017652183417838 0.00030785511043595866
92 0.008103399000853046 -0.005256848409556061 -0.003304916939861965
99 -0.0033616732030524506 0.011557205680661795 0.012275271130891168
93 -0.004684994222425732 -0.008032277655451274 -0.0015579342807335184
100 0.011074273253756442 -0.017578873221604195 0.03781251132059297
23 0.006296988035719844 0.0005039014132609747 0.001215748542196827
551 0.005847299506474062 0.0012546037863527923 -0.01057196217012205
508 -0.0024228087888952597 0.0077441250766246035 -0.0015911372844605316
427 0.018069307211369515 -0.007565852301055715 -0.0069697825857448865
52 0.006085895095957589 0.0037148894235971984 -0.0015618523619749904
286 -0.002446889456509179 -0.005942953647479911 -0.005847498295689169
24 -0.0035373773187575364 -0.0074025478904579545 0.01024488262608402
545 -0.0018302034553850147 -0.0014570134928394995 0.003957656734644638
56 0.004419189603284502 -0.0013324888164435878 -0.00014923116305105963
26 0.0008799585093057817 -0.0010435878111896735 -0.001223572638227176
25 0.00025683719157320673 -0.000553996085054339 0.00303933544303905
21 -0.007414214118647721 0.0029501599301991876 0.008496487523474464
29 0.007946559226449396 0.010354103322758145 -0.012072206273030468
22 0.0007690467354054707 -0.0017407800988798996 0.004798551458556996
723 0.0004288504558024771 0.002922571775791748 -0.008601119919760172
256 0.00481470641658499 0.00421527122257164 -0.006543576966970419
51 0.008323225749004997 -0.014844957498912726 0.0027737306306545063
724 -0.00037727112211657286 0.0005433518173560595 0.0040674661639189475
513 0.02005022799396053 0.00873957298332124 -0.001178776988538134
505 -0.0016421475933829695 -0.006736336452430512 0.0004014559368062003
512 0.000618456120652958 -0.027776483910154463 0.03693119686698112
511 0.010315845947815743 -0.0007752862516577069 -0.011094227590366545
585 0.006032647262686353 -0.0009376055656134454 0.016394086869273915
259 -0.007140780541927974 0.008831378388998489 0.013690593785338039
57 -0.015144539461561036 -0.0022833551896267812 -0.007292887073643045
298 -0.0002155680455248266 0.0016485983839356162 -0.0033410952554316187
287 0.019722112073001025 -0.010616723224312738 -0.007648570933854256
732 -0.0075327330481744685 0.0070198418817582495 -0.007794048341369886
59 0.004300116746044507 0.006823884403735383 0.01788285887309735
726 0.006820078673192134 -0.004414918992625311 -0.0006470995979722884
584 -0.029764426615486284 0.013700184612888584 -0.003760819198047309
578 0.0032732850078330423 -0.0001444188093642424 0.001970882488982046
577 -0.0005740759306781173 0.0008382937115507915 0.004544549880818728
60 -0.024956484109392003 0.016971371926188396 0.01027549249971931
30 0.033649176490199814 0.0006676653429371561 -0.0027288141821691005
253 -0.002191091823658585 0.0009282180255141864 -0.004479530817769825
252 0.004503715476494896 -0.0011501631958743322 -0.005297670585761148
730 0.0003668189476725639 -0.010319933379858204 0.00856849546116604
449 0.001752090536959678 0.0053028025831020125 0.006113634992698954
729 -0.018645323593523958 0.010519896115873313 -0.01874326439110569
254 -0.002492324554659828 0.006001320228418168 0.00048538705292842086
550 0.009899593487689708 -0.03121000616725883 -0.025576870501119342
288 0.00030485599624733087 0.01687986975325833 0.019784229014701636
725 0.0044278792134880484 0.0023959359685464853 -0.002034233252547649
194 0.0016249226919164707 -0.000945857406713472 -0.001566706650951623
727 0.007477821275958608 0.030920800647050564 -0.005067492065545006
692 0.015987538706427034 0.01378972681093822 -0.02237480844985007
721 -0.003040275934550607 -0.007404382745164025 0.002481613533538517
580 0.0018020658514206918 -0.008340876418634523 -0.005986691874777642
583 0.0011171463395316626 0.006664646582868354 -0.0031427436976979107
946 0.012078540395433468 -0.033975252151725366 0.02820398353263962
260 0.006941185685029943 0.01254455330482879 0.014068556109690588
156 0.0005574592470790497 0.002161660642281571 -0.00010016950927450245
942 0.0021176796699619044 -0.0011956916701253673 0.005712076088536763
291 0.00485736221913274 -0.0036708631810378894 0.00444740343695341
155 0.008939853262811054 0.006170611031390306 0.003519011338879694
95 -0.0034808799678308503 -0.003952046674523279 -0.004107261109058642
633 4.7549175635846716e-05 0.008179561730879897 0.003394608874419316
625 0.0009742471814622357 -0.0034432481296194023 -0.0024581443742096518
693 0.004845061741811438 0.009883035183307194 0.00430016157159983
947 0.004702528226651576 -0.007372972295366544 0.0012834102677210884
525 0.007339923449160186 0.006060177743868987 0.00856724601643206
157 -0.023020970525760118 0.013813652834017321 -0.009678098647792002
454 0.023759119719332204 -0.024464698481283347 -0.019318120408182458
464 -0.0026008169437442153 0.01598172576914027 -0.001224369586245312
579 -0.002386537054032657 0.004004062218734272 -0.0009087252165839563
195 -0.005922170423126853 -0.0027800174803163536 0.00681336021065234
299 -0.013089967062979687 0.0040512840285158854 -0.016246989386605723
367 0.007684085525943209 -0.02339739883912296 0.013373387644907303
158 -0.017177110039533188 -0.01174319889312751 0.03527718390010844
974 0.009267565721139733 0.002310342858750169 0.0038566684401129953
581 -0.0040351934409339285 -0.005408564746791888 -0.0006622029421197119
151 0.006453580034591309 0.0008275572064181045 0.0015335462249680579
159 -0.013596523468201643 0.018427180870863445 -0.008688174735177943
2 0.0014656251349664503 0.004692511648068132 -0.0014000098900577922
445 0.003839717151297339 0.0036795275772395007 0.002439418035436924
160 0.0065018467748253995 0.013386669401293941 0.008594069411570683
152 0.005525142872065273 0.0030063935773580203 -0.00029291308882213845
722 -0.002985083376199022 0.00032639123739312164 -0.008442248401678308
461 0.005252006671033885 -0.006085870262285344 -0.0005159515807091076
229 0.018293276792857277 0.001003808490398509 0.016493564530990556
728 -0.005189711501062307 0.0037014433285647687 0.007488548889339523
153 -0.0019441114507301677 -0.003942333821625083 0.0035832017189483378
226 -0.002262053641825621 0.006279805813845848 -0.00047437135851104866
228 -0.0008575292519784937 0.019181782091449936 -0.000704727160882998
230 -0.013936928693935818 -0.0013126460197234444 -0.02001338098783001
845 -0.0020010654788353843 0.006701310684342837 0.0021134694593929427
214 -0.004740191340733755 -0.007091315581484395 0.006499046879465516
595 -0.02454261346575759 -0.0038757241637995495 0.01962359529542083
154 -0.0013079837110871152 0.003990221851627887 0.0018910758341438836
597 0.010680262429338576 0.0023221359853122796 0.017259213966731815
224 0.0005807705752500715 0.009277170632145471 -0.0024326434370562007
851 0.0024896894861460325 -0.008505567426785893 0.013138419693828311
215 -0.005189560776811722 0.004126348327102111 -0.007481979768994875
846 -0.001466670797015061 -0.0020470084023180286 -0.00481773251160735
852 0.003956572331405993 -0.015453453888814552 -0.02382998721494776
589 -0.00010627847607380078 -0.005789468578719198 0.006844794956097818
596 0.011507347312393341 -0.006437995585423667 -0.011558829260377167
591 0.0013932722812708632 0.00034313840189548195 0.001111012346528348
213 -0.0012741664961548574 -0.010005269915484944 0.0035609270869691634
590 0.002615884173708243 0.0030045960721337165 0.0025555646792569595
592 -0.0005592460345663582 0.004866663848931522 -0.005303769483332268
850 -0.018807183042690835 0.03182944319072129 -0.0038900442167066774
843 0.0012140159982988057 0.0025805073249937954 -0.004227833382239601
222 0.0007292512657377402 0.0041066558132827145 -0.00957089759929661
223 -0.0065749182152401746 0.006560859118418701 0.003521978551744864
221 0.000134074803272667 0.0035491469577108984 -0.0018581037948235753
844 -0.0066406030566290904 -0.0009733920004343932 0.0017831621967664664
842 3.217291627038684e-05 0.0019903272671480464 -0.006884112906367323
225 -0.0015709049704778313 0.004897675795558099 0.003177896286432909
841 0.0018458435870776513 0.006456723689478103 -0.005176254223031622
848 -0.017935554552238272 -0.021029669120597602 0.018843294201340434
847 0.006835847640768805 -0.03196684811127513 -0.0026305466804218756
227 -0.00959399232734677 -0.007858386576012824 0.011025875046744607
458 0.0009462304292716312 -0.0017960069190275925 -0.005975517544118916
941 -0.006282120006691873 0.010444924174370913 0.00995535536709214
849 -0.027030337027243816 0.0018720203044515335 -0.0037801486390677216
600 -0.0009882485613962365 -0.011238788306747526 0.011851779147185257
122 -0.009651121317177576 0.001738749199466864 0.005715760237977735
593 0.00135757666698889 0.003594876166594247 -0.0005781195176574613
73 -0.002001749589865601 0.0028261833919052625 0.005584280323540387
457 -0.003914790615569772 0.003873153923275818 0.0028990000295310804
1 0.001749053470283902 -0.006629986451619812 -0.0002938269387420173
463 0.006805332054029608 -0.005741157566774481 -0.004229746428658879
8 0.005139781304306907 -0.00039752670184904724 0.004622450400987585
297 0.02006391790401794 -0.03485803823493895 0.0041442354165133295
779 -0.000346307661548612 -0.03234411997686916 -0.007168099267656712
7 -0.0006083921547198334 0.006770677712542107 0.013035033753675259
467 0.013840910990366757 -0.01838536851819887 -0.0014875444480359334
765 -0.009234130317969316 0.030400540186029494 0.02301445190794546
459 0.0012336336311978189 -0.01010871300242963 -0.00825689914432385
462 0.00235712708255991 0.00810090756858872 0.005092051732916105
468 0.02339723746224085 0.0019463730235361502 0.006027999538804082
764 0.0009039658810391 0.0011319862018812337 -0.0077541974142955016
460 -0.002678500396129849 -0.004211985573341784 -0.00451724903615486
452 0.015824726941056876 0.01853978591932396 -0.01848224627642106
216 -0.0010756864577225907 -0.00507572676961566 0.0030140291864442035
447 0.006989363709377757 -0.00015236384334816287 0.0011934802440505322
257 -0.019837593044437773 0.006825313199143412 -0.007842440219352476
455 -0.015419947286576079 -0.009520073708118873 0.018535209099033213
1009 -0.005585383068187993 -0.003715938077266391 -0.00029750091447025323
757 -0.005994583899820911 -0.0059565968864676005 -0.004365964313212591
763 -0.0026659671809723417 -0.019716045813141313 0.006177887619514993
421 -0.00262087671762194 0.00046982370896661585 -0.009592646702848073
300 0.025859228851176613 0.00857791016998777 -0.004737681611189131
282 0.0020467780908887193 0.007205268079398707 -0.002556079132679252
114 0.0020681033722513976 0.008185343668892509 -0.0017034693005494785
428 0.010628958972027537 0.002258459060532612 0.017066278944182913
546 0.002438041525246831 0.0016039506509106815 -0.0015083030952606608
290 0.011002663239456048 0.012397158414744957 -0.008331276433664828
465 -0.008783526989900418 0.009176806596587333 -0.0010416370040367843
638 -0.0014774987595962928 0.0037778047962739826 -0.00017948558512419156
281 -0.0021851508719740926 -0.00026920444928417474 0.0017465486460533802
644 -0.0033450334296629518 -0.016796828858058013 -0.009417096624972464
72 0.0038941766492930087 1.991752746624613e-05 0.00412285713858312
456 0.007178794692600793 0.022334917158569233 0.0056234030333509495
446 -0.0015444162898116658 -0.0032253236064293186 -0.009740884907852992
823 0.029420986785892556 0.012525949055634386 -0.012337471149668
544 0.005129522247241411 0.0005631752714031558 0.0017935834127633969
768 -0.025307074395658474 -0.0059053752998213405 0.013867931957072418
760 -0.004238054734379027 -5.373769610728975e-05 -0.0052803934003870494
640 0.002201316518446711 0.0026782933415698245 0.0027518615688047372
466 0.026291324304706605 0.01160151847712969 -0.01257991361188359
627 -0.0006417661093125692 -0.0009658358057851985 0.0079917275543573
647 -0.015003290209659209 -0.01602449948085289 0.0051456482401134075
759 0.0005797336800843465 0.003206374720894436 0.002021325477951317
629 0.009447946510076147 -0.004061870000055462 0.0006285562508036797
762 0.006544724247157664 -0.0030306198534919768 0.0007761346196712592
450 -0.00387076773324456 -0.0046170066666007285 0.0012808108582394973
639 0.008790032875703119 -0.0019150220496878174 0.002650340833703742
6 0.0060020933738359405 -0.005305243213159617 -0.004856176571262791
79 -0.006605351084572938 0.0013505771460410128 0.004609056512079521
828 -0.02296293299700372 0.015046433825413083 -0.0026193716516601045
542 -0.009253547408495088 -0.0012517259032103004 0.0031219064941551463
548 0.024180892852756992 0.011901444630190543 -0.015025632905645101
549 -0.003007099720972875 0.004903326393202198 0.03733206811260297
541 0.005174960694390614 0.0025004701523491193 0.002619821061793476
636 0.005680438819979443 0.03682634177402286 0.00040066123434589
641 0.0037234332494247057 -0.004480715016412307 -0.008243046312341594
821 -0.0014344433581790165 0.002608594261299009 0.0020504506711227586
635 0.013191240492205795 -0.013606699017248093 0.011946523805003443
802 0.01771414728950084 0.022326932703506518 0.01750864218726516
767 -0.027758226117025157 -0.031074650030882087 -0.0055881922491996736
634 0.0016972699980815713 -0.013086382080639874 -0.010166038479478506
642 0.004064408349457251 0.006147619214215662 0.0009785100425125607
4 -0.0003772892907285678 -0.0006954993611823769 -0.0013880074048549216
630 0.0045143113268468595 -0.0015376526093659037 0.0033126761675647976
543 0.0024385587295758125 0.0009538526782533891 -0.00015682284425824695
80 0.002363884862472675 0.01562800111024199 -0.018946136337892622
115 0.0010552185794144146 -0.0029188760054810656 0.006243167450881947
547 0.003389112717077902 -0.006182034556872267 0.03295149477557255
731 0.0063807814896463125 0.002521801152055178 -0.001791089732287322
766 -0.010927451198271255 -0.008760563784627919 -0.031013252819106392
819 0.009268863685010217 0.0049972621629009025 -0.005201167675335142
761 -0.005342371882332431 -0.003063555711470818 -0.0016892883637890585
626 0.0031433152779618495 -0.0030174300546125963 -0.0019429548883951652
628 0.0011610391662178897 0.0014952150120749674 0.003380934535841933
818 0.004140868024309683 -0.0005616817424620591 -0.005653989162558553
643 -0.008592618816202552 -0.0023271372931237488 0.026626638913216736
797 -0.005293310226964112 0.0019975900487789002 0.0030225270700304668
648 0.020695948721541714 -0.01770112480755036 0.012755675939843879
826 0.019985607309594856 0.013521644919543533 0.005187034650190668
803 0.02189040549544084 0.001453300581144922 -0.004213881024520309
646 0.010332358868706133 -0.004500164134725905 -0.004577730123128069
685 -0.002290365978574795 0.00047504955081135476 0.002820128516158616
645 0.007105638042715256 0.002939424807768634 -0.021063843459873048
292 0.004381397642209545 -0.0011521419030204956 0.0024996168873262048
825 -0.01527451873360737 0.011061056457915433 -0.012997696239063945
691 -0.0033810678941888165 0.0076896301775346496 0.007153366145550634
552 0.03487513650017163 -0.006340718186724345 0.021471483674236676
688 0.008181451695943481 0.00016404269845948056 0.0015247052658168053
824 0.005942258201822258 -0.009087031279613722 -0.005922884381700179
817 -0.001936518377504422 -0.0024592620895283602 0.0020600433366360733
820 0.00520672320512096 0.00289141927472197 -0.006558908756068966
129 -0.005564673907636589 -0.012354734042034254 -0.0014923376178482288
758 -0.004218270336528623 -0.0018169268764247674 0.006774103589926587
358 0.02153941230345205 -0.028476603806222318 0.024908711881944393
637 -0.0047815566229386305 0.00019272499299106044 -0.003691993687515892
822 0.0038030277288071367 -4.745498521618256e-05 0.003374376569177399
798 0.004281489411765473 0.0020908931850561275 0.005578613454209536
827 -0.05333626855322643 0.014467595292052025 -0.034056153667954746
978 -0.00542099410097285 -0.0014819645938025173 -0.011912271641446972
251 0.00044018788998830027 0.009435139762463934 0.006280035240633628
218 -0.036288336406955425 0.026357059716743625 -0.0031608258305519488
523 0.001938879766535926 -0.0018661884864566724 0.007032303276244064
517 -0.00933389461799503 0.009219271873607457 -0.0018754732246735405
258 -0.009366500669442755 -0.01768477238683521 0.02142123546801223
1008 -0.001073411074819205 0.0004077094015337634 0.0014306595773967183
617 0.0025294745976892517 0.001169695451100646 0.0014461349793273366
657 0.019570663946166966 -0.022718189853418856 -0.01591927289157015
614 0.002348419580628065 -0.0032277790432107623 0.0025357569963872827
615 0.003121712283675054 -0.006119687940454699 0.002950392377039829
664 0.004944981012245492 0.0021785802955227446 0.0026185438126584575
616 -0.0036367416993115533 0.00041525952398910364 0.0017714803568790664
618 0.00021338730499160922 -0.004460225624929635 0.0012513173770579455
624 -0.013570737973428738 -0.02183672843864458 -0.009847000507169513
613 0.00033386394010896637 -0.0006708395912509175 0.00579920173823247
43 0.0023903826265305613 -0.001631921187214985 0.0012994963226508368
621 -0.011393930054880637 -0.023805956930396135 0.013469896183959317
619 -0.016806742630724604 0.005222035194348267 -0.019435937318399852
622 -0.0019088500164225516 -0.019292341013642605 -0.010427008333650623
314 -0.0009826524455957741 0.0003661176419809064 -0.0030689408290076733
620 0.0039065650915185495 -0.03448977660066095 -0.005311714847316035
319 0.003979261991083807 -0.008230797583171245 -0.010129852138312639
623 0.008533082884869266 0.003935622028071991 -0.005393253314985859
106 0.0019786213056209295 0.0038167407028288076 0.0028331562036867657
649 0.002241685216767896 -0.0009850843549339139 0.008615272809620177
655 -0.009148643081704325 -0.03498525712188335 0.01290324168239327
656 0.00013063825128991377 0.015667404015403192 -0.0011017493182783997
49 -0.008966451115033768 0.010415387690021483 -0.002565528524396677
884 -0.008391289683796543 0.029585575435251466 -0.012900207744154632
103 -0.0015224863490409487 0.0035094596332869202 0.00254451547990579
104 -0.009100009190199338 -0.0019222962057562124 0.002696835220132964
89 0.010400624732291116 -0.008254991061348419 -0.0020342616267843587
492 0.027374844965630474 -0.024477106943811448 0.005488649957827744
101 -0.0003923752240394318 0.0005215640620755564 -0.012437508496508473
569 -0.002195036194859331 -0.0004955980321715506 0.002566193377155768
108 0.0048769184153727736 -0.0019402910243293751 -0.00027612784214148603
663 -0.005463538794763007 -0.004371212838156075 -0.00575402264822603
975 0.002725392634954326 0.0011635561554479259 0.002074067847005956
204 -0.0025072970055520175 0.00019933479173722538 0.004687938538033179
670 0.013302536475114807 0.01720129798192627 0.03598318244642966
652 0.002226189642650812 -0.005670205238384619 0.004986580306162591
719 -0.010445716597075029 0.022037736357834927 -4.961005813554874e-05
672 -0.005947088031307487 0.001999947989949134 -0.008288612795945576
650 -0.0005993483985628778 -0.0020810732546690624 0.0001437493063105391
651 0.00258635856627573 -0.005003542125069782 0.0003676397400995471
105 -0.0011169643623188557 0.004680117752105438 -0.006985076586710935
343 -0.022500942583751574 0.0038662011278150117 -0.028415774619656317
666 -0.001766981972227774 -0.004155638091424866 0.0016943857457329635
671 -0.0072214358755329396 0.006335126006403781 0.02945951490924075
665 -0.0007812745652308808 0.004600675411212826 -0.00132832858104659
667 -0.011322525704359317 0.00024790152007754 -0.003911949192495816
501 -0.015568032849588414 0.004089219913819624 0.009467878211705279
493 -0.004042503190425078 -0.0009866375270935453 -0.009949463149392166
409 0.009433741849615892 -0.0011241372948940969 0.008882239820404333
500 0.016022720862123623 0.004877583681580424 0.008899274430504527
102 0.0037110112592245456 -8.359234292176888e-05 0.013640362772366334
490 0.005688886532703843 0.024856142009327533 -0.008398248631930985
570 0.0018549767686937627 0.00327718225449541 -0.0032045177604125945
934 0.011122441946227855 0.011734550046832217 0.025972937155112376
883 -0.011944702513942147 -0.00853917094688329 -0.006493529391039893
345 0.00959467822758673 -0.009357918618310587 0.009409382787220318
474 0.006796162688318867 -0.0068795935729533296 -0.0038217042116073393
145 0.004123662752312114 -0.0005767467472087831 -0.003018100334949625
337 -0.001469227702326528 0.0023919132877462624 0.007075876761323842
714 -0.004658481794234749 0.004219905358384226 -0.0038740958415906315
344 0.010699595146842133 0.011426791627031712 0.0011644955631604408
936 -0.00048252215434577573 -0.01431425483814047 -0.010108028473235914
718 -0.0058403076223209885 -0.01136420202378954 0.009446151171132285
499 0.014208828965958575 -0.007333970691617341 -0.00735342372331141
313 0.002783667509725418 0.001179279738937209 -0.0069529791929803225
494 0.005152045358011392 -0.0010755251901664526 -0.006612080855508973
316 0.008006589502748738 0.0032219700572863746 0.0009125162937048048
801 -0.0035558474241967957 -0.0017762002754293182 -0.022018500104288814
812 0.011331234644914 0.014142045721189454 -0.014154255164785239
50 0.024583157039969144 0.020069375081473204 0.012088329310998904
661 -0.002763374968510754 0.004900247614225938 0.0011126692666134316
662 0.001020876318188391 -0.005972930268665486 -0.0007494427000715458
107 0.021429512851470073 -0.013886330403945286 0.012825388303733224
930 -0.004958410945184497 0.00021708534655101084 -0.0093138764766951
928 -0.0018107357180908207 -0.0013991264953679247 -0.002701813770207378
576 -0.00046456240370405626 0.008772659114343776 0.004585037028983381
799 -0.009389510788344104 -0.007139239452414033 -0.025888265875540523
575 -0.0032264079869053722 0.004350420762670757 -0.003942375276336493
18 -0.014205611276732151 0.0023132280622943143 -0.021497114609568827
527 -0.013801896571476568 -0.01628717609218133 -0.008374454745856649
521 0.001191940305591832 0.006366196071208802 0.0009111676290989664
566 0.005298361313149918 0.0008398347574487933 -0.0019220462663106824
572 0.018094710585927654 -0.022186939677629587 -0.00014812802654777307
565 0.010660707421945692 -0.008218726120599188 0.0030611753890364595
567 0.006629818051212979 -0.00589406944494141 0.0007198708323552956
132 0.00700722656176881 0.0010107723509671204 -0.0010028281853381642
921 0.014229302360050693 -0.0014326623107054318 0.022643908350464124
320 -0.024875828970446594 0.01891873215022303 0.02124780380720785
479 0.0005665127541005666 0.01734126205667172 -0.0074411059985209985
495 -0.0012603472171943558 -0.001469193547867212 0.000608371743147494
496 -0.002338028462493447 0.005325092123963074 0.00248116538859184
995 0.00028408304639558694 0.0051859618346382546 -0.00039560430014541327
315 -0.00787388053568236 -0.005694591518297964 -0.007587770734707897
399 -0.00022953992957632516 0.005704308112940318 -0.0016489327297192974
403 -0.02583832852027804 -0.0027725741547961263 0.00032786736813609477
720 0.015644594001405464 -0.009476438417012418 0.04284479941390822
17 -0.006938460747302551 -0.030499008006033747 0.009292787499763486
16 0.0011477029643480008 0.002320880826820746 0.002215086560309443
573 -0.004401599878573626 0.006496077817743086 -0.002895413486265572
872 0.002977860021615755 -0.012152064985875483 0.024883968615062202
321 0.011958558675196358 -0.0043102926376409915 -0.011566276658843832
486 0.008189551600021622 0.003456541130204739 -0.0042557555834407705
397 -0.0067322929944586465 -0.00398732155795138 -0.0012432603551389577
811 0.01995832926329777 0.011951757478929181 0.0017430450243992777
805 0.003594640732464417 -0.0006085772104881187 0.0022020410515063158
813 0.0020830372506806 -0.011002721366098075 0.011852374782934678
806 -0.003577565573451385 0.003369429119132927 -0.0013427270302529696
136 -0.0028037272664018483 0.0068468647651835635 0.006308158404358928
137 0.008403363966955478 0.017304683919906153 0.028264359726014782
131 -0.006911381786102851 -0.004572461281599745 -0.0014453068101575274
138 -0.03653503705693028 -0.00013734710405232504 0.013251197262575523
865 0.00884557786339916 0.0011981791955452915 0.00011662182721117736
497 -0.001388404545669786 7.529790837929256e-05 -0.0073626413151171325
206 -0.00473185973346294 0.006073941329398958 0.0005241618632932489
502 0.0005323345550520453 -0.019734356804585268 0.014021945721050824
498 -0.003583512402740389 -0.006178494033765331 0.0035723978070177167
866 -0.0020482388259187093 0.006199837001070625 0.013908257234130505
808 0.0052241344529704095 -0.004737626396072301 0.004547709397521286
873 0.01946998592043758 0.030405649032072865 -0.009075223307530475
815 -0.028100498846052074 -0.03146068649716466 -0.008324110804623973
810 -0.001494257174796362 -0.004148466511562935 0.006136394450849122
571 -0.010581278082970035 -0.012080719250082795 0.026224301628556837
814 -0.0009414305688474206 0.0142232724420721 -0.008325398051504895
816 -0.00660234522860066 0.0012193196482206 -0.01643207171231763
342 -0.005512117629480712 0.006812279444938288 -0.0017953714661241272
809 0.0029416513205687425 0.005590529192785004 -0.0031289038524887885
807 0.0005226443739014927 -0.004043685538337129 0.0027459427839945814
996 -0.006062103149548965 -0.0020974310905836875 -0.005468873755070179
678 -0.0024439040252069682 0.006188236484840584 -0.002742919468933594
677 0.0024373229007654427 0.0043310335573008615 0.0009024494833999923
682 0.008277534014848712 -0.01805089733054948 0.002327530725937314
999 -0.0023313407026562655 -0.0029648207008654832 0.0014072850726243172
444 -0.025617254655362274 -0.001822322997833252 -0.005132166483428707
40 0.0018064201420263724 -0.004444237454061676 0.02138380539177617
503 0.01617184817739653 -0.03852040950142627 0.009205066251483998
84 -0.005525298435406363 -0.01061713446017271 -0.001851252336972315
683 0.02456368437166172 -0.018327950524092262 -0.010633849152165415
39 -0.013211663569982664 -0.005842559093418354 -0.0006399992206884448
32 0.0006717572248695153 -0.006420656065892792 0.0052754632205872344
684 -0.006017338700757284 0.014359362100256207 -0.011371593239047155
708 -0.004537790227641414 0.004401494846145489 0.001984902633557059
871 0.009406273500976194 -0.014733963672775748 -0.01029222253105257
438 0.005143090565130309 -0.004788844244435803 -0.003546871538965188
443 -0.018574659272431186 -0.00947710562228445 0.0030705714438701284
568 0.005371831160024924 0.0029759208449880213 -0.0027250977864865405
563 -0.007274844751033956 -0.020637065605572477 0.017138336546426478
139 0.0036497649258341166 0.029629197298389535 -0.01988140676142866
346 -0.012285725394411317 -0.014713786794538549 0.01002421145181118
400 -0.0055675526682831405 -0.00020925217326603715 0.005306005843990632
998 0.0020642859099803137 -0.002631101969245044 -0.006020151406375909
915 2.082381188771049e-05 -0.0018507003497770964 0.0011975838141871182
208 0.0016813104754721283 0.033264402230740876 0.003351140293411206
442 -0.011978806366408648 0.007061640794752247 0.011740957270925431
504 0.0027324399677639997 0.01849384264456793 -0.005434174052566275
437 0.003851055152957509 -0.003268756298816241 -0.0036742754125203376
782 0.0008456335545774966 -0.008942333996145592 -0.002927208555363021
867 0.0035133761709481345 0.0030481938604113596 -0.0003854504359777725
868 -0.00222335609546227 -0.0005613235167853846 -0.011417254540651069
38 -0.0067686214068677945 -0.013804889519009463 -0.014084138064115665
31 0.009286420349641203 0.0036553116110098396 -0.0032361160852411638
348 0.007776553876611777 -0.010396322802738727 0.006688150517136947
33 0.0010178362640348546 0.0038618804918059543 0.00354136474038174
436 -0.0026279941912822472 -0.0017792513539620224 0.0028314926831371615
675 0.002390382787654503 -0.0037361946191986116 0.0018139127762217095
676 0.0018214554274862981 0.0007711071249227421 0.004524617127175959
957 -0.022338383377154606 0.0037264645488348197 0.007453435495469899
555 -0.004008433076919854 0.00013200268614760075 -0.0005806941695555527
885 -0.0017975415092337528 -0.0024726702238668176 0.01763452502615893
878 0.0029738929668896314 -0.0030567386295926435 0.000597295608503555
558 -0.0005432478734341065 0.0006773118032174513 -0.0005619934685432519
916 -0.0017702545376556441 -0.00264025449118773 -0.004285137522622582
914 0.001930619490480299 -0.004918892717727922 -0.00342854306468778
933 -0.0031318823624509324 -0.0067906972121547175 -0.0039457846117746985
338 -0.0017259512988492367 0.0011511885949422335 0.0035865489768744955
11 0.002052292121749579 0.005378244702320141 -0.0007574376231724822
340 0.0017073260666341378 0.004096709282586069 -0.0010950329062512291
42 -0.010296016379944437 0.0026712207904715972 0.0023230577882193755
82 0.0038996888647934006 -0.005406453610495291 0.00024183999006878129
869 0.012383507959405014 -0.0027568051367501023 0.0002597506718669435
90 -0.0033922146129831826 0.0009652254785025205 0.0012417394675856746
924 -0.008650404038814605 0.002020916159148619 -0.00032873379486733265
935 -0.011067432235672562 0.00513356708915121 0.00578507321975004
86 0.005428817227008012 0.003471075865415408 -0.001527684820235273
210 -0.010801096184553112 -0.005555651181672943 -0.0154127841951559
700 -0.0052735735945844495 0.0025318905241394052 0.004310594140239232
478 -0.015278906902892086 0.007933636525114574 -0.0002055313897228279
877 0.010279599360325613 0.003179314836135806 -0.0006912399074137829
680 -0.0028844703722660054 0.002914127931146438 -0.023943686728171376
658 0.008064318999178692 -0.009480150706704205 0.002290762307548674
926 0.0028328511203575906 0.002207596087620499 -7.277408925247591e-06
703 0.0034456771933883846 -0.003020331017183484 -0.0035280906491206485
674 0.0024185249450001524 -0.006735712786157045 -0.004835810133250637
205 -0.0011602824981446365 0.005270820043250337 0.005868722901863122
37 -0.0048533890602973 0.014648702215550948 0.004698977840452862
408 0.013773265146539683 0.005644258082288923 0.0195552538096041
557 0.0076482091849785615 -0.001327225065179044 0.0007996196340968418
918 0.0034546491906008846 0.0005617392177254155 0.004452861003655337
439 0.004337655029233362 0.013230656851610987 -0.010488441595818444
88 -0.007490568362693118 -0.003118145395428972 0.03532435516199238
874 -0.012888593919325156 0.0077252302316839295 -0.004348249399807106
81 -0.002402921626314336 1.2972481427271052e-05 -0.002587051189344416
34 0.0005413773758214189 -0.004254683699429442 0.0012207944915013774
564 -0.010428378358071012 -0.001292097351659499 -0.0011120132632931913
659 -0.024271482411456255 -0.02234297786782103 -0.01795216464368869
441 -0.0054116874189912186 0.019340566686070097 -0.007757284210596158
913 0.0051525566310067035 0.0018935272278151724 0.004097943463294172
679 0.03468108812299796 0.003579949006352081 0.0019122812361583746
347 -0.0006745105173056754 -0.014805835933029355 0.0005983815452731203
556 -0.0006104265170474225 -3.164866318669898e-05 0.004024512840879712
923 -0.005380223972330947 0.009656129093347347 -0.0062698577170762415
87 -0.020235735093563256 -0.016993956671340245 0.011668194501360765
922 -0.0037260334506010197 0.012520809071387529 -0.029957129554248355
654 -0.003706403570386045 0.003726851247432301 -0.0027908331954474104
673 -0.0012263680571986237 0.007535118300472509 0.0017952907096731854
36 -0.005691357869431191 0.007972766930566132 -0.001558326427451883
697 -0.0025498452477847005 -0.005544053712514632 -0.001278645398396195
417 0.04181310448478783 -0.013489385405030613 0.01800044290309745
35 0.0014151625500835533 -0.0014427069939370045 -0.008183901623033321
705 0.006655489869929976 0.019836169058982077 -0.017168971820508052
929 -0.005666030868128481 -0.004354895675521151 -0.0016360794978114968
433 0.0041056313350440205 0.006276567579621541 0.0017771242835936528
660 0.01296213543539627 -0.03723971076440288 0.007350829780643097
435 0.0007743094006084016 0.004147286437142228 0.0007456837747278531
681 0.008411469230986193 0.0052029787416799315 -0.00880167443468718
440 0.009648951963554333 -0.006092182020610281 0.019114056846068653
927 -0.0033198033740664276 -0.003211240550662814 0.00011870626963289641
339 0.0009018975702200587 -0.0021912886882695577 0.0007609048303500557
653 0.002440996210540983 -0.0020021094959741066 0.00013428163979256505
917 0.0052605297760553345 0.0031683373323374967 0.000958862187161968
341 -0.00387137870536699 0.0053907677080161035 0.0006438916078300206
562 0.006168706057123809 0.006855714513576785 -0.005630495902427799
434 0.004824096941672285 0.000778165775084214 0.0031755824689759507
796 -0.0015411157622661998 0.005353874367100336 0.002200524629429865
410 0.0040724602099494155 0.0005971929446747983 0.0016176618414262842
518 -0.0013386379371403067 -0.0014013180835199355 -6.019930000483433e-05
416 -0.0001328629436181557 1.1211413601587832e-05 0.0033542941930362917
45 -0.0008063942959538252 -0.007445688272818647 0.0046680107221177694
919 0.016480632674236485 -0.030555889486900762 0.0074248195460069125
201 -0.0021601114939820425 0.0028484201526439903 0.0004789429884798897
480 0.008265505582904023 0.028590448568405057 0.017849461586726022
404 -0.01134666519900785 0.004072372923748717 -0.022857427988511897
405 0.0005292824445929347 0.006429375246865334 -0.01488481883948609
44 0.000876950465210251 0.0002628459390612292 -0.0004753925788221608
473 -0.003154473238264708 0.009052957887594939 -0.0005501340689773534
905 0.00487369477646765 -0.006805199128152623 0.007589332258544363
398 -0.010120693718683543 -0.00015709127147821409 -0.0015654178163554652
783 -0.000578328996833137 0.005024262603758665 0.002851059900346835
870 -0.004486554804352837 -0.0029095211687538785 0.0006661019401709475
669 -0.0024467912316712913 -0.006782085236347042 0.0014593509327275361
908 -0.014495200713915163 0.031899883726855385 0.025427006341138234
902 0.009832805101062284 -0.001583869191850858 0.0069861508905960865
785 -0.011392163159692069 0.005604969162232851 -0.006015597953062866
203 0.005234247018646441 0.00241882612688704 0.0006551142587289325
907 0.012012580252708962 -0.006085361915664568 -0.013425663361396412
140 0.0009232200315338671 -0.02948358561938408 -0.0021091860236782545
554 0.005330234734664377 -0.001902434076190023 -0.00504128695705618
491 -0.015361570034423407 -0.0029749076727717248 -0.025668232867715423
303 0.0020319246360947117 0.0008750276573357117 0.008500839451738537
469 0.0070655434508031375 -0.0037060682805037885 0.002421322285834759
302 0.00569346694504219 0.004903465711756067 0.0012970135704291784
309 -0.02929880660467145 0.009651373094681934 -0.033756771421441234
308 -0.019541318721960934 0.020158736518266294 0.033316575804195864
301 0.004795429283342442 -0.0005718275779610888 -0.007882430827173024
305 -0.001010957560973691 -0.0009643756441587661 -0.0005186923701190479
304 0.0023305662328567175 -0.000784506950828684 -0.0012611783498970386
360 -0.001121646432370637 0.013748598442965783 -0.008554121252245176
354 0.003420411053567877 -0.004531651933250925 0.0019550849437088686
880 -0.006994342053416066 0.003527976462097935 -0.0023837197506086983
312 -0.017662066765450096 0.005592181607664343 -0.023859565144245014
353 -0.0007826766855539572 0.006773590263073709 -0.005012802321082978
352 0.0012954396752057565 0.006270576640916308 0.003422638356054546
306 0.002277123291772168 -0.00726196054982096 0.010758290777782335
351 -0.0028800916358186694 0.0040565938688190434 0.0003037841699031658
350 -0.0008802602319093967 0.0007637040996542118 0.005658580447910196
311 -0.004473551094781378 -0.018126974766348114 -0.015301301334260517
310 0.008446854871809755 -0.019725222466989392 1.0003657210401733e-06
355 -0.026814990332872834 0.007849415365728942 0.009167202730018845
477 0.010027914060193205 -0.042644795108112296 -0.009594044157230105
279 -0.0023297745496492946 -0.02966390516339282 -0.011714106146962467
186 0.0018613757950527946 0.005166936459945206 0.0015573078827582146
307 0.019140440951743505 -0.007474044114364432 0.01445920008954782
184 -0.0014213018973558537 -0.00284404347399134 0.004323985079182396
183 0.005707406225009523 0.00346100016836214 -0.000728514299962642
349 0.0022987669660912945 -0.0058948607815653455 -0.008248656642446062
476 -0.016243068933837413 -0.03078259323254862 0.015894539625359826
171 0.00786169397533557 0.007393326390304305 0.003032076884864643
181 -0.004799087781547983 0.0027415104883770167 0.006295477506283246
179 -0.005049791248673776 0.0057308436378479665 -0.03085562895163781
172 0.0028220459824934005 -0.0026119827837807544 -0.0021224997277652573
182 0.00013920809606604795 -0.0007137436417102837 -0.0023342521168205513
277 0.00895835348191564 -0.0008175960669755084 -0.012653666778708774
271 -0.00793594809391182 0.0018460128955881004 -0.006684663091316049
272 -0.0025400393687708377 -0.00593728880578543 0.006150045059870466
278 -0.03860080649482965 0.036263956597797645 0.012398087083955945
471 0.0012428595880723922 0.0074010221859957355 -0.007421094098142382
475 -0.013195576292198221 0.015865781735579107 -0.041775759745233045
190 -0.019836981866837685 -0.023814617336622042 0.0009898390207013447
189 -0.02873043530402367 0.012206808744538694 -0.0022141704947594666
185 -0.0012901573868590128 0.004172616933038261 -0.004468327156402592
879 -0.0035334125805504524 0.0007068560163466255 -0.00425196623769302
900 -0.0036638576209984458 -0.005739947467734613 -0.010866177579729196
894 -0.0050150026105257525 -0.006504229850027117 -0.0066442910797632065
289 -0.007263915365271689 0.004845204719787026 0.002149877940678349
188 -0.013748863985601737 -0.0063885737837275644 0.007405682968917264
280 0.02757527312286011 0.020498636084699054 0.04415393869480074
283 -0.012442570499060156 0.004747739639329942 -0.001275243705795059
173 -0.001207149996244178 -0.0001487442965551064 -0.003842786173630423
788 0.015655510920370645 0.014004947555373974 -0.012262556408186034
899 -0.011581448035535544 0.005729000930786715 0.009213145096838881
470 0.00572494846574872 -0.0027232729757487987 -0.001961445328383742
46 0.006701275651474611 -0.0018241022458018782 0.0032057962233829848
177 0.004943346348972647 -0.021862620189443627 0.02106699599181064
925 -0.002555068970528092 -0.00025500924061745093 -0.007501436991074535
187 -0.006748907029967327 0.020320041038714876 0.023424622628707748
47 0.030214557267925848 -0.0110699191186042 -0.027115745831645572
180 -0.020601758728532517 -0.028082137212885515 0.02639913694866294
893 -0.002052878314924956 0.003669083923831124 0.0011667745760161154
898 -0.0001164715346615849 -0.011585366116083896 -0.031614753649588795
485 0.004280174093261493 0.005083730221653848 0.005679606529900174
284 -0.00346105337857205 -0.0012750565871938898 -0.0017193221096076536
41 -0.004402624808514315 -0.003029904926286053 -0.0019700919404863747
48 0.024013609927958528 0.005272621612947363 -0.015675673428059395
285 0.0006135815320869205 0.001095344510923929 -0.00619710618013775
276 0.0002599047793670928 0.005639098384708605 -0.00024857819656024617
687 0.0054119085118097335 -0.01061295248795345 -0.005542889889382021
781 0.0012746135539902707 0.000913061993557596 0.0028091342617822773
175 0.0007917532848424273 -0.007977041683135523 -0.003730726939573381
359 0.0005467709816870565 0.004834963061283641 0.006848418898293154
789 0.012338773561105291 -0.04147250197910828 0.006715562334262311
896 0.01724052466515882 -0.007008742703481183 -0.021220055513438654
178 -0.020135032720840575 0.021478496142242776 -0.010997346537218832
483 0.0030697194694977504 0.0012947512595280872 0.00038066193300552247
273 0.009562694477428985 0.003569151864776851 0.007006446916983585
429 -0.008606703285579744 0.02188091872099764 -0.010523582114811234
211 0.0039510352997899 0.00735544867694626 -0.00818191625217005
28 -0.011175878677871858 -0.011783746703656964 -0.0027760665767360615
357 -0.010565050603917981 -0.005467810785567115 -0.009081908461740278
472 -0.0012550588469996823 -0.0009620176488736738 0.001267486772852101
130 0.00174782440113312 0.0036675908731347105 -0.014549297890862699
932 -0.021306249616197617 0.0018468833548439191 -0.017295482271517466
116 -0.0038376526640398778 -0.0037834159379624512 -0.00376979304466992
356 0.018083124667638506 0.007489357481059297 -0.004926634515534228
412 -0.0021118462651066802 -0.0028512634580504905 -0.00024809558794585426
891 0.003293536327590561 -0.00024368895227277023 -0.0016627058740044647
890 -0.0011829698374160266 -0.0015040053684937838 -0.008176089540217944
524 0.006337099331365285 -0.008025719976620323 0.012343380283013978
561 -0.021640184898076904 0.02045046686010873 -0.001851947025677653
161 0.005258649962558044 -0.0038294155847875618 -0.0036166667686446012
958 -0.0018113874998692365 0.015215005582883861 0.013900334510613222
134 -4.852215410033921e-05 0.0017917733631206856 0.00373413775368077
959 -0.04171234731134342 0.012904511764994927 0.006242412760117533
295 0.001947559158164778 -7.917700139853746e-05 0.002155247148860572
296 -0.00443896685506992 -0.003958076339394756 0.0038244367883824783
954 0.00533511176427747 -0.002959804316895748 -0.0038894356654370567
895 -0.02320911751821405 0.0037677891700412898 -0.01942217713649842
892 0.006645463376907317 -0.007693735410497332 -0.003908886035056486
863 -0.009889777219044235 0.016180170646553332 0.008341874850948566
217 0.0034080172916987382 -0.002418570422565558 -0.0011443364047320562
897 0.004472434828253551 0.004241720879719074 0.013106789493216649
293 0.0037716536049653103 -0.002046621272462336 0.00420007323524227
755 -0.009072559423057245 -0.014342165494145786 0.0024207123212017833
534 0.0014219212742714229 -0.009725984876725274 -0.0024285188660889386
991 -0.001997207318928296 -0.0016705034726239231 -0.0070309562424474975
540 -0.025181535850697247 -0.025316907023110735 -0.00864957671077383
756 -0.014194011318177158 -0.0011659666173222411 -0.020089841576011052
750 0.0005727068003677127 -0.0027750800121277897 0.003987689207751095
536 0.018998994961750112 0.017492393494815385 -0.014292694535749892
530 -0.0025685917118169928 0.002867696598091985 -0.003165948539969495
533 -0.0032223710372251677 0.0033179541792236027 -0.0024209572334844428
537 -0.0048090042136206875 -0.029576548786681256 0.021000108594665053
529 0.003954512077118331 0.0053073185336813 0.001245882953699507
535 -0.013906931004716882 0.025181066713162722 0.015326352680430005
531 -0.006502878492826193 0.004929622576369406 0.005357255102881815
749 -0.0016534507315697198 0.0014783431849689124 -0.0007188773345729994
754 -0.012391202254710429 -0.006278590742940098 -0.0008565674670863422
532 -0.009410759023786542 -0.0012278137595378067 0.00159996792435384
856 -0.003354509550699925 0.004499737072184694 0.004127342484449648
748 -0.0017077862560288947 0.00740161216579417 0.0026330716066566154
747 -0.0024525083882772857 -0.006639521098989996 -0.0012710175588545123
979 0.002412460649112976 0.004665678517356378 0.0019067982656338937
165 -0.0010841835215079794 -0.006546278637208987 0.0006473318236262516
164 0.0016022839575127025 0.00043107283828695673 0.004827013635008481
746 0.00029456062959937147 -0.003799721503408707 0.00753633249620376
745 -0.0017700938888737957 0.0020303315200555037 0.0007641378261892736
751 0.018579439898416653 0.006757766789286475 -0.013895894305319493
857 0.010398408099033666 4.015546687067452e-05 -0.0003325386398270477
855 -0.009661781455379841 0.004568763572625171 -0.001018983327956398
858 0.0016697412640320224 -0.004586200411042388 0.0007170946392923112
864 -0.01095262136154229 -0.002304529311652992 0.019169025652413588
862 0.010178684847643173 0.01994815013141608 0.0020458704367920474
294 -0.00023391293673650132 0.0003435463781032798 -1.1689356784307504e-05
539 -0.020350054855894112 -0.027520859958477386 -0.0036430810001924
994 -0.004779051907910995 0.0003981403013001318 -0.004556131289264844
951 -0.006307583934798571 0.00021928280768687637 0.004965959420079328
952 -0.0024765647155278315 -0.0013030660182168237 -0.002524080326036347
993 -0.0022779435265733315 0.004605439106919285 0.0012853050884217745
992 0.0022122403244890553 0.0020702285708881947 0.0032504768765936804
753 -0.016826200085957657 0.009285019525229815 0.007790335501858895
854 0.0014886044856428225 -0.003692229776603382 0.0051957761075376975
859 0.011933737161660008 0.020118620544472155 0.013899518104010388
861 0.0014131640129748026 -0.009993800213877317 0.01664272041391247
853 -0.005542642179327954 0.0035509165054056495 0.0001752853030687674
889 -0.001036216966751607 -0.0021548249466178176 0.00043122165683345603
166 -0.0009931979619860986 -0.006731747948894846 -0.0019735477584266244
953 -0.002082019975560849 0.0006668659144465614 0.004803031316695189
960 0.005302342628769682 -0.013460513481672742 -0.004389069734048956
860 0.002869146869962968 0.01949653930347746 -0.016105347068827477
752 -0.0025010872598918866 -0.00047565479312719093 0.021865332722480292
167 0.007943785468729737 0.01806325397292417 -0.0016088397678671895
163 -0.0049971953674072455 -0.0017018268845051857 -0.003079427420988144
133 -0.007545860680098084 0.007478840847654684 0.003975877974791377
538 -0.021824634895679387 -0.01799699365094418 -0.007976180814920275
949 0.0012217981587287177 0.011571820387329637 0.0033892049106763076
418 -0.0018436563671456988 0.0031747286070791148 0.013165257462899562
219 0.0022062112997383435 0.022905366668224104 0.013728148941378448
430 0.006332230793664909 0.010748800166679697 -0.013201893870407364
85 -0.005660035879730465 -0.0005302970470639838 0.0007411071430443352
950 -0.0012322350274079604 -0.000424672189525154 -0.0003572681592350841
212 0.0035442697960273604 -0.0017870967182093606 -0.005809057122989666
174 -9.911473515407496e-05 -0.004832652255017304 -0.0008026909618630879
135 0.0009989659929980884 0.0045687875521716725 -0.001369990117094674
255 -0.004631674009749499 0.009177404793652472 -0.005343833731588095
787 -0.0029887160700593214 0.004413363041848499 -0.01925156535837699
694 -0.011069415723694359 -0.02342282784544054 0.011566379789980558
220 -0.010086780284618933 -0.03302478291161694 -0.0005120087630436324
804 -0.011179477643669236 -0.011122607074022527 -0.004168468702023791
689 0.0008826082691667078 -0.006074822411965436 -0.001225460887623429
117 -0.02203126824744809 -0.005475109235580833 0.0099805809314784
736 0.004389274767715561 -0.004429067693015592 0.0011337557043153434
553 0.005382245638775176 0.004035542881041662 -0.0026158574933354555
125 0.002212703052745747 -0.006410792078733001 0.001554300304791794
176 -0.0041795890413846674 0.005023576619242745 0.005571222896872085
990 -0.006204448320179685 0.0018234762379684066 -0.009162138624961689
432 0.015912127209900564 0.004182181662737342 0.00566135004818755
426 -0.0028211770911394816 0.003696980020735356 0.004209816698510787
162 0.003148951364403211 -0.0022804853648840107 -0.0059428849404087
931 -0.014691481689888299 0.026299443970328493 -0.00971894996116983
169 0.0290264659503707 -0.01324436040567678 -0.01487304589100947
983 0.0011818992075905428 -0.0016402453688894086 -0.0012302941796348728
881 -0.003646548910729262 -0.0016121985239680333 0.008858980106099175
127 -0.0218567231880165 -0.03203348526312985 -0.025971966727336152
887 0.005783191979116949 0.00909539447586276 -0.007990260815168567
482 0.004641984872321685 -0.004690149350568314 -0.006052541846662478
274 0.0007487663475823946 -0.0030416500462653916 5.646797597747303e-05
275 -0.0001671417531223777 0.005191652563033692 0.003596247688437044
560 0.009717369288241557 -0.007728567237182492 0.004235781376414019
489 0.00801717941309341 -0.004619400796101829 -0.020225977743473077
1013 0.003295423501446709 0.006517284774931324 -0.002089522588216862
737 -0.006082132891706418 0.002234466586464414 -0.000895915170961605
413 0.0003931852358862295 0.0024383572704378665 0.004354356547129557
411 -0.012524537080542622 0.002082694322017469 -0.005333873454637682
487 -0.008973858427059948 0.02523747065387202 -0.010185979255187803
742 -0.013521487711905691 0.0027572962435848314 0.004711844609849369
121 0.008421794508573912 0.0006709431140683634 0.004858808266207083
124 -0.004416990798662407 -0.0012129312936759544 0.0005455055710239878
984 0.004468564982503264 0.0017955646169730457 -0.0018476378095818508
695 -0.003638497443657077 -0.015564045281069276 0.01092927781689502
734 0.005316864493937489 0.0008688323735470435 0.0017574361543967608
419 -0.024565796877800306 -0.0222020261166118 -0.018840676756078475
414 0.010315438971286015 0.002167432845727784 0.002117339867193053
118 0.01633925108276136 0.004495811017002514 -0.0005677864447163042
733 0.001944024356754193 0.002629206171502923 0.0025568880033257553
738 -0.005876740350288537 0.001326326262042181 0.00022406993913307667
882 0.01179793360379469 0.00014733937802015817 -0.000385943896139278
113 -0.004148846002888725 0.00392126119443199 -0.0034861955254390487
484 -0.002521211936062601 -0.0017923444942014122 0.0007832561486069711
740 -0.005227811018778448 0.009382420458597742 0.0032487243288239365
981 0.003738668611402442 -0.005347823380983706 -0.004966965404404706
425 0.0011749539438337428 -0.006574906450522509 -0.003154474355088958
422 -0.007452097721652106 0.0026724512840769175 0.00016046664430913117
123 -0.004704611706558778 0.00012554767084414515 -0.001452895479720495
696 0.014857635537531349 -0.0016603218031165307 0.01821252123971263
690 -0.005603570516142928 -0.00022603915527517852 -0.00040196865938756175
128 -0.0135654627757996 -0.010098760929583606 0.008250385972917215
982 -0.001677104163397707 -3.484408832382031e-05 0.003761729429733958
420 0.02351967621018987 0.002328172648274583 -0.009635520808232401
1014 0.003916761161538054 0.0007271960994386052 0.002051615647482899
112 -0.00555711086688629 -0.005988007075162941 -0.0022695253315338114
488 -0.021343243276294867 -0.025043684820573058 0.008856722133628207
886 -0.020924432213982012 0.010278632693618587 0.011906141465402573
739 -0.0073187041002688484 0.014267683532171085 -0.012863318757206543
888 -0.035450892138683084 0.012190486582815406 -0.007612087355185993
120 0.006298656211809889 0.0016942597576332713 0.017335484417485086
1012 -0.003297173751601113 -0.0007924106832584245 0.0011945933173605912
111 0.00039364649491982473 -0.004811203698052374 -0.0023088097882394366
976 -0.00212665042317523 -0.001596263136056401 -0.004233044150288667
119 0.004707514367287639 -0.009787339643014606 -0.013753410335704451
735 0.001769432437131186 -0.0008589900719874655 -0.00644931003633258
481 0.0021845884301072214 0.0006339221564127232 -0.003995324010581857
741 -0.003125815222152844 0.012050258034772127 -0.011403557196747053
431 -0.0004178889396793296 0.03546948368338321 0.0028461927461813506
126 -0.002378066856316347 0.0017012151234057178 0.0032193197108791247
424 0.001294264579071966 0.0028376393667529057 -0.004292326686513717
83 0.003210416320318838 -0.003829455084519628 0.0023945849214723454
744 -0.015019824340584152 -0.012585130144857064 -0.003818413657558831
743 0.012761693537108779 0.02396092633793091 0.0069559677064536885
980 -0.002651618113513178 0.001421033810519696 -0.0012890348821383193
423 0.0015924811672237771 0.0010401978258696115 0.004547187060054269
559 -0.004141639347057478 -0.014532012335522025 0.00014636775705050118
170 0.0023676336532252457 -0.009527863385165626 -0.0005948020240975799
1011 0.0014625284963835409 0.0015624343205969623 -0.001361526313062904
1010 0.0025854105004279667 0.001386944482529499 0.0015267975211069947
686 -0.0027955791540603694 0.0026354934295391044 -0.0028727230557722317
110 0.028493592499767652 0.0026697128138451244 0.0162729520879877
911 0.009039298066546799 -0.013152802557451868 0.03859292993325173
168 0.014470219358898246 -0.005473901780203435 -0.014554388975500137
955 0.00946076808630011 -0.003043307304169352 0.01048270487571011
109 0.03339759480911589 0.027704796184790905 0.027296252195859537

Bonds

1 6 986 987
2 6 986 988
3 6 986 989
4 6 985 986
5 6 1006 1007
6 6 1006 1008
7 6 1006 1009
8 5 903 904
9 4 903 905
10 5 711 712
11 4 711 713
12 2 709 710
13 3 709 715
14 3 709 716
15 3 709 717
16 4 710 711
17 2 769 770
18 3 769 775
19 3 769 776
20 3 769 777
21 5 387 388
22 4 387 389
23 2 901 902
24 3 901 907
25 3 901 908
26 3 901 909
27 5 939 940
28 4 939 941
29 3 318 322
30 3 318 323
31 3 318 324
32 4 770 771
33 2 601 602
34 3 601 607
35 3 601 608
36 3 601 609
37 2 62 63
38 3 62 69
39 3 62 70
40 1 61 62
41 2 61 66
42 3 61 67
43 3 61 68
44 5 144 145
45 4 144 146
46 4 386 387
47 2 385 386
48 3 385 391
49 3 385 392
50 3 385 393
51 2 713 714
52 2 937 938
53 3 937 943
54 3 937 944
55 3 937 945
56 5 771 772
57 4 771 773
58 2 317 318
59 4 938 939
60 3 906 910
61 3 906 911
62 3 906 912
63 2 773 774
64 1 71 72
65 2 71 76
66 3 71 77
67 3 71 78
68 3 774 778
69 3 774 779
70 3 774 780
71 3 390 394
72 3 390 395
73 3 390 396
74 2 361 362
75 3 361 367
76 3 361 368
77 3 361 369
78 5 795 796
79 4 795 797
80 5 519 520
81 4 519 521
82 4 63 64
83 4 193 194
84 1 241 242
85 2 241 246
86 3 241 247
87 3 241 248
88 4 243 244
89 5 244 245
90 4 244 246
91 4 13 14
92 2 192 193
93 3 192 199
94 3 192 200
95 1 261 262
96 2 261 266
97 3 261 267
98 3 261 268
99 5 264 265
100 4 264 266
101 2 242 243
102 3 242 249
103 3 242 250
104 2 961 962
105 3 961 967
106 3 961 968
107 3 961 969
108 2 232 233
109 3 232 239
110 3 232 240
111 5 64 65
112 4 64 66
113 4 962 963
114 5 963 964
115 4 963 965
116 2 965 966
117 1 231 232
118 2 231 236
119 3 231 237
120 3 231 238
121 1 191 192
122 2 191 196
123 3 191 197
124 3 191 198
125 5 234 235
126 4 234 236
127 4 233 234
128 2 262 263
129 3 262 269
130 3 262 270
131 2 12 13
132 3 12 19
133 3 12 20
134 3 966 970
135 3 966 971
136 3 966 972
137 2 389 390
138 3 786 790
139 3 786 791
140 3 786 792
141 4 362 363
142 4 263 264
143 3 834 838
144 3 834 839
145 3 834 840
146 2 401 402
147 4 326 327
148 5 363 364
149 4 363 365
150 3 522 526
151 3 522 527
152 3 522 528
153 3 582 586
154 3 582 587
155 3 582 588
156 2 373 374
157 3 373 379
158 3 373 380
159 3 373 381
160 2 605 606
161 3 594 598
162 3 594 599
163 3 594 600
164 5 327 328
165 4 327 329
166 4 602 603
167 1 141 142
168 2 141 146
169 3 141 147
170 3 141 148
171 2 793 794
172 3 793 799
173 3 793 800
174 3 793 801
175 2 329 330
176 4 830 831
177 4 374 375
178 2 377 378
179 2 365 366
180 4 143 144
181 4 698 699
182 3 330 334
183 3 330 335
184 3 330 336
185 5 699 700
186 4 699 701
187 2 325 326
188 3 325 331
189 3 325 332
190 3 325 333
191 2 833 834
192 3 366 370
193 3 366 371
194 3 366 372
195 6 1005 1006
196 2 701 702
197 3 702 706
198 3 702 707
199 3 702 708
200 3 606 610
201 3 606 611
202 3 606 612
203 5 603 604
204 4 603 605
205 4 3 4
206 2 202 203
207 3 202 209
208 3 202 210
209 6 1000 1001
210 2 142 143
211 3 142 149
212 3 142 150
213 3 378 382
214 3 378 383
215 3 378 384
216 5 74 75
217 4 74 76
218 2 829 830
219 3 829 835
220 3 829 836
221 3 829 837
222 5 375 376
223 4 375 377
224 6 1001 1002
225 6 1001 1003
226 6 1001 1004
227 5 831 832
228 4 831 833
229 4 794 795
230 3 402 406
231 3 402 407
232 3 402 408
233 5 14 15
234 4 14 16
235 5 54 55
236 4 54 56
237 4 53 54
238 3 510 514
239 3 510 515
240 3 510 516
241 2 509 510
242 5 94 95
243 4 94 96
244 1 91 92
245 2 91 96
246 3 91 97
247 3 91 98
248 5 507 508
249 4 507 509
250 4 506 507
251 2 92 93
252 3 92 99
253 3 92 100
254 4 93 94
255 4 23 24
256 2 52 53
257 3 52 59
258 3 52 60
259 5 24 25
260 4 24 26
261 2 545 546
262 1 21 22
263 2 21 26
264 3 21 27
265 3 21 28
266 2 22 23
267 3 22 29
268 3 22 30
269 5 723 724
270 4 723 725
271 1 51 52
272 2 51 56
273 3 51 57
274 3 51 58
275 2 505 506
276 3 505 511
277 3 505 512
278 3 505 513
279 3 726 730
280 3 726 731
281 3 726 732
282 4 578 579
283 2 577 578
284 3 577 583
285 3 577 584
286 3 577 585
287 4 253 254
288 2 252 253
289 3 252 259
290 3 252 260
291 2 449 450
292 5 254 255
293 4 254 256
294 2 725 726
295 5 194 195
296 4 194 196
297 2 721 722
298 3 721 727
299 3 721 728
300 3 721 729
301 3 942 946
302 3 942 947
303 3 942 948
304 1 291 292
305 2 291 296
306 3 291 297
307 3 291 298
308 2 625 626
309 3 625 631
310 3 625 632
311 3 625 633
312 5 579 580
313 4 579 581
314 2 581 582
315 1 151 152
316 2 151 156
317 3 151 157
318 3 151 158
319 2 2 3
320 3 2 9
321 3 2 10
322 2 445 446
323 3 445 451
324 3 445 452
325 3 445 453
326 2 152 153
327 3 152 159
328 3 152 160
329 4 722 723
330 2 461 462
331 4 153 154
332 2 845 846
333 5 214 215
334 4 214 216
335 5 154 155
336 4 154 156
337 5 224 225
338 4 224 226
339 3 846 850
340 3 846 851
341 3 846 852
342 2 589 590
343 3 589 595
344 3 589 596
345 3 589 597
346 5 591 592
347 4 591 593
348 4 213 214
349 4 590 591
350 5 843 844
351 4 843 845
352 2 222 223
353 3 222 229
354 3 222 230
355 4 223 224
356 1 221 222
357 2 221 226
358 3 221 227
359 3 221 228
360 4 842 843
361 2 841 842
362 3 841 847
363 3 841 848
364 3 841 849
365 4 458 459
366 2 941 942
367 2 122 123
368 3 122 129
369 3 122 130
370 2 593 594
371 4 73 74
372 2 457 458
373 3 457 463
374 3 457 464
375 3 457 465
376 1 1 2
377 2 1 6
378 3 1 7
379 3 1 8
380 5 459 460
381 4 459 461
382 3 462 466
383 3 462 467
384 3 462 468
385 5 447 448
386 4 447 449
387 2 757 758
388 3 757 763
389 3 757 764
390 3 757 765
391 2 421 422
392 3 421 427
393 3 421 428
394 3 421 429
395 2 282 283
396 3 282 289
397 3 282 290
398 5 114 115
399 4 114 116
400 3 546 550
401 3 546 551
402 3 546 552
403 4 638 639
404 1 281 282
405 2 281 286
406 3 281 287
407 3 281 288
408 2 72 73
409 3 72 79
410 3 72 80
411 4 446 447
412 5 627 628
413 4 627 629
414 5 759 760
415 4 759 761
416 2 629 630
417 3 762 766
418 3 762 767
419 3 762 768
420 3 450 454
421 3 450 455
422 3 450 456
423 5 639 640
424 4 639 641
425 4 542 543
426 2 541 542
427 3 541 547
428 3 541 548
429 3 541 549
430 2 641 642
431 2 821 822
432 3 642 646
433 3 642 647
434 3 642 648
435 5 4 5
436 4 4 6
437 3 630 634
438 3 630 635
439 3 630 636
440 5 543 544
441 4 543 545
442 5 819 820
443 4 819 821
444 2 761 762
445 4 626 627
446 4 818 819
447 2 797 798
448 2 685 686
449 3 685 691
450 3 685 692
451 3 685 693
452 2 292 293
453 3 292 299
454 3 292 300
455 2 817 818
456 3 817 823
457 3 817 824
458 3 817 825
459 4 758 759
460 2 637 638
461 3 637 643
462 3 637 644
463 3 637 645
464 3 822 826
465 3 822 827
466 3 822 828
467 3 798 802
468 3 798 803
469 3 798 804
470 1 251 252
471 2 251 256
472 3 251 257
473 3 251 258
474 2 517 518
475 3 517 523
476 3 517 524
477 3 517 525
478 2 617 618
479 4 614 615
480 5 615 616
481 4 615 617
482 3 618 622
483 3 618 623
484 3 618 624
485 2 613 614
486 3 613 619
487 3 613 620
488 3 613 621
489 4 43 44
490 4 314 315
491 2 649 650
492 3 649 655
493 3 649 656
494 3 649 657
495 4 103 104
496 5 104 105
497 4 104 106
498 1 101 102
499 2 101 106
500 3 101 107
501 3 101 108
502 2 569 570
503 5 663 664
504 4 663 665
505 5 204 205
506 4 204 206
507 4 650 651
508 5 651 652
509 4 651 653
510 3 666 670
511 3 666 671
512 3 666 672
513 2 665 666
514 2 493 494
515 3 493 499
516 3 493 500
517 3 493 501
518 2 409 410
519 3 409 415
520 3 409 416
521 3 409 417
522 2 102 103
523 3 102 109
524 3 102 110
525 3 570 574
526 3 570 575
527 3 570 576
528 3 474 478
529 3 474 479
530 3 474 480
531 2 337 338
532 3 337 343
533 3 337 344
534 3 337 345
535 3 714 718
536 3 714 719
537 3 714 720
538 2 313 314
539 3 313 319
540 3 313 320
541 3 313 321
542 4 494 495
543 2 661 662
544 3 661 667
545 3 661 668
546 3 661 669
547 4 662 663
548 3 930 934
549 3 930 935
550 3 930 936
551 2 521 522
552 4 566 567
553 2 565 566
554 3 565 571
555 3 565 572
556 3 565 573
557 5 567 568
558 4 567 569
559 2 132 133
560 3 132 139
561 3 132 140
562 5 495 496
563 4 495 497
564 6 995 996
565 5 315 316
566 4 315 317
567 5 399 400
568 4 399 401
569 3 486 490
570 3 486 491
571 3 486 492
572 2 397 398
573 3 397 403
574 3 397 404
575 3 397 405
576 2 805 806
577 3 805 811
578 3 805 812
579 3 805 813
580 4 806 807
581 1 131 132
582 2 131 136
583 3 131 137
584 3 131 138
585 2 865 866
586 3 865 871
587 3 865 872
588 3 865 873
589 2 497 498
590 3 498 502
591 3 498 503
592 3 498 504
593 4 866 867
594 3 810 814
595 3 810 815
596 3 810 816
597 3 342 346
598 3 342 347
599 3 342 348
600 2 809 810
601 5 807 808
602 4 807 809
603 6 996 997
604 6 996 998
605 6 996 999
606 3 678 682
607 3 678 683
608 3 678 684
609 2 677 678
610 5 84 85
611 4 84 86
612 2 32 33
613 3 32 39
614 3 32 40
615 3 438 442
616 3 438 443
617 3 438 444
618 5 915 916
619 4 915 917
620 2 437 438
621 4 782 783
622 5 867 868
623 4 867 869
624 1 31 32
625 2 31 36
626 3 31 37
627 3 31 38
628 4 33 34
629 5 675 676
630 4 675 677
631 5 555 556
632 4 555 557
633 4 878 879
634 3 558 562
635 3 558 563
636 3 558 564
637 4 914 915
638 4 338 339
639 1 11 12
640 2 11 16
641 3 11 17
642 3 11 18
643 2 42 43
644 3 42 49
645 3 42 50
646 2 82 83
647 3 82 89
648 3 82 90
649 2 869 870
650 2 877 878
651 3 877 883
652 3 877 884
653 3 877 885
654 4 926 927
655 4 674 675
656 2 557 558
657 3 918 922
658 3 918 923
659 3 918 924
660 1 81 82
661 2 81 86
662 3 81 87
663 3 81 88
664 5 34 35
665 4 34 36
666 2 913 914
667 3 913 919
668 3 913 920
669 3 913 921
670 3 654 658
671 3 654 659
672 3 654 660
673 2 673 674
674 3 673 679
675 3 673 680
676 3 673 681
677 2 697 698
678 3 697 703
679 3 697 704
680 3 697 705
681 2 929 930
682 2 433 434
683 3 433 439
684 3 433 440
685 3 433 441
686 5 435 436
687 4 435 437
688 5 927 928
689 4 927 929
690 5 339 340
691 4 339 341
692 2 653 654
693 2 917 918
694 2 341 342
695 4 434 435
696 4 410 411
697 4 518 519
698 1 201 202
699 2 201 206
700 3 201 207
701 3 201 208
702 5 44 45
703 4 44 46
704 2 473 474
705 2 905 906
706 4 398 399
707 5 783 784
708 4 783 785
709 3 870 874
710 3 870 875
711 3 870 876
712 4 902 903
713 2 785 786
714 4 203 204
715 4 554 555
716 5 303 304
717 4 303 305
718 2 469 470
719 3 469 475
720 3 469 476
721 3 469 477
722 4 302 303
723 2 301 302
724 3 301 307
725 3 301 308
726 3 301 309
727 2 305 306
728 3 354 358
729 3 354 359
730 3 354 360
731 2 353 354
732 3 306 310
733 3 306 311
734 3 306 312
735 5 351 352
736 4 351 353
737 4 350 351
738 5 184 185
739 4 184 186
740 4 183 184
741 2 349 350
742 3 349 355
743 3 349 356
744 3 349 357
745 1 171 172
746 2 171 176
747 3 171 177
748 3 171 178
749 1 181 182
750 2 181 186
751 3 181 187
752 3 181 188
753 2 172 173
754 3 172 179
755 3 172 180
756 2 182 183
757 3 182 189
758 3 182 190
759 1 271 272
760 2 271 276
761 3 271 277
762 3 271 278
763 2 272 273
764 3 272 279
765 3 272 280
766 5 471 472
767 4 471 473
768 5 879 880
769 4 879 881
770 3 894 898
771 3 894 899
772 3 894 900
773 4 283 284
774 4 173 174
775 4 470 471
776 2 925 926
777 3 925 931
778 3 925 932
779 3 925 933
780 2 893 894
781 2 485 486
782 5 284 285
783 4 284 286
784 1 41 42
785 2 41 46
786 3 41 47
787 3 41 48
788 5 687 688
789 4 687 689
790 2 781 782
791 3 781 787
792 3 781 788
793 3 781 789
794 5 483 484
795 4 483 485
796 4 273 274
797 1 211 212
798 2 211 216
799 3 211 217
800 3 211 218
801 5 891 892
802 4 891 893
803 4 890 891
804 1 161 162
805 2 161 166
806 3 161 167
807 3 161 168
808 5 134 135
809 4 134 136
810 3 954 958
811 3 954 959
812 3 954 960
813 4 293 294
814 3 534 538
815 3 534 539
816 3 534 540
817 6 991 992
818 6 991 993
819 6 991 994
820 3 750 754
821 3 750 755
822 3 750 756
823 4 530 531
824 2 533 534
825 2 529 530
826 3 529 535
827 3 529 536
828 3 529 537
829 5 531 532
830 4 531 533
831 2 749 750
832 5 747 748
833 4 747 749
834 5 164 165
835 4 164 166
836 4 746 747
837 2 745 746
838 3 745 751
839 3 745 752
840 3 745 753
841 2 857 858
842 5 855 856
843 4 855 857
844 3 858 862
845 3 858 863
846 3 858 864
847 5 294 295
848 4 294 296
849 5 951 952
850 4 951 953
851 4 854 855
852 2 853 854
853 3 853 859
854 3 853 860
855 3 853 861
856 2 889 890
857 3 889 895
858 3 889 896
859 3 889 897
860 2 953 954
861 4 163 164
862 4 133 134
863 2 949 950
864 3 949 955
865 3 949 956
866 3 949 957
867 4 950 951
868 2 212 213
869 3 212 219
870 3 212 220
871 5 174 175
872 4 174 176
873 2 689 690
874 2 553 554
875 3 553 559
876 3 553 560
877 3 553 561
878 6 990 991
879 3 426 430
880 3 426 431
881 3 426 432
882 2 162 163
883 3 162 169
884 3 162 170
885 2 881 882
886 4 482 483
887 5 274 275
888 4 274 276
889 2 737 738
890 2 413 414
891 5 411 412
892 4 411 413
893 1 121 122
894 2 121 126
895 3 121 127
896 3 121 128
897 5 124 125
898 4 124 126
899 4 734 735
900 3 414 418
901 3 414 419
902 3 414 420
903 2 733 734
904 3 733 739
905 3 733 740
906 3 733 741
907 3 738 742
908 3 738 743
909 3 738 744
910 3 882 886
911 3 882 887
912 3 882 888
913 4 113 114
914 6 981 982
915 6 981 983
916 6 981 984
917 2 425 426
918 4 422 423
919 4 123 124
920 3 690 694
921 3 690 695
922 3 690 696
923 2 112 113
924 3 112 119
925 3 112 120
926 1 111 112
927 2 111 116
928 3 111 117
929 3 111 118
930 5 735 736
931 4 735 737
932 2 481 482
933 3 481 487
934 3 481 488
935 3 481 489
936 4 83 84
937 6 980 981
938 5 423 424
939 4 423 425
940 6 1011 1012
941 6 1011 1013
942 6 1011 1014
943 6 1010 1011
944 4 686 687

Angles

1 7 985 986 987
2 7 985 986 988
3 7 985 986 989
4 7 987 986 988
5 7 987 986 989
6 7 988 986 989
7 7 1005 1006 1007
8 7 1005 1006 1008
9 7 1005 1006 1009
10 7 1007 1006 1008
11 7 1007 1006 1009
12 7 1008 1006 1009
13 3 902 903 904
14 6 902 903 905
15 3 904 903 905
16 3 710 711 712
17 6 710 711 713
18 3 712 711 713
19 2 710 709 715
20 2 710 709 716
21 2 710 709 717
22 4 715 709 716
23 4 715 709 717
24 4 716 709 717
25 5 709 710 711
26 2 770 769 775
27 2 770 769 776
28 2 770 769 777
29 4 775 769 776
30 4 775 769 777
31 4 776 769 777
32 3 386 387 388
33 6 386 387 389
34 3 388 387 389
35 2 902 901 907
36 2 902 901 908
37 2 902 901 909
38 4 907 901 908
39 4 907 901 909
40 4 908 901 909
41 3 938 939 940
42 6 938 939 941
43 3 940 939 941
44 2 317 318 322
45 2 317 318 323
46 2 317 318 324
47 4 322 318 323
48 4 322 318 324
49 4 323 318 324
50 5 769 770 771
51 2 602 601 607
52 2 602 601 608
53 2 602 601 609
54 4 607 601 608
55 4 607 601 609
56 4 608 601 609
57 1 61 62 63
58 2 61 62 69
59 2 61 62 70
60 2 63 62 69
61 2 63 62 70
62 4 69 62 70
63 1 62 61 66
64 2 62 61 67
65 2 62 61 68
66 2 66 61 67
67 2 66 61 68
68 4 67 61 68
69 3 143 144 145
70 1 143 144 146
71 3 145 144 146
72 5 385 386 387
73 2 386 385 391
74 2 386 385 392
75 2 386 385 393
76 4 391 385 392
77 4 391 385 393
78 4 392 385 393
79 5 711 713 714
80 1 61 66 64
81 1 141 146 144
82 2 938 937 943
83 2 938 937 944
84 2 938 937 945
85 4 943 937 944
86 4 943 937 945
87 4 944 937 945
88 3 770 771 772
89 6 770 771 773
90 3 772 771 773
91 5 315 317 318
92 5 937 938 939
93 2 905 906 910
94 2 905 906 911
95 2 905 906 912
96 4 910 906 911
97 4 910 906 912
98 4 911 906 912
99 5 771 773 774
100 1 72 71 76
101 2 72 71 77
102 2 72 71 78
103 2 76 71 77
104 2 76 71 78
105 4 77 71 78
106 2 773 774 778
107 2 773 774 779
108 2 773 774 780
109 4 778 774 779
110 4 778 774 780
111 4 779 774 780
112 2 389 390 394
113 2 389 390 395
114 2 389 390 396
115 4 394 390 395
116 4 394 390 396
117 4 395 390 396
118 2 362 361 367
119 2 362 361 368
120 2 362 361 369
121 4 367 361 368
122 4 367 361 369
123 4 368 361 369
124 3 794 795 796
125 6 794 795 797
126 3 796 795 797
127 3 518 519 520
128 6 518 519 521
129 3 520 519 521
130 1 62 63 64
131 1 192 193 194
132 1 242 241 246
133 2 242 241 247
134 2 242 241 248
135 2 246 241 247
136 2 246 241 248
137 4 247 241 248
138 1 242 243 244
139 3 243 244 245
140 1 243 244 246
141 3 245 244 246
142 1 12 13 14
143 1 191 192 193
144 2 191 192 199
145 2 191 192 200
146 2 193 192 199
147 2 193 192 200
148 4 199 192 200
149 1 191 196 194
150 1 262 261 266
151 2 262 261 267
152 2 262 261 268
153 2 266 261 267
154 2 266 261 268
155 4 267 261 268
156 3 263 264 265
157 1 263 264 266
158 3 265 264 266
159 1 241 242 243
160 2 241 242 249
161 2 241 242 250
162 2 243 242 249
163 2 243 242 250
164 4 249 242 250
165 1 261 266 264
166 2 962 961 967
167 2 962 961 968
168 2 962 961 969
169 4 967 961 968
170 4 967 961 969
171 4 968 961 969
172 1 231 232 233
173 2 231 232 239
174 2 231 232 240
175 2 233 232 239
176 2 233 232 240
177 4 239 232 240
178 3 63 64 65
179 1 63 64 66
180 3 65 64 66
181 5 961 962 963
182 3 962 963 964
183 6 962 963 965
184 3 964 963 965
185 5 963 965 966
186 1 231 236 234
187 1 232 231 236
188 2 232 231 237
189 2 232 231 238
190 2 236 231 237
191 2 236 231 238
192 4 237 231 238
193 1 192 191 196
194 2 192 191 197
195 2 192 191 198
196 2 196 191 197
197 2 196 191 198
198 4 197 191 198
199 3 233 234 235
200 1 233 234 236
201 3 235 234 236
202 1 232 233 234
203 1 261 262 263
204 2 261 262 269
205 2 261 262 270
206 2 263 262 269
207 2 263 262 270
208 4 269 262 270
209 1 11 12 13
210 2 11 12 19
211 2 11 12 20
212 2 13 12 19
213 2 13 12 20
214 4 19 12 20
215 2 965 966 970
216 2 965 966 971
217 2 965 966 972
218 4 970 966 971
219 4 970 966 972
220 4 971 966 972
221 5 387 389 390
222 2 785 786 790
223 2 785 786 791
224 2 785 786 792
225 4 790 786 791
226 4 790 786 792
227 4 791 786 792
228 5 361 362 363
229 1 262 263 264
230 2 833 834 838
231 2 833 834 839
232 2 833 834 840
233 4 838 834 839
234 4 838 834 840
235 4 839 834 840
236 1 241 246 244
237 5 399 401 402
238 5 325 326 327
239 3 362 363 364
240 6 362 363 365
241 3 364 363 365
242 2 521 522 526
243 2 521 522 527
244 2 521 522 528
245 4 526 522 527
246 4 526 522 528
247 4 527 522 528
248 2 581 582 586
249 2 581 582 587
250 2 581 582 588
251 4 586 582 587
252 4 586 582 588
253 4 587 582 588
254 2 374 373 379
255 2 374 373 380
256 2 374 373 381
257 4 379 373 380
258 4 379 373 381
259 4 380 373 381
260 5 603 605 606
261 2 593 594 598
262 2 593 594 599
263 2 593 594 600
264 4 598 594 599
265 4 598 594 600
266 4 599 594 600
267 3 326 327 328
268 6 326 327 329
269 3 328 327 329
270 5 601 602 603
271 1 142 141 146
272 2 142 141 147
273 2 142 141 148
274 2 146 141 147
275 2 146 141 148
276 4 147 141 148
277 2 794 793 799
278 2 794 793 800
279 2 794 793 801
280 4 799 793 800
281 4 799 793 801
282 4 800 793 801
283 5 327 329 330
284 5 829 830 831
285 5 373 374 375
286 5 375 377 378
287 1 71 76 74
288 5 363 365 366
289 1 142 143 144
290 5 697 698 699
291 2 329 330 334
292 2 329 330 335
293 2 329 330 336
294 4 334 330 335
295 4 334 330 336
296 4 335 330 336
297 3 698 699 700
298 6 698 699 701
299 3 700 699 701
300 2 326 325 331
301 2 326 325 332
302 2 326 325 333
303 4 331 325 332
304 4 331 325 333
305 4 332 325 333
306 5 831 833 834
307 2 365 366 370
308 2 365 366 371
309 2 365 366 372
310 4 370 366 371
311 4 370 366 372
312 4 371 366 372
313 5 699 701 702
314 2 701 702 706
315 2 701 702 707
316 2 701 702 708
317 4 706 702 707
318 4 706 702 708
319 4 707 702 708
320 2 605 606 610
321 2 605 606 611
322 2 605 606 612
323 4 610 606 611
324 4 610 606 612
325 4 611 606 612
326 3 602 603 604
327 6 602 603 605
328 3 604 603 605
329 1 2 3 4
330 1 201 202 203
331 2 201 202 209
332 2 201 202 210
333 2 203 202 209
334 2 203 202 210
335 4 209 202 210
336 1 141 142 143
337 2 141 142 149
338 2 141 142 150
339 2 143 142 149
340 2 143 142 150
341 4 149 142 150
342 2 377 378 382
343 2 377 378 383
344 2 377 378 384
345 4 382 378 383
346 4 382 378 384
347 4 383 378 384
348 3 73 74 75
349 1 73 74 76
350 3 75 74 76
351 2 830 829 835
352 2 830 829 836
353 2 830 829 837
354 4 835 829 836
355 4 835 829 837
356 4 836 829 837
357 3 374 375 376
358 6 374 375 377
359 3 376 375 377
360 7 1000 1001 1002
361 7 1000 1001 1003
362 7 1000 1001 1004
363 7 1002 1001 1003
364 7 1002 1001 1004
365 7 1003 1001 1004
366 3 830 831 832
367 6 830 831 833
368 3 832 831 833
369 5 793 794 795
370 2 401 402 406
371 2 401 402 407
372 2 401 402 408
373 4 406 402 407
374 4 406 402 408
375 4 407 402 408
376 3 13 14 15
377 1 13 14 16
378 3 15 14 16
379 3 53 54 55
380 1 53 54 56
381 3 55 54 56
382 1 52 53 54
383 2 509 510 514
384 2 509 510 515
385 2 509 510 516
386 4 514 510 515
387 4 514 510 516
388 4 515 510 516
389 5 507 509 510
390 1 91 96 94
391 3 93 94 95
392 1 93 94 96
393 3 95 94 96
394 1 92 91 96
395 2 92 91 97
396 2 92 91 98
397 2 96 91 97
398 2 96 91 98
399 4 97 91 98
400 3 506 507 508
401 6 506 507 509
402 3 508 507 509
403 5 505 506 507
404 1 91 92 93
405 2 91 92 99
406 2 91 92 100
407 2 93 92 99
408 2 93 92 100
409 4 99 92 100
410 1 92 93 94
411 1 22 23 24
412 1 51 52 53
413 2 51 52 59
414 2 51 52 60
415 2 53 52 59
416 2 53 52 60
417 4 59 52 60
418 1 281 286 284
419 3 23 24 25
420 1 23 24 26
421 3 25 24 26
422 5 543 545 546
423 1 51 56 54
424 1 21 26 24
425 1 22 21 26
426 2 22 21 27
427 2 22 21 28
428 2 26 21 27
429 2 26 21 28
430 4 27 21 28
431 1 21 22 23
432 2 21 22 29
433 2 21 22 30
434 2 23 22 29
435 2 23 22 30
436 4 29 22 30
437 3 722 723 724
438 6 722 723 725
439 3 724 723 725
440 1 251 256 254
441 1 52 51 56
442 2 52 51 57
443 2 52 51 58
444 2 56 51 57
445 2 56 51 58
446 4 57 51 58
447 2 506 505 511
448 2 506 505 512
449 2 506 505 513
450 4 511 505 512
451 4 511 505 513
452 4 512 505 513
453 2 725 726 730
454 2 725 726 731
455 2 725 726 732
456 4 730 726 731
457 4 730 726 732
458 4 731 726 732
459 5 577 578 579
460 2 578 577 583
461 2 578 577 584
462 2 578 577 585
463 4 583 577 584
464 4 583 577 585
465 4 584 577 585
466 1 252 253 254
467 1 251 252 253
468 2 251 252 259
469 2 251 252 260
470 2 253 252 259
471 2 253 252 260
472 4 259 252 260
473 5 447 449 450
474 3 253 254 255
475 1 253 254 256
476 3 255 254 256
477 5 723 725 726
478 3 193 194 195
479 1 193 194 196
480 3 195 194 196
481 2 722 721 727
482 2 722 721 728
483 2 722 721 729
484 4 727 721 728
485 4 727 721 729
486 4 728 721 729
487 1 151 156 154
488 2 941 942 946
489 2 941 942 947
490 2 941 942 948
491 4 946 942 947
492 4 946 942 948
493 4 947 942 948
494 1 292 291 296
495 2 292 291 297
496 2 292 291 298
497 2 296 291 297
498 2 296 291 298
499 4 297 291 298
500 2 626 625 631
501 2 626 625 632
502 2 626 625 633
503 4 631 625 632
504 4 631 625 633
505 4 632 625 633
506 3 578 579 580
507 6 578 579 581
508 3 580 579 581
509 5 579 581 582
510 1 152 151 156
511 2 152 151 157
512 2 152 151 158
513 2 156 151 157
514 2 156 151 158
515 4 157 151 158
516 1 1 2 3
517 2 1 2 9
518 2 1 2 10
519 2 3 2 9
520 2 3 2 10
521 4 9 2 10
522 2 446 445 451
523 2 446 445 452
524 2 446 445 453
525 4 451 445 452
526 4 451 445 453
527 4 452 445 453
528 1 151 152 153
529 2 151 152 159
530 2 151 152 160
531 2 153 152 159
532 2 153 152 160
533 4 159 152 160
534 5 721 722 723
535 5 459 461 462
536 1 152 153 154
537 1 221 226 224
538 5 843 845 846
539 3 213 214 215
540 1 213 214 216
541 3 215 214 216
542 3 153 154 155
543 1 153 154 156
544 3 155 154 156
545 3 223 224 225
546 1 223 224 226
547 3 225 224 226
548 2 845 846 850
549 2 845 846 851
550 2 845 846 852
551 4 850 846 851
552 4 850 846 852
553 4 851 846 852
554 2 590 589 595
555 2 590 589 596
556 2 590 589 597
557 4 595 589 596
558 4 595 589 597
559 4 596 589 597
560 3 590 591 592
561 6 590 591 593
562 3 592 591 593
563 1 212 213 214
564 5 589 590 591
565 3 842 843 844
566 6 842 843 845
567 3 844 843 845
568 1 221 222 223
569 2 221 222 229
570 2 221 222 230
571 2 223 222 229
572 2 223 222 230
573 4 229 222 230
574 1 222 223 224
575 1 222 221 226
576 2 222 221 227
577 2 222 221 228
578 2 226 221 227
579 2 226 221 228
580 4 227 221 228
581 5 841 842 843
582 2 842 841 847
583 2 842 841 848
584 2 842 841 849
585 4 847 841 848
586 4 847 841 849
587 4 848 841 849
588 5 457 458 459
589 5 939 941 942
590 1 121 122 123
591 2 121 122 129
592 2 121 122 130
593 2 123 122 129
594 2 123 122 130
595 4 129 122 130
596 5 591 593 594
597 1 72 73 74
598 2 458 457 463
599 2 458 457 464
600 2 458 457 465
601 4 463 457 464
602 4 463 457 465
603 4 464 457 465
604 1 2 1 6
605 2 2 1 7
606 2 2 1 8
607 2 6 1 7
608 2 6 1 8
609 4 7 1 8
610 3 458 459 460
611 6 458 459 461
612 3 460 459 461
613 2 461 462 466
614 2 461 462 467
615 2 461 462 468
616 4 466 462 467
617 4 466 462 468
618 4 467 462 468
619 1 211 216 214
620 3 446 447 448
621 6 446 447 449
622 3 448 447 449
623 2 758 757 763
624 2 758 757 764
625 2 758 757 765
626 4 763 757 764
627 4 763 757 765
628 4 764 757 765
629 2 422 421 427
630 2 422 421 428
631 2 422 421 429
632 4 427 421 428
633 4 427 421 429
634 4 428 421 429
635 1 281 282 283
636 2 281 282 289
637 2 281 282 290
638 2 283 282 289
639 2 283 282 290
640 4 289 282 290
641 3 113 114 115
642 1 113 114 116
643 3 115 114 116
644 2 545 546 550
645 2 545 546 551
646 2 545 546 552
647 4 550 546 551
648 4 550 546 552
649 4 551 546 552
650 5 637 638 639
651 1 282 281 286
652 2 282 281 287
653 2 282 281 288
654 2 286 281 287
655 2 286 281 288
656 4 287 281 288
657 1 71 72 73
658 2 71 72 79
659 2 71 72 80
660 2 73 72 79
661 2 73 72 80
662 4 79 72 80
663 5 445 446 447
664 3 626 627 628
665 6 626 627 629
666 3 628 627 629
667 3 758 759 760
668 6 758 759 761
669 3 760 759 761
670 5 627 629 630
671 2 761 762 766
672 2 761 762 767
673 2 761 762 768
674 4 766 762 767
675 4 766 762 768
676 4 767 762 768
677 2 449 450 454
678 2 449 450 455
679 2 449 450 456
680 4 454 450 455
681 4 454 450 456
682 4 455 450 456
683 3 638 639 640
684 6 638 639 641
685 3 640 639 641
686 1 1 6 4
687 5 541 542 543
688 2 542 541 547
689 2 542 541 548
690 2 542 541 549
691 4 547 541 548
692 4 547 541 549
693 4 548 541 549
694 5 639 641 642
695 5 819 821 822
696 2 641 642 646
697 2 641 642 647
698 2 641 642 648
699 4 646 642 647
700 4 646 642 648
701 4 647 642 648
702 3 3 4 5
703 1 3 4 6
704 3 5 4 6
705 2 629 630 634
706 2 629 630 635
707 2 629 630 636
708 4 634 630 635
709 4 634 630 636
710 4 635 630 636
711 3 542 543 544
712 6 542 543 545
713 3 544 543 545
714 3 818 819 820
715 6 818 819 821
716 3 820 819 821
717 5 759 761 762
718 5 625 626 627
719 5 817 818 819
720 5 795 797 798
721 2 686 685 691
722 2 686 685 692
723 2 686 685 693
724 4 691 685 692
725 4 691 685 693
726 4 692 685 693
727 1 291 292 293
728 2 291 292 299
729 2 291 292 300
730 2 293 292 299
731 2 293 292 300
732 4 299 292 300
733 2 818 817 823
734 2 818 817 824
735 2 818 817 825
736 4 823 817 824
737 4 823 817 825
738 4 824 817 825
739 5 757 758 759
740 2 638 637 643
741 2 638 637 644
742 2 638 637 645
743 4 643 637 644
744 4 643 637 645
745 4 644 637 645
746 2 821 822 826
747 2 821 822 827
748 2 821 822 828
749 4 826 822 827
750 4 826 822 828
751 4 827 822 828
752 2 797 798 802
753 2 797 798 803
754 2 797 798 804
755 4 802 798 803
756 4 802 798 804
757 4 803 798 804
758 1 252 251 256
759 2 252 251 257
760 2 252 251 258
761 2 256 251 257
762 2 256 251 258
763 4 257 251 258
764 2 518 517 523
765 2 518 517 524
766 2 518 517 525
767 4 523 517 524
768 4 523 517 525
769 4 524 517 525
770 5 615 617 618
771 5 613 614 615
772 3 614 615 616
773 6 614 615 617
774 3 616 615 617
775 2 617 618 622
776 2 617 618 623
777 2 617 618 624
778 4 622 618 623
779 4 622 618 624
780 4 623 618 624
781 2 614 613 619
782 2 614 613 620
783 2 614 613 621
784 4 619 613 620
785 4 619 613 621
786 4 620 613 621
787 1 42 43 44
788 5 313 314 315
789 1 101 106 104
790 2 650 649 655
791 2 650 649 656
792 2 650 649 657
793 4 655 649 656
794 4 655 649 657
795 4 656 649 657
796 1 102 103 104
797 3 103 104 105
798 1 103 104 106
799 3 105 104 106
800 1 102 101 106
801 2 102 101 107
802 2 102 101 108
803 2 106 101 107
804 2 106 101 108
805 4 107 101 108
806 5 567 569 570
807 3 662 663 664
808 6 662 663 665
809 3 664 663 665
810 3 203 204 205
811 1 203 204 206
812 3 205 204 206
813 5 649 650 651
814 3 650 651 652
815 6 650 651 653
816 3 652 651 653
817 2 665 666 670
818 2 665 666 671
819 2 665 666 672
820 4 670 666 671
821 4 670 666 672
822 4 671 666 672
823 5 663 665 666
824 2 494 493 499
825 2 494 493 500
826 2 494 493 501
827 4 499 493 500
828 4 499 493 501
829 4 500 493 501
830 2 410 409 415
831 2 410 409 416
832 2 410 409 417
833 4 415 409 416
834 4 415 409 417
835 4 416 409 417
836 1 101 102 103
837 2 101 102 109
838 2 101 102 110
839 2 103 102 109
840 2 103 102 110
841 4 109 102 110
842 2 569 570 574
843 2 569 570 575
844 2 569 570 576
845 4 574 570 575
846 4 574 570 576
847 4 575 570 576
848 2 473 474 478
849 2 473 474 479
850 2 473 474 480
851 4 478 474 479
852 4 478 474 480
853 4 479 474 480
854 2 338 337 343
855 2 338 337 344
856 2 338 337 345
857 4 343 337 344
858 4 343 337 345
859 4 344 337 345
860 2 713 714 718
861 2 713 714 719
862 2 713 714 720
863 4 718 714 719
864 4 718 714 720
865 4 719 714 720
866 2 314 313 319
867 2 314 313 320
868 2 314 313 321
869 4 319 313 320
870 4 319 313 321
871 4 320 313 321
872 5 493 494 495
873 2 662 661 667
874 2 662 661 668
875 2 662 661 669
876 4 667 661 668
877 4 667 661 669
878 4 668 661 669
879 5 661 662 663
880 2 929 930 934
881 2 929 930 935
882 2 929 930 936
883 4 934 930 935
884 4 934 930 936
885 4 935 930 936
886 5 519 521 522
887 5 565 566 567
888 2 566 565 571
889 2 566 565 572
890 2 566 565 573
891 4 571 565 572
892 4 571 565 573
893 4 572 565 573
894 3 566 567 568
895 6 566 567 569
896 3 568 567 569
897 1 131 132 133
898 2 131 132 139
899 2 131 132 140
900 2 133 132 139
901 2 133 132 140
902 4 139 132 140
903 3 494 495 496
904 6 494 495 497
905 3 496 495 497
906 3 314 315 316
907 6 314 315 317
908 3 316 315 317
909 3 398 399 400
910 6 398 399 401
911 3 400 399 401
912 1 11 16 14
913 2 485 486 490
914 2 485 486 491
915 2 485 486 492
916 4 490 486 491
917 4 490 486 492
918 4 491 486 492
919 2 398 397 403
920 2 398 397 404
921 2 398 397 405
922 4 403 397 404
923 4 403 397 405
924 4 404 397 405
925 2 806 805 811
926 2 806 805 812
927 2 806 805 813
928 4 811 805 812
929 4 811 805 813
930 4 812 805 813
931 5 805 806 807
932 1 131 136 134
933 1 132 131 136
934 2 132 131 137
935 2 132 131 138
936 2 136 131 137
937 2 136 131 138
938 4 137 131 138
939 2 866 865 871
940 2 866 865 872
941 2 866 865 873
942 4 871 865 872
943 4 871 865 873
944 4 872 865 873
945 5 495 497 498
946 1 201 206 204
947 2 497 498 502
948 2 497 498 503
949 2 497 498 504
950 4 502 498 503
951 4 502 498 504
952 4 503 498 504
953 5 865 866 867
954 2 809 810 814
955 2 809 810 815
956 2 809 810 816
957 4 814 810 815
958 4 814 810 816
959 4 815 810 816
960 2 341 342 346
961 2 341 342 347
962 2 341 342 348
963 4 346 342 347
964 4 346 342 348
965 4 347 342 348
966 5 807 809 810
967 3 806 807 808
968 6 806 807 809
969 3 808 807 809
970 7 995 996 997
971 7 995 996 998
972 7 995 996 999
973 7 997 996 998
974 7 997 996 999
975 7 998 996 999
976 2 677 678 682
977 2 677 678 683
978 2 677 678 684
979 4 682 678 683
980 4 682 678 684
981 4 683 678 684
982 5 675 677 678
983 3 83 84 85
984 1 83 84 86
985 3 85 84 86
986 1 31 32 33
987 2 31 32 39
988 2 31 32 40
989 2 33 32 39
990 2 33 32 40
991 4 39 32 40
992 2 437 438 442
993 2 437 438 443
994 2 437 438 444
995 4 442 438 443
996 4 442 438 444
997 4 443 438 444
998 3 914 915 916
999 6 914 915 917
1000 3 916 915 917
1001 5 435 437 438
1002 5 781 782 783
1003 3 866 867 868
1004 6 866 867 869
1005 3 868 867 869
1006 1 32 31 36
1007 2 32 31 37
1008 2 32 31 38
1009 2 36 31 37
1010 2 36 31 38
1011 4 37 31 38
1012 1 32 33 34
1013 3 674 675 676
1014 6 674 675 677
1015 3 676 675 677
1016 3 554 555 556
1017 6 554 555 557
1018 3 556 555 557
1019 5 877 878 879
1020 2 557 558 562
1021 2 557 558 563
1022 2 557 558 564
1023 4 562 558 563
1024 4 562 558 564
1025 4 563 558 564
1026 5 913 914 915
1027 5 337 338 339
1028 1 12 11 16
1029 2 12 11 17
1030 2 12 11 18
1031 2 16 11 17
1032 2 16 11 18
1033 4 17 11 18
1034 1 41 42 43
1035 2 41 42 49
1036 2 41 42 50
1037 2 43 42 49
1038 2 43 42 50
1039 4 49 42 50
1040 1 81 82 83
1041 2 81 82 89
1042 2 81 82 90
1043 2 83 82 89
1044 2 83 82 90
1045 4 89 82 90
1046 5 867 869 870
1047 1 81 86 84
1048 2 878 877 883
1049 2 878 877 884
1050 2 878 877 885
1051 4 883 877 884
1052 4 883 877 885
1053 4 884 877 885
1054 5 925 926 927
1055 5 673 674 675
1056 5 555 557 558
1057 2 917 918 922
1058 2 917 918 923
1059 2 917 918 924
1060 4 922 918 923
1061 4 922 918 924
1062 4 923 918 924
1063 1 82 81 86
1064 2 82 81 87
1065 2 82 81 88
1066 2 86 81 87
1067 2 86 81 88
1068 4 87 81 88
1069 3 33 34 35
1070 1 33 34 36
1071 3 35 34 36
1072 2 914 913 919
1073 2 914 913 920
1074 2 914 913 921
1075 4 919 913 920
1076 4 919 913 921
1077 4 920 913 921
1078 2 653 654 658
1079 2 653 654 659
1080 2 653 654 660
1081 4 658 654 659
1082 4 658 654 660
1083 4 659 654 660
1084 2 674 673 679
1085 2 674 673 680
1086 2 674 673 681
1087 4 679 673 680
1088 4 679 673 681
1089 4 680 673 681
1090 1 31 36 34
1091 2 698 697 703
1092 2 698 697 704
1093 2 698 697 705
1094 4 703 697 704
1095 4 703 697 705
1096 4 704 697 705
1097 5 927 929 930
1098 2 434 433 439
1099 2 434 433 440
1100 2 434 433 441
1101 4 439 433 440
1102 4 439 433 441
1103 4 440 433 441
1104 3 434 435 436
1105 6 434 435 437
1106 3 436 435 437
1107 3 926 927 928
1108 6 926 927 929
1109 3 928 927 929
1110 3 338 339 340
1111 6 338 339 341
1112 3 340 339 341
1113 5 651 653 654
1114 5 915 917 918
1115 5 339 341 342
1116 5 433 434 435
1117 5 409 410 411
1118 5 517 518 519
1119 1 202 201 206
1120 2 202 201 207
1121 2 202 201 208
1122 2 206 201 207
1123 2 206 201 208
1124 4 207 201 208
1125 3 43 44 45
1126 1 43 44 46
1127 3 45 44 46
1128 5 471 473 474
1129 5 903 905 906
1130 5 397 398 399
1131 3 782 783 784
1132 6 782 783 785
1133 3 784 783 785
1134 2 869 870 874
1135 2 869 870 875
1136 2 869 870 876
1137 4 874 870 875
1138 4 874 870 876
1139 4 875 870 876
1140 5 901 902 903
1141 5 783 785 786
1142 1 202 203 204
1143 5 553 554 555
1144 3 302 303 304
1145 6 302 303 305
1146 3 304 303 305
1147 2 470 469 475
1148 2 470 469 476
1149 2 470 469 477
1150 4 475 469 476
1151 4 475 469 477
1152 4 476 469 477
1153 5 301 302 303
1154 2 302 301 307
1155 2 302 301 308
1156 2 302 301 309
1157 4 307 301 308
1158 4 307 301 309
1159 4 308 301 309
1160 5 303 305 306
1161 2 353 354 358
1162 2 353 354 359
1163 2 353 354 360
1164 4 358 354 359
1165 4 358 354 360
1166 4 359 354 360
1167 5 351 353 354
1168 2 305 306 310
1169 2 305 306 311
1170 2 305 306 312
1171 4 310 306 311
1172 4 310 306 312
1173 4 311 306 312
1174 3 350 351 352
1175 6 350 351 353
1176 3 352 351 353
1177 5 349 350 351
1178 1 181 186 184
1179 3 183 184 185
1180 1 183 184 186
1181 3 185 184 186
1182 1 182 183 184
1183 2 350 349 355
1184 2 350 349 356
1185 2 350 349 357
1186 4 355 349 356
1187 4 355 349 357
1188 4 356 349 357
1189 1 172 171 176
1190 2 172 171 177
1191 2 172 171 178
1192 2 176 171 177
1193 2 176 171 178
1194 4 177 171 178
1195 1 182 181 186
1196 2 182 181 187
1197 2 182 181 188
1198 2 186 181 187
1199 2 186 181 188
1200 4 187 181 188
1201 1 171 172 173
1202 2 171 172 179
1203 2 171 172 180
1204 2 173 172 179
1205 2 173 172 180
1206 4 179 172 180
1207 1 181 182 183
1208 2 181 182 189
1209 2 181 182 190
1210 2 183 182 189
1211 2 183 182 190
1212 4 189 182 190
1213 1 272 271 276
1214 2 272 271 277
1215 2 272 271 278
1216 2 276 271 277
1217 2 276 271 278
1218 4 277 271 278
1219 1 271 272 273
1220 2 271 272 279
1221 2 271 272 280
1222 2 273 272 279
1223 2 273 272 280
1224 4 279 272 280
1225 3 470 471 472
1226 6 470 471 473
1227 3 472 471 473
1228 3 878 879 880
1229 6 878 879 881
1230 3 880 879 881
1231 2 893 894 898
1232 2 893 894 899
1233 2 893 894 900
1234 4 898 894 899
1235 4 898 894 900
1236 4 899 894 900
1237 1 282 283 284
1238 1 172 173 174
1239 5 469 470 471
1240 1 41 46 44
1241 2 926 925 931
1242 2 926 925 932
1243 2 926 925 933
1244 4 931 925 932
1245 4 931 925 933
1246 4 932 925 933
1247 5 891 893 894
1248 5 483 485 486
1249 3 283 284 285
1250 1 283 284 286
1251 3 285 284 286
1252 1 42 41 46
1253 2 42 41 47
1254 2 42 41 48
1255 2 46 41 47
1256 2 46 41 48
1257 4 47 41 48
1258 1 271 276 274
1259 3 686 687 688
1260 6 686 687 689
1261 3 688 687 689
1262 2 782 781 787
1263 2 782 781 788
1264 2 782 781 789
1265 4 787 781 788
1266 4 787 781 789
1267 4 788 781 789
1268 3 482 483 484
1269 6 482 483 485
1270 3 484 483 485
1271 1 272 273 274
1272 1 212 211 216
1273 2 212 211 217
1274 2 212 211 218
1275 2 216 211 217
1276 2 216 211 218
1277 4 217 211 218
1278 1 111 116 114
1279 3 890 891 892
1280 6 890 891 893
1281 3 892 891 893
1282 5 889 890 891
1283 1 162 161 166
1284 2 162 161 167
1285 2 162 161 168
1286 2 166 161 167
1287 2 166 161 168
1288 4 167 161 168
1289 3 133 134 135
1290 1 133 134 136
1291 3 135 134 136
1292 1 291 296 294
1293 2 953 954 958
1294 2 953 954 959
1295 2 953 954 960
1296 4 958 954 959
1297 4 958 954 960
1298 4 959 954 960
1299 1 292 293 294
1300 2 533 534 538
1301 2 533 534 539
1302 2 533 534 540
1303 4 538 534 539
1304 4 538 534 540
1305 4 539 534 540
1306 7 990 991 992
1307 7 990 991 993
1308 7 990 991 994
1309 7 992 991 993
1310 7 992 991 994
1311 7 993 991 994
1312 2 749 750 754
1313 2 749 750 755
1314 2 749 750 756
1315 4 754 750 755
1316 4 754 750 756
1317 4 755 750 756
1318 5 529 530 531
1319 5 531 533 534
1320 2 530 529 535
1321 2 530 529 536
1322 2 530 529 537
1323 4 535 529 536
1324 4 535 529 537
1325 4 536 529 537
1326 3 530 531 532
1327 6 530 531 533
1328 3 532 531 533
1329 5 747 749 750
1330 3 746 747 748
1331 6 746 747 749
1332 3 748 747 749
1333 3 163 164 165
1334 1 163 164 166
1335 3 165 164 166
1336 5 745 746 747
1337 2 746 745 751
1338 2 746 745 752
1339 2 746 745 753
1340 4 751 745 752
1341 4 751 745 753
1342 4 752 745 753
1343 5 855 857 858
1344 3 854 855 856
1345 6 854 855 857
1346 3 856 855 857
1347 2 857 858 862
1348 2 857 858 863
1349 2 857 858 864
1350 4 862 858 863
1351 4 862 858 864
1352 4 863 858 864
1353 3 293 294 295
1354 1 293 294 296
1355 3 295 294 296
1356 3 950 951 952
1357 6 950 951 953
1358 3 952 951 953
1359 5 853 854 855
1360 2 854 853 859
1361 2 854 853 860
1362 2 854 853 861
1363 4 859 853 860
1364 4 859 853 861
1365 4 860 853 861
1366 2 890 889 895
1367 2 890 889 896
1368 2 890 889 897
1369 4 895 889 896
1370 4 895 889 897
1371 4 896 889 897
1372 1 161 166 164
1373 5 951 953 954
1374 1 162 163 164
1375 1 132 133 134
1376 2 950 949 955
1377 2 950 949 956
1378 2 950 949 957
1379 4 955 949 956
1380 4 955 949 957
1381 4 956 949 957
1382 5 949 950 951
1383 1 211 212 213
1384 2 211 212 219
1385 2 211 212 220
1386 2 213 212 219
1387 2 213 212 220
1388 4 219 212 220
1389 3 173 174 175
1390 1 173 174 176
1391 3 175 174 176
1392 5 687 689 690
1393 2 554 553 559
1394 2 554 553 560
1395 2 554 553 561
1396 4 559 553 560
1397 4 559 553 561
1398 4 560 553 561
1399 1 171 176 174
1400 2 425 426 430
1401 2 425 426 431
1402 2 425 426 432
1403 4 430 426 431
1404 4 430 426 432
1405 4 431 426 432
1406 1 161 162 163
1407 2 161 162 169
1408 2 161 162 170
1409 2 163 162 169
1410 2 163 162 170
1411 4 169 162 170
1412 5 879 881 882
1413 5 481 482 483
1414 3 273 274 275
1415 1 273 274 276
1416 3 275 274 276
1417 5 735 737 738
1418 5 411 413 414
1419 3 410 411 412
1420 6 410 411 413
1421 3 412 411 413
1422 1 122 121 126
1423 2 122 121 127
1424 2 122 121 128
1425 2 126 121 127
1426 2 126 121 128
1427 4 127 121 128
1428 3 123 124 125
1429 1 123 124 126
1430 3 125 124 126
1431 5 733 734 735
1432 2 413 414 418
1433 2 413 414 419
1434 2 413 414 420
1435 4 418 414 419
1436 4 418 414 420
1437 4 419 414 420
1438 2 734 733 739
1439 2 734 733 740
1440 2 734 733 741
1441 4 739 733 740
1442 4 739 733 741
1443 4 740 733 741
1444 2 737 738 742
1445 2 737 738 743
1446 2 737 738 744
1447 4 742 738 743
1448 4 742 738 744
1449 4 743 738 744
1450 2 881 882 886
1451 2 881 882 887
1452 2 881 882 888
1453 4 886 882 887
1454 4 886 882 888
1455 4 887 882 888
1456 1 112 113 114
1457 7 980 981 982
1458 7 980 981 983
1459 7 980 981 984
1460 7 982 981 983
1461 7 982 981 984
1462 7 983 981 984
1463 5 423 425 426
1464 5 421 422 423
1465 1 122 123 124
1466 2 689 690 694
1467 2 689 690 695
1468 2 689 690 696
1469 4 694 690 695
1470 4 694 690 696
1471 4 695 690 696
1472 1 111 112 113
1473 2 111 112 119
1474 2 111 112 120
1475 2 113 112 119
1476 2 113 112 120
1477 4 119 112 120
1478 1 112 111 116
1479 2 112 111 117
1480 2 112 111 118
1481 2 116 111 117
1482 2 116 111 118
1483 4 117 111 118
1484 3 734 735 736
1485 6 734 735 737
1486 3 736 735 737
1487 2 482 481 487
1488 2 482 481 488
1489 2 482 481 489
1490 4 487 481 488
1491 4 487 481 489
1492 4 488 481 489
1493 1 121 126 124
1494 1 82 83 84
1495 3 422 423 424
1496 6 422 423 425
1497 3 424 423 425
1498 7 1010 1011 1012
1499 7 1010 1011 1013
1500 7 1010 1011 1014
1501 7 1012 1011 1013
1502 7 1012 1011 1014
1503 7 1013 1011 1014
1504 5 685 686 687

Dihedrals

1 12 902 903 905 906
2 10 904 903 905 906
3 11 904 903 905 906
4 12 710 711 713 714
5 10 712 711 713 714
6 11 712 711 713 714
7 10 709 710 711 712
8 11 709 710 711 712
9 12 709 710 711 713
10 8 711 710 709 715
11 8 711 710 709 716
12 8 711 710 709 717
13 12 386 387 389 390
14 10 388 387 389 390
15 11 388 387 389 390
16 12 938 939 941 942
17 10 940 939 941 942
18 11 940 939 941 942
19 10 769 770 771 772
20 11 769 770 771 772
21 12 769 770 771 773
22 8 771 770 769 775
23 8 771 770 769 776
24 8 771 770 769 777
25 1 61 62 63 64
26 2 61 62 63 64
27 4 63 62 61 66
28 5 63 62 61 66
29 6 63 62 61 67
30 7 63 62 61 67
31 6 63 62 61 68
32 7 63 62 61 68
33 1 62 61 66 64
34 2 62 61 66 64
35 6 66 61 62 69
36 7 66 61 62 69
37 6 66 61 62 70
38 7 66 61 62 70
39 9 67 61 62 69
40 9 67 61 62 70
41 9 68 61 62 69
42 9 68 61 62 70
43 10 385 386 387 388
44 11 385 386 387 388
45 12 385 386 387 389
46 8 387 386 385 391
47 8 387 386 385 392
48 8 387 386 385 393
49 8 711 713 714 718
50 8 711 713 714 719
51 8 711 713 714 720
52 3 61 66 64 63
53 3 61 66 64 65
54 8 64 66 61 67
55 8 64 66 61 68
56 3 141 146 144 143
57 3 141 146 144 145
58 8 144 146 141 147
59 8 144 146 141 148
60 12 770 771 773 774
61 10 772 771 773 774
62 11 772 771 773 774
63 8 315 317 318 322
64 8 315 317 318 323
65 8 315 317 318 324
66 10 937 938 939 940
67 11 937 938 939 940
68 12 937 938 939 941
69 8 939 938 937 943
70 8 939 938 937 944
71 8 939 938 937 945
72 8 771 773 774 778
73 8 771 773 774 779
74 8 771 773 774 780
75 1 72 71 76 74
76 2 72 71 76 74
77 6 76 71 72 79
78 7 76 71 72 79
79 6 76 71 72 80
80 7 76 71 72 80
81 9 77 71 72 79
82 9 77 71 72 80
83 9 78 71 72 79
84 9 78 71 72 80
85 12 794 795 797 798
86 10 796 795 797 798
87 11 796 795 797 798
88 12 518 519 521 522
89 10 520 519 521 522
90 11 520 519 521 522
91 3 62 63 64 65
92 3 62 63 64 66
93 8 64 63 62 69
94 8 64 63 62 70
95 3 192 193 194 195
96 3 192 193 194 196
97 8 194 193 192 199
98 8 194 193 192 200
99 1 242 241 246 244
100 2 242 241 246 244
101 6 246 241 242 249
102 7 246 241 242 249
103 6 246 241 242 250
104 7 246 241 242 250
105 9 247 241 242 249
106 9 247 241 242 250
107 9 248 241 242 249
108 9 248 241 242 250
109 3 242 243 244 245
110 3 242 243 244 246
111 8 244 243 242 249
112 8 244 243 242 250
113 3 12 13 14 15
114 3 12 13 14 16
115 8 14 13 12 19
116 8 14 13 12 20
117 1 191 192 193 194
118 2 191 192 193 194
119 4 193 192 191 196
120 5 193 192 191 196
121 6 193 192 191 197
122 7 193 192 191 197
123 6 193 192 191 198
124 7 193 192 191 198
125 3 191 196 194 193
126 3 191 196 194 195
127 8 194 196 191 197
128 8 194 196 191 198
129 1 262 261 266 264
130 2 262 261 266 264
131 6 266 261 262 269
132 7 266 261 262 269
133 6 266 261 262 270
134 7 266 261 262 270
135 9 267 261 262 269
136 9 267 261 262 270
137 9 268 261 262 269
138 9 268 261 262 270
139 1 241 242 243 244
140 2 241 242 243 244
141 4 243 242 241 246
142 5 243 242 241 246
143 6 243 242 241 247
144 7 243 242 241 247
145 6 243 242 241 248
146 7 243 242 241 248
147 3 261 266 264 263
148 3 261 266 264 265
149 8 264 266 261 267
150 8 264 266 261 268
151 1 231 232 233 234
152 2 231 232 233 234
153 4 233 232 231 236
154 5 233 232 231 236
155 6 233 232 231 237
156 7 233 232 231 237
157 6 233 232 231 238
158 7 233 232 231 238
159 10 961 962 963 964
160 11 961 962 963 964
161 12 961 962 963 965
162 8 963 962 961 967
163 8 963 962 961 968
164 8 963 962 961 969
165 12 962 963 965 966
166 10 964 963 965 966
167 11 964 963 965 966
168 8 963 965 966 970
169 8 963 965 966 971
170 8 963 965 966 972
171 3 231 236 234 233
172 3 231 236 234 235
173 8 234 236 231 237
174 8 234 236 231 238
175 1 232 231 236 234
176 2 232 231 236 234
177 6 236 231 232 239
178 7 236 231 232 239
179 6 236 231 232 240
180 7 236 231 232 240
181 9 237 231 232 239
182 9 237 231 232 240
183 9 238 231 232 239
184 9 238 231 232 240
185 1 192 191 196 194
186 2 192 191 196 194
187 6 196 191 192 199
188 7 196 191 192 199
189 6 196 191 192 200
190 7 196 191 192 200
191 9 197 191 192 199
192 9 197 191 192 200
193 9 198 191 192 199
194 9 198 191 192 200
195 3 232 233 234 235
196 3 232 233 234 236
197 8 234 233 232 239
198 8 234 233 232 240
199 1 261 262 263 264
200 2 261 262 263 264
201 4 263 262 261 266
202 5 263 262 261 266
203 6 263 262 261 267
204 7 263 262 261 267
205 6 263 262 261 268
206 7 263 262 261 268
207 1 11 12 13 14
208 2 11 12 13 14
209 4 13 12 11 16
210 5 13 12 11 16
211 6 13 12 11 17
212 7 13 12 11 17
213 6 13 12 11 18
214 7 13 12 11 18
215 8 387 389 390 394
216 8 387 389 390 395
217 8 387 389 390 396
218 10 361 362 363 364
219 11 361 362 363 364
220 12 361 362 363 365
221 8 363 362 361 367
222 8 363 362 361 368
223 8 363 362 361 369
224 3 262 263 264 265
225 3 262 263 264 266
226 8 264 263 262 269
227 8 264 263 262 270
228 3 241 246 244 243
229 3 241 246 244 245
230 8 244 246 241 247
231 8 244 246 241 248
232 8 399 401 402 406
233 8 399 401 402 407
234 8 399 401 402 408
235 10 325 326 327 328
236 11 325 326 327 328
237 12 325 326 327 329
238 8 327 326 325 331
239 8 327 326 325 332
240 8 327 326 325 333
241 12 362 363 365 366
242 10 364 363 365 366
243 11 364 363 365 366
244 8 603 605 606 610
245 8 603 605 606 611
246 8 603 605 606 612
247 12 326 327 329 330
248 10 328 327 329 330
249 11 328 327 329 330
250 10 601 602 603 604
251 11 601 602 603 604
252 12 601 602 603 605
253 8 603 602 601 607
254 8 603 602 601 608
255 8 603 602 601 609
256 1 142 141 146 144
257 2 142 141 146 144
258 6 146 141 142 149
259 7 146 141 142 149
260 6 146 141 142 150
261 7 146 141 142 150
262 9 147 141 142 149
263 9 147 141 142 150
264 9 148 141 142 149
265 9 148 141 142 150
266 8 327 329 330 334
267 8 327 329 330 335
268 8 327 329 330 336
269 10 829 830 831 832
270 11 829 830 831 832
271 12 829 830 831 833
272 8 831 830 829 835
273 8 831 830 829 836
274 8 831 830 829 837
275 10 373 374 375 376
276 11 373 374 375 376
277 12 373 374 375 377
278 8 375 374 373 379
279 8 375 374 373 380
280 8 375 374 373 381
281 8 375 377 378 382
282 8 375 377 378 383
283 8 375 377 378 384
284 3 71 76 74 73
285 3 71 76 74 75
286 8 74 76 71 77
287 8 74 76 71 78
288 8 363 365 366 370
289 8 363 365 366 371
290 8 363 365 366 372
291 3 142 143 144 145
292 3 142 143 144 146
293 8 144 143 142 149
294 8 144 143 142 150
295 10 697 698 699 700
296 11 697 698 699 700
297 12 697 698 699 701
298 8 699 698 697 703
299 8 699 698 697 704
300 8 699 698 697 705
301 12 698 699 701 702
302 10 700 699 701 702
303 11 700 699 701 702
304 8 831 833 834 838
305 8 831 833 834 839
306 8 831 833 834 840
307 8 699 701 702 706
308 8 699 701 702 707
309 8 699 701 702 708
310 12 602 603 605 606
311 10 604 603 605 606
312 11 604 603 605 606
313 3 2 3 4 5
314 3 2 3 4 6
315 8 4 3 2 9
316 8 4 3 2 10
317 1 201 202 203 204
318 2 201 202 203 204
319 4 203 202 201 206
320 5 203 202 201 206
321 6 203 202 201 207
322 7 203 202 201 207
323 6 203 202 201 208
324 7 203 202 201 208
325 1 141 142 143 144
326 2 141 142 143 144
327 4 143 142 141 146
328 5 143 142 141 146
329 6 143 142 141 147
330 7 143 142 141 147
331 6 143 142 141 148
332 7 143 142 141 148
333 12 374 375 377 378
334 10 376 375 377 378
335 11 376 375 377 378
336 12 830 831 833 834
337 10 832 831 833 834
338 11 832 831 833 834
339 10 793 794 795 796
340 11 793 794 795 796
341 12 793 794 795 797
342 8 795 794 793 799
343 8 795 794 793 800
344 8 795 794 793 801
345 3 52 53 54 55
346 3 52 53 54 56
347 8 54 53 52 59
348 8 54 53 52 60
349 8 507 509 510 514
350 8 507 509 510 515
351 8 507 509 510 516
352 3 91 96 94 93
353 3 91 96 94 95
354 8 94 96 91 97
355 8 94 96 91 98
356 1 92 91 96 94
357 2 92 91 96 94
358 6 96 91 92 99
359 7 96 91 92 99
360 6 96 91 92 100
361 7 96 91 92 100
362 9 97 91 92 99
363 9 97 91 92 100
364 9 98 91 92 99
365 9 98 91 92 100
366 12 506 507 509 510
367 10 508 507 509 510
368 11 508 507 509 510
369 10 505 506 507 508
370 11 505 506 507 508
371 12 505 506 507 509
372 8 507 506 505 511
373 8 507 506 505 512
374 8 507 506 505 513
375 1 91 92 93 94
376 2 91 92 93 94
377 4 93 92 91 96
378 5 93 92 91 96
379 6 93 92 91 97
380 7 93 92 91 97
381 6 93 92 91 98
382 7 93 92 91 98
383 3 92 93 94 95
384 3 92 93 94 96
385 8 94 93 92 99
386 8 94 93 92 100
387 3 22 23 24 25
388 3 22 23 24 26
389 8 24 23 22 29
390 8 24 23 22 30
391 1 51 52 53 54
392 2 51 52 53 54
393 4 53 52 51 56
394 5 53 52 51 56
395 6 53 52 51 57
396 7 53 52 51 57
397 6 53 52 51 58
398 7 53 52 51 58
399 3 281 286 284 283
400 3 281 286 284 285
401 8 284 286 281 287
402 8 284 286 281 288
403 8 543 545 546 550
404 8 543 545 546 551
405 8 543 545 546 552
406 3 51 56 54 53
407 3 51 56 54 55
408 8 54 56 51 57
409 8 54 56 51 58
410 3 21 26 24 23
411 3 21 26 24 25
412 8 24 26 21 27
413 8 24 26 21 28
414 1 22 21 26 24
415 2 22 21 26 24
416 6 26 21 22 29
417 7 26 21 22 29
418 6 26 21 22 30
419 7 26 21 22 30
420 9 27 21 22 29
421 9 27 21 22 30
422 9 28 21 22 29
423 9 28 21 22 30
424 1 21 22 23 24
425 2 21 22 23 24
426 4 23 22 21 26
427 5 23 22 21 26
428 6 23 22 21 27
429 7 23 22 21 27
430 6 23 22 21 28
431 7 23 22 21 28
432 12 722 723 725 726
433 10 724 723 725 726
434 11 724 723 725 726
435 3 251 256 254 253
436 3 251 256 254 255
437 8 254 256 251 257
438 8 254 256 251 258
439 1 52 51 56 54
440 2 52 51 56 54
441 6 56 51 52 59
442 7 56 51 52 59
443 6 56 51 52 60
444 7 56 51 52 60
445 9 57 51 52 59
446 9 57 51 52 60
447 9 58 51 52 59
448 9 58 51 52 60
449 10 577 578 579 580
450 11 577 578 579 580
451 12 577 578 579 581
452 8 579 578 577 583
453 8 579 578 577 584
454 8 579 578 577 585
455 3 252 253 254 255
456 3 252 253 254 256
457 8 254 253 252 259
458 8 254 253 252 260
459 1 251 252 253 254
460 2 251 252 253 254
461 4 253 252 251 256
462 5 253 252 251 256
463 6 253 252 251 257
464 7 253 252 251 257
465 6 253 252 251 258
466 7 253 252 251 258
467 8 447 449 450 454
468 8 447 449 450 455
469 8 447 449 450 456
470 8 723 725 726 730
471 8 723 725 726 731
472 8 723 725 726 732
473 3 151 156 154 153
474 3 151 156 154 155
475 8 154 156 151 157
476 8 154 156 151 158
477 1 292 291 296 294
478 2 292 291 296 294
479 6 296 291 292 299
480 7 296 291 292 299
481 6 296 291 292 300
482 7 296 291 292 300
483 9 297 291 292 299
484 9 297 291 292 300
485 9 298 291 292 299
486 9 298 291 292 300
487 12 578 579 581 582
488 10 580 579 581 582
489 11 580 579 581 582
490 8 579 581 582 586
491 8 579 581 582 587
492 8 579 581 582 588
493 1 152 151 156 154
494 2 152 151 156 154
495 6 156 151 152 159
496 7 156 151 152 159
497 6 156 151 152 160
498 7 156 151 152 160
499 9 157 151 152 159
500 9 157 151 152 160
501 9 158 151 152 159
502 9 158 151 152 160
503 1 1 2 3 4
504 2 1 2 3 4
505 4 3 2 1 6
506 5 3 2 1 6
507 6 3 2 1 7
508 7 3 2 1 7
509 6 3 2 1 8
510 7 3 2 1 8
511 1 151 152 153 154
512 2 151 152 153 154
513 4 153 152 151 156
514 5 153 152 151 156
515 6 153 152 151 157
516 7 153 152 151 157
517 6 153 152 151 158
518 7 153 152 151 158
519 10 721 722 723 724
520 11 721 722 723 724
521 12 721 722 723 725
522 8 723 722 721 727
523 8 723 722 721 728
524 8 723 722 721 729
525 8 459 461 462 466
526 8 459 461 462 467
527 8 459 461 462 468
528 3 152 153 154 155
529 3 152 153 154 156
530 8 154 153 152 159
531 8 154 153 152 160
532 3 221 226 224 223
533 3 221 226 224 225
534 8 224 226 221 227
535 8 224 226 221 228
536 8 843 845 846 850
537 8 843 845 846 851
538 8 843 845 846 852
539 12 590 591 593 594
540 10 592 591 593 594
541 11 592 591 593 594
542 3 212 213 214 215
543 3 212 213 214 216
544 8 214 213 212 219
545 8 214 213 212 220
546 10 589 590 591 592
547 11 589 590 591 592
548 12 589 590 591 593
549 8 591 590 589 595
550 8 591 590 589 596
551 8 591 590 589 597
552 12 842 843 845 846
553 10 844 843 845 846
554 11 844 843 845 846
555 1 221 222 223 224
556 2 221 222 223 224
557 4 223 222 221 226
558 5 223 222 221 226
559 6 223 222 221 227
560 7 223 222 221 227
561 6 223 222 221 228
562 7 223 222 221 228
563 3 222 223 224 225
564 3 222 223 224 226
565 8 224 223 222 229
566 8 224 223 222 230
567 1 222 221 226 224
568 2 222 221 226 224
569 6 226 221 222 229
570 7 226 221 222 229
571 6 226 221 222 230
572 7 226 221 222 230
573 9 227 221 222 229
574 9 227 221 222 230
575 9 228 221 222 229
576 9 228 221 222 230
577 10 841 842 843 844
578 11 841 842 843 844
579 12 841 842 843 845
580 8 843 842 841 847
581 8 843 842 841 848
582 8 843 842 841 849
583 10 457 458 459 460
584 11 457 458 459 460
585 12 457 458 459 461
586 8 459 458 457 463
587 8 459 458 457 464
588 8 459 458 457 465
589 8 939 941 942 946
590 8 939 941 942 947
591 8 939 941 942 948
592 1 121 122 123 124
593 2 121 122 123 124
594 4 123 122 121 126
595 5 123 122 121 126
596 6 123 122 121 127
597 7 123 122 121 127
598 6 123 122 121 128
599 7 123 122 121 128
600 8 591 593 594 598
601 8 591 593 594 599
602 8 591 593 594 600
603 3 72 73 74 75
604 3 72 73 74 76
605 8 74 73 72 79
606 8 74 73 72 80
607 1 2 1 6 4
608 2 2 1 6 4
609 6 6 1 2 9
610 7 6 1 2 9
611 6 6 1 2 10
612 7 6 1 2 10
613 9 7 1 2 9
614 9 7 1 2 10
615 9 8 1 2 9
616 9 8 1 2 10
617 12 458 459 461 462
618 10 460 459 461 462
619 11 460 459 461 462
620 3 211 216 214 213
621 3 211 216 214 215
622 8 214 216 211 217
623 8 214 216 211 218
624 12 446 447 449 450
625 10 448 447 449 450
626 11 448 447 449 450
627 1 281 282 283 284
628 2 281 282 283 284
629 4 283 282 281 286
630 5 283 282 281 286
631 6 283 282 281 287
632 7 283 282 281 287
633 6 283 282 281 288
634 7 283 282 281 288
635 10 637 638 639 640
636 11 637 638 639 640
637 12 637 638 639 641
638 8 639 638 637 643
639 8 639 638 637 644
640 8 639 638 637 645
641 1 282 281 286 284
642 2 282 281 286 284
643 6 286 281 282 289
644 7 286 281 282 289
645 6 286 281 282 290
646 7 286 281 282 290
647 9 287 281 282 289
648 9 287 281 282 290
649 9 288 281 282 289
650 9 288 281 282 290
651 1 71 72 73 74
652 2 71 72 73 74
653 4 73 72 71 76
654 5 73 72 71 76
655 6 73 72 71 77
656 7 73 72 71 77
657 6 73 72 71 78
658 7 73 72 71 78
659 10 445 446 447 448
660 11 445 446 447 448
661 12 445 446 447 449
662 8 447 446 445 451
663 8 447 446 445 452
664 8 447 446 445 453
665 12 626 627 629 630
666 10 628 627 629 630
667 11 628 627 629 630
668 12 758 759 761 762
669 10 760 759 761 762
670 11 760 759 761 762
671 8 627 629 630 634
672 8 627 629 630 635
673 8 627 629 630 636
674 12 638 639 641 642
675 10 640 639 641 642
676 11 640 639 641 642
677 3 1 6 4 3
678 3 1 6 4 5
679 8 4 6 1 7
680 8 4 6 1 8
681 10 541 542 543 544
682 11 541 542 543 544
683 12 541 542 543 545
684 8 543 542 541 547
685 8 543 542 541 548
686 8 543 542 541 549
687 8 639 641 642 646
688 8 639 641 642 647
689 8 639 641 642 648
690 8 819 821 822 826
691 8 819 821 822 827
692 8 819 821 822 828
693 12 542 543 545 546
694 10 544 543 545 546
695 11 544 543 545 546
696 12 818 819 821 822
697 10 820 819 821 822
698 11 820 819 821 822
699 8 759 761 762 766
700 8 759 761 762 767
701 8 759 761 762 768
702 10 625 626 627 628
703 11 625 626 627 628
704 12 625 626 627 629
705 8 627 626 625 631
706 8 627 626 625 632
707 8 627 626 625 633
708 10 817 818 819 820
709 11 817 818 819 820
710 12 817 818 819 821
711 8 819 818 817 823
712 8 819 818 817 824
713 8 819 818 817 825
714 8 795 797 798 802
715 8 795 797 798 803
716 8 795 797 798 804
717 1 291 292 293 294
718 2 291 292 293 294
719 4 293 292 291 296
720 5 293 292 291 296
721 6 293 292 291 297
722 7 293 292 291 297
723 6 293 292 291 298
724 7 293 292 291 298
725 10 757 758 759 760
726 11 757 758 759 760
727 12 757 758 759 761
728 8 759 758 757 763
729 8 759 758 757 764
730 8 759 758 757 765
731 1 252 251 256 254
732 2 252 251 256 254
733 6 256 251 252 259
734 7 256 251 252 259
735 6 256 251 252 260
736 7 256 251 252 260
737 9 257 251 252 259
738 9 257 251 252 260
739 9 258 251 252 259
740 9 258 251 252 260
741 8 615 617 618 622
742 8 615 617 618 623
743 8 615 617 618 624
744 10 613 614 615 616
745 11 613 614 615 616
746 12 613 614 615 617
747 8 615 614 613 619
748 8 615 614 613 620
749 8 615 614 613 621
750 12 614 615 617 618
751 10 616 615 617 618
752 11 616 615 617 618
753 3 42 43 44 45
754 3 42 43 44 46
755 8 44 43 42 49
756 8 44 43 42 50
757 10 313 314 315 316
758 11 313 314 315 316
759 12 313 314 315 317
760 8 315 314 313 319
761 8 315 314 313 320
762 8 315 314 313 321
763 3 101 106 104 103
764 3 101 106 104 105
765 8 104 106 101 107
766 8 104 106 101 108
767 3 102 103 104 105
768 3 102 103 104 106
769 8 104 103 102 109
770 8 104 103 102 110
771 1 102 101 106 104
772 2 102 101 106 104
773 6 106 101 102 109
774 7 106 101 102 109
775 6 106 101 102 110
776 7 106 101 102 110
777 9 107 101 102 109
778 9 107 101 102 110
779 9 108 101 102 109
780 9 108 101 102 110
781 8 567 569 570 574
782 8 567 569 570 575
783 8 567 569 570 576
784 12 662 663 665 666
785 10 664 663 665 666
786 11 664 663 665 666
787 10 649 650 651 652
788 11 649 650 651 652
789 12 649 650 651 653
790 8 651 650 649 655
791 8 651 650 649 656
792 8 651 650 649 657
793 12 650 651 653 654
794 10 652 651 653 654
795 11 652 651 653 654
796 8 663 665 666 670
797 8 663 665 666 671
798 8 663 665 666 672
799 1 101 102 103 104
800 2 101 102 103 104
801 4 103 102 101 106
802 5 103 102 101 106
803 6 103 102 101 107
804 7 103 102 101 107
805 6 103 102 101 108
806 7 103 102 101 108
807 10 493 494 495 496
808 11 493 494 495 496
809 12 493 494 495 497
810 8 495 494 493 499
811 8 495 494 493 500
812 8 495 494 493 501
813 10 661 662 663 664
814 11 661 662 663 664
815 12 661 662 663 665
816 8 663 662 661 667
817 8 663 662 661 668
818 8 663 662 661 669
819 8 519 521 522 526
820 8 519 521 522 527
821 8 519 521 522 528
822 10 565 566 567 568
823 11 565 566 567 568
824 12 565 566 567 569
825 8 567 566 565 571
826 8 567 566 565 572
827 8 567 566 565 573
828 12 566 567 569 570
829 10 568 567 569 570
830 11 568 567 569 570
831 1 131 132 133 134
832 2 131 132 133 134
833 4 133 132 131 136
834 5 133 132 131 136
835 6 133 132 131 137
836 7 133 132 131 137
837 6 133 132 131 138
838 7 133 132 131 138
839 12 494 495 497 498
840 10 496 495 497 498
841 11 496 495 497 498
842 12 314 315 317 318
843 10 316 315 317 318
844 11 316 315 317 318
845 12 398 399 401 402
846 10 400 399 401 402
847 11 400 399 401 402
848 3 11 16 14 13
849 3 11 16 14 15
850 8 14 16 11 17
851 8 14 16 11 18
852 10 805 806 807 808
853 11 805 806 807 808
854 12 805 806 807 809
855 8 807 806 805 811
856 8 807 806 805 812
857 8 807 806 805 813
858 3 131 136 134 133
859 3 131 136 134 135
860 8 134 136 131 137
861 8 134 136 131 138
862 1 132 131 136 134
863 2 132 131 136 134
864 6 136 131 132 139
865 7 136 131 132 139
866 6 136 131 132 140
867 7 136 131 132 140
868 9 137 131 132 139
869 9 137 131 132 140
870 9 138 131 132 139
871 9 138 131 132 140
872 8 495 497 498 502
873 8 495 497 498 503
874 8 495 497 498 504
875 3 201 206 204 203
876 3 201 206 204 205
877 8 204 206 201 207
878 8 204 206 201 208
879 10 865 866 867 868
880 11 865 866 867 868
881 12 865 866 867 869
882 8 867 866 865 871
883 8 867 866 865 872
884 8 867 866 865 873
885 8 807 809 810 814
886 8 807 809 810 815
887 8 807 809 810 816
888 12 806 807 809 810
889 10 808 807 809 810
890 11 808 807 809 810
891 8 675 677 678 682
892 8 675 677 678 683
893 8 675 677 678 684
894 1 31 32 33 34
895 2 31 32 33 34
896 4 33 32 31 36
897 5 33 32 31 36
898 6 33 32 31 37
899 7 33 32 31 37
900 6 33 32 31 38
901 7 33 32 31 38
902 12 914 915 917 918
903 10 916 915 917 918
904 11 916 915 917 918
905 8 435 437 438 442
906 8 435 437 438 443
907 8 435 437 438 444
908 10 781 782 783 784
909 11 781 782 783 784
910 12 781 782 783 785
911 8 783 782 781 787
912 8 783 782 781 788
913 8 783 782 781 789
914 12 866 867 869 870
915 10 868 867 869 870
916 11 868 867 869 870
917 1 32 31 36 34
918 2 32 31 36 34
919 6 36 31 32 39
920 7 36 31 32 39
921 6 36 31 32 40
922 7 36 31 32 40
923 9 37 31 32 39
924 9 37 31 32 40
925 9 38 31 32 39
926 9 38 31 32 40
927 3 32 33 34 35
928 3 32 33 34 36
929 8 34 33 32 39
930 8 34 33 32 40
931 12 674 675 677 678
932 10 676 675 677 678
933 11 676 675 677 678
934 12 554 555 557 558
935 10 556 555 557 558
936 11 556 555 557 558
937 10 877 878 879 880
938 11 877 878 879 880
939 12 877 878 879 881
940 8 879 878 877 883
941 8 879 878 877 884
942 8 879 878 877 885
943 10 913 914 915 916
944 11 913 914 915 916
945 12 913 914 915 917
946 8 915 914 913 919
947 8 915 914 913 920
948 8 915 914 913 921
949 10 337 338 339 340
950 11 337 338 339 340
951 12 337 338 339 341
952 8 339 338 337 343
953 8 339 338 337 344
954 8 339 338 337 345
955 1 12 11 16 14
956 2 12 11 16 14
957 6 16 11 12 19
958 7 16 11 12 19
959 6 16 11 12 20
960 7 16 11 12 20
961 9 17 11 12 19
962 9 17 11 12 20
963 9 18 11 12 19
964 9 18 11 12 20
965 1 41 42 43 44
966 2 41 42 43 44
967 4 43 42 41 46
968 5 43 42 41 46
969 6 43 42 41 47
970 7 43 42 41 47
971 6 43 42 41 48
972 7 43 42 41 48
973 1 81 82 83 84
974 2 81 82 83 84
975 4 83 82 81 86
976 5 83 82 81 86
977 6 83 82 81 87
978 7 83 82 81 87
979 6 83 82 81 88
980 7 83 82 81 88
981 8 867 869 870 874
982 8 867 869 870 875
983 8 867 869 870 876
984 3 81 86 84 83
985 3 81 86 84 85
986 8 84 86 81 87
987 8 84 86 81 88
988 10 925 926 927 928
989 11 925 926 927 928
990 12 925 926 927 929
991 8 927 926 925 931
992 8 927 926 925 932
993 8 927 926 925 933
994 10 673 674 675 676
995 11 673 674 675 676
996 12 673 674 675 677
997 8 675 674 673 679
998 8 675 674 673 680
999 8 675 674 673 681
1000 8 555 557 558 562
1001 8 555 557 558 563
1002 8 555 557 558 564
1003 1 82 81 86 84
1004 2 82 81 86 84
1005 6 86 81 82 89
1006 7 86 81 82 89
1007 6 86 81 82 90
1008 7 86 81 82 90
1009 9 87 81 82 89
1010 9 87 81 82 90
1011 9 88 81 82 89
1012 9 88 81 82 90
1013 3 31 36 34 33
1014 3 31 36 34 35
1015 8 34 36 31 37
1016 8 34 36 31 38
1017 8 927 929 930 934
1018 8 927 929 930 935
1019 8 927 929 930 936
1020 12 434 435 437 438
1021 10 436 435 437 438
1022 11 436 435 437 438
1023 12 926 927 929 930
1024 10 928 927 929 930
1025 11 928 927 929 930
1026 12 338 339 341 342
1027 10 340 339 341 342
1028 11 340 339 341 342
1029 8 651 653 654 658
1030 8 651 653 654 659
1031 8 651 653 654 660
1032 8 915 917 918 922
1033 8 915 917 918 923
1034 8 915 917 918 924
1035 8 339 341 342 346
1036 8 339 341 342 347
1037 8 339 341 342 348
1038 10 433 434 435 436
1039 11 433 434 435 436
1040 12 433 434 435 437
1041 8 435 434 433 439
1042 8 435 434 433 440
1043 8 435 434 433 441
1044 10 409 410 411 412
1045 11 409 410 411 412
1046 12 409 410 411 413
1047 8 411 410 409 415
1048 8 411 410 409 416
1049 8 411 410 409 417
1050 10 517 518 519 520
1051 11 517 518 519 520
1052 12 517 518 519 521
1053 8 519 518 517 523
1054 8 519 518 517 524
1055 8 519 518 517 525
1056 1 202 201 206 204
1057 2 202 201 206 204
1058 6 206 201 202 209
1059 7 206 201 202 209
1060 6 206 201 202 210
1061 7 206 201 202 210
1062 9 207 201 202 209
1063 9 207 201 202 210
1064 9 208 201 202 209
1065 9 208 201 202 210
1066 8 471 473 474 478
1067 8 471 473 474 479
1068 8 471 473 474 480
1069 8 903 905 906 910
1070 8 903 905 906 911
1071 8 903 905 906 912
1072 10 397 398 399 400
1073 11 397 398 399 400
1074 12 397 398 399 401
1075 8 399 398 397 403
1076 8 399 398 397 404
1077 8 399 398 397 405
1078 12 782 783 785 786
1079 10 784 783 785 786
1080 11 784 783 785 786
1081 10 901 902 903 904
1082 11 901 902 903 904
1083 12 901 902 903 905
1084 8 903 902 901 907
1085 8 903 902 901 908
1086 8 903 902 901 909
1087 8 783 785 786 790
1088 8 783 785 786 791
1089 8 783 785 786 792
1090 3 202 203 204 205
1091 3 202 203 204 206
1092 8 204 203 202 209
1093 8 204 203 202 210
1094 10 553 554 555 556
1095 11 553 554 555 556
1096 12 553 554 555 557
1097 8 555 554 553 559
1098 8 555 554 553 560
1099 8 555 554 553 561
1100 12 302 303 305 306
1101 10 304 303 305 306
1102 11 304 303 305 306
1103 10 301 302 303 304
1104 11 301 302 303 304
1105 12 301 302 303 305
1106 8 303 302 301 307
1107 8 303 302 301 308
1108 8 303 302 301 309
1109 8 303 305 306 310
1110 8 303 305 306 311
1111 8 303 305 306 312
1112 8 351 353 354 358
1113 8 351 353 354 359
1114 8 351 353 354 360
1115 12 350 351 353 354
1116 10 352 351 353 354
1117 11 352 351 353 354
1118 10 349 350 351 352
1119 11 349 350 351 352
1120 12 349 350 351 353
1121 8 351 350 349 355
1122 8 351 350 349 356
1123 8 351 350 349 357
1124 3 181 186 184 183
1125 3 181 186 184 185
1126 8 184 186 181 187
1127 8 184 186 181 188
1128 3 182 183 184 185
1129 3 182 183 184 186
1130 8 184 183 182 189
1131 8 184 183 182 190
1132 1 172 171 176 174
1133 2 172 171 176 174
1134 6 176 171 172 179
1135 7 176 171 172 179
1136 6 176 171 172 180
1137 7 176 171 172 180
1138 9 177 171 172 179
1139 9 177 171 172 180
1140 9 178 171 172 179
1141 9 178 171 172 180
1142 1 182 181 186 184
1143 2 182 181 186 184
1144 6 186 181 182 189
1145 7 186 181 182 189
1146 6 186 181 182 190
1147 7 186 181 182 190
1148 9 187 181 182 189
1149 9 187 181 182 190
1150 9 188 181 182 189
1151 9 188 181 182 190
1152 1 171 172 173 174
1153 2 171 172 173 174
1154 4 173 172 171 176
1155 5 173 172 171 176
1156 6 173 172 171 177
1157 7 173 172 171 177
1158 6 173 172 171 178
1159 7 173 172 171 178
1160 1 181 182 183 184
1161 2 181 182 183 184
1162 4 183 182 181 186
1163 5 183 182 181 186
1164 6 183 182 181 187
1165 7 183 182 181 187
1166 6 183 182 181 188
1167 7 183 182 181 188
1168 1 272 271 276 274
1169 2 272 271 276 274
1170 6 276 271 272 279
1171 7 276 271 272 279
1172 6 276 271 272 280
1173 7 276 271 272 280
1174 9 277 271 272 279
1175 9 277 271 272 280
1176 9 278 271 272 279
1177 9 278 271 272 280
1178 1 271 272 273 274
1179 2 271 272 273 274
1180 4 273 272 271 276
1181 5 273 272 271 276
1182 6 273 272 271 277
1183 7 273 272 271 277
1184 6 273 272 271 278
1185 7 273 272 271 278
1186 12 470 471 473 474
1187 10 472 471 473 474
1188 11 472 471 473 474
1189 12 878 879 881 882
1190 10 880 879 881 882
1191 11 880 879 881 882
1192 3 282 283 284 285
1193 3 282 283 284 286
1194 8 284 283 282 289
1195 8 284 283 282 290
1196 3 172 173 174 175
1197 3 172 173 174 176
1198 8 174 173 172 179
1199 8 174 173 172 180
1200 10 469 470 471 472
1201 11 469 470 471 472
1202 12 469 470 471 473
1203 8 471 470 469 475
1204 8 471 470 469 476
1205 8 471 470 469 477
1206 3 41 46 44 43
1207 3 41 46 44 45
1208 8 44 46 41 47
1209 8 44 46 41 48
1210 8 891 893 894 898
1211 8 891 893 894 899
1212 8 891 893 894 900
1213 8 483 485 486 490
1214 8 483 485 486 491
1215 8 483 485 486 492
1216 1 42 41 46 44
1217 2 42 41 46 44
1218 6 46 41 42 49
1219 7 46 41 42 49
1220 6 46 41 42 50
1221 7 46 41 42 50
1222 9 47 41 42 49
1223 9 47 41 42 50
1224 9 48 41 42 49
1225 9 48 41 42 50
1226 3 271 276 274 273
1227 3 271 276 274 275
1228 8 274 276 271 277
1229 8 274 276 271 278
1230 12 686 687 689 690
1231 10 688 687 689 690
1232 11 688 687 689 690
1233 12 482 483 485 486
1234 10 484 483 485 486
1235 11 484 483 485 486
1236 3 272 273 274 275
1237 3 272 273 274 276
1238 8 274 273 272 279
1239 8 274 273 272 280
1240 1 212 211 216 214
1241 2 212 211 216 214
1242 6 216 211 212 219
1243 7 216 211 212 219
1244 6 216 211 212 220
1245 7 216 211 212 220
1246 9 217 211 212 219
1247 9 217 211 212 220
1248 9 218 211 212 219
1249 9 218 211 212 220
1250 3 111 116 114 113
1251 3 111 116 114 115
1252 8 114 116 111 117
1253 8 114 116 111 118
1254 12 890 891 893 894
1255 10 892 891 893 894
1256 11 892 891 893 894
1257 10 889 890 891 892
1258 11 889 890 891 892
1259 12 889 890 891 893
1260 8 891 890 889 895
1261 8 891 890 889 896
1262 8 891 890 889 897
1263 1 162 161 166 164
1264 2 162 161 166 164
1265 6 166 161 162 169
1266 7 166 161 162 169
1267 6 166 161 162 170
1268 7 166 161 162 170
1269 9 167 161 162 169
1270 9 167 161 162 170
1271 9 168 161 162 169
1272 9 168 161 162 170
1273 3 291 296 294 293
1274 3 291 296 294 295
1275 8 294 296 291 297
1276 8 294 296 291 298
1277 3 292 293 294 295
1278 3 292 293 294 296
1279 8 294 293 292 299
1280 8 294 293 292 300
1281 10 529 530 531 532
1282 11 529 530 531 532
1283 12 529 530 531 533
1284 8 531 530 529 535
1285 8 531 530 529 536
1286 8 531 530 529 537
1287 8 531 533 534 538
1288 8 531 533 534 539
1289 8 531 533 534 540
1290 12 530 531 533 534
1291 10 532 531 533 534
1292 11 532 531 533 534
1293 8 747 749 750 754
1294 8 747 749 750 755
1295 8 747 749 750 756
1296 12 746 747 749 750
1297 10 748 747 749 750
1298 11 748 747 749 750
1299 10 745 746 747 748
1300 11 745 746 747 748
1301 12 745 746 747 749
1302 8 747 746 745 751
1303 8 747 746 745 752
1304 8 747 746 745 753
1305 8 855 857 858 862
1306 8 855 857 858 863
1307 8 855 857 858 864
1308 12 854 855 857 858
1309 10 856 855 857 858
1310 11 856 855 857 858
1311 12 950 951 953 954
1312 10 952 951 953 954
1313 11 952 951 953 954
1314 10 853 854 855 856
1315 11 853 854 855 856
1316 12 853 854 855 857
1317 8 855 854 853 859
1318 8 855 854 853 860
1319 8 855 854 853 861
1320 3 161 166 164 163
1321 3 161 166 164 165
1322 8 164 166 161 167
1323 8 164 166 161 168
1324 8 951 953 954 958
1325 8 951 953 954 959
1326 8 951 953 954 960
1327 3 162 163 164 165
1328 3 162 163 164 166
1329 8 164 163 162 169
1330 8 164 163 162 170
1331 3 132 133 134 135
1332 3 132 133 134 136
1333 8 134 133 132 139
1334 8 134 133 132 140
1335 10 949 950 951 952
1336 11 949 950 951 952
1337 12 949 950 951 953
1338 8 951 950 949 955
1339 8 951 950 949 956
1340 8 951 950 949 957
1341 1 211 212 213 214
1342 2 211 212 213 214
1343 4 213 212 211 216
1344 5 213 212 211 216
1345 6 213 212 211 217
1346 7 213 212 211 217
1347 6 213 212 211 218
1348 7 213 212 211 218
1349 8 687 689 690 694
1350 8 687 689 690 695
1351 8 687 689 690 696
1352 3 171 176 174 173
1353 3 171 176 174 175
1354 8 174 176 171 177
1355 8 174 176 171 178
1356 1 161 162 163 164
1357 2 161 162 163 164
1358 4 163 162 161 166
1359 5 163 162 161 166
1360 6 163 162 161 167
1361 7 163 162 161 167
1362 6 163 162 161 168
1363 7 163 162 161 168
1364 8 879 881 882 886
1365 8 879 881 882 887
1366 8 879 881 882 888
1367 10 481 482 483 484
1368 11 481 482 483 484
1369 12 481 482 483 485
1370 8 483 482 481 487
1371 8 483 482 481 488
1372 8 483 482 481 489
1373 8 735 737 738 742
1374 8 735 737 738 743
1375 8 735 737 738 744
1376 8 411 413 414 418
1377 8 411 413 414 419
1378 8 411 413 414 420
1379 12 410 411 413 414
1380 10 412 411 413 414
1381 11 412 411 413 414
1382 1 122 121 126 124
1383 2 122 121 126 124
1384 6 126 121 122 129
1385 7 126 121 122 129
1386 6 126 121 122 130
1387 7 126 121 122 130
1388 9 127 121 122 129
1389 9 127 121 122 130
1390 9 128 121 122 129
1391 9 128 121 122 130
1392 10 733 734 735 736
1393 11 733 734 735 736
1394 12 733 734 735 737
1395 8 735 734 733 739
1396 8 735 734 733 740
1397 8 735 734 733 741
1398 3 112 113 114 115
1399 3 112 113 114 116
1400 8 114 113 112 119
1401 8 114 113 112 120
1402 8 423 425 426 430
1403 8 423 425 426 431
1404 8 423 425 426 432
1405 10 421 422 423 424
1406 11 421 422 423 424
1407 12 421 422 423 425
1408 8 423 422 421 427
1409 8 423 422 421 428
1410 8 423 422 421 429
1411 3 122 123 124 125
1412 3 122 123 124 126
1413 8 124 123 122 129
1414 8 124 123 122 130
1415 1 111 112 113 114
1416 2 111 112 113 114
1417 4 113 112 111 116
1418 5 113 112 111 116
1419 6 113 112 111 117
1420 7 113 112 111 117
1421 6 113 112 111 118
1422 7 113 112 111 118
1423 1 112 111 116 114
1424 2 112 111 116 114
1425 6 116 111 112 119
1426 7 116 111 112 119
1427 6 116 111 112 120
1428 7 116 111 112 120
1429 9 117 111 112 119
1430 9 117 111 112 120
1431 9 118 111 112 119
1432 9 118 111 112 120
1433 12 734 735 737 738
1434 10 736 735 737 738
1435 11 736 735 737 738
1436 3 121 126 124 123
1437 3 121 126 124 125
1438 8 124 126 121 127
1439 8 124 126 121 128
1440 3 82 83 84 85
1441 3 82 83 84 86
1442 8 84 83 82 89
1443 8 84 83 82 90
1444 12 422 423 425 426
1445 10 424 423 425 426
1446 11 424 423 425 426
1447 10 685 686 687 688
1448 11 685 686 687 688
1449 12 685 686 687 689
1450 8 687 686 685 691
1451 8 687 686 685 692
1452 8 687 686 685 693

Impropers

1 1 711 712 713 710
2 1 903 904 905 902
3 1 711 710 712 713
4 1 939 940 941 938
5 1 387 388 389 386
6 1 771 770 772 773
7 1 387 386 388 389
8 1 771 772 773 770
9 1 711 713 710 712
10 1 64 66 63 65
11 1 144 146 143 145
12 1 315 317 314 316
13 1 939 938 940 941
14 1 244 245 246 243
15 1 771 773 770 772
16 1 14 15 16 13
17 1 4 5 6 3
18 1 74 75 76 73
19 1 447 448 449 446
20 1 64 63 65 66
21 1 783 784 785 782
22 1 194 193 195 196
23 1 244 243 245 246
24 1 14 13 15 16
25 1 519 520 521 518
26 1 194 196 193 195
27 1 264 266 263 265
28 1 234 235 236 233
29 1 963 964 965 962
30 1 963 962 964 965
31 1 963 965 962 964
32 1 234 236 233 235
33 1 64 65 66 63
34 1 234 233 235 236
35 1 264 265 266 263
36 1 387 389 386 388
37 1 363 362 364 365
38 1 264 263 265 266
39 1 244 246 243 245
40 1 399 401 398 400
41 1 327 326 328 329
42 1 363 364 365 362
43 1 831 832 833 830
44 1 603 605 602 604
45 1 603 602 604 605
46 1 603 604 605 602
47 1 327 329 326 328
48 1 831 830 832 833
49 1 375 374 376 377
50 1 375 377 374 376
51 1 74 76 73 75
52 1 363 365 362 364
53 1 144 143 145 146
54 1 699 698 700 701
55 1 327 328 329 326
56 1 831 833 830 832
57 1 699 701 698 700
58 1 4 3 5 6
59 1 375 376 377 374
60 1 795 794 796 797
61 1 54 53 55 56
62 1 54 55 56 53
63 1 507 509 506 508
64 1 94 96 93 95
65 1 507 506 508 509
66 1 94 93 95 96
67 1 24 23 25 26
68 1 507 508 509 506
69 1 284 286 283 285
70 1 543 545 542 544
71 1 54 56 53 55
72 1 24 26 23 25
73 1 24 25 26 23
74 1 254 256 253 255
75 1 723 724 725 722
76 1 579 578 580 581
77 1 254 253 255 256
78 1 447 449 446 448
79 1 723 725 722 724
80 1 579 580 581 578
81 1 154 156 153 155
82 1 154 155 156 153
83 1 94 95 96 93
84 1 194 195 196 193
85 1 579 581 578 580
86 1 723 722 724 725
87 1 459 461 458 460
88 1 154 153 155 156
89 1 224 226 223 225
90 1 843 845 842 844
91 1 214 215 216 213
92 1 214 213 215 216
93 1 591 590 592 593
94 1 591 592 593 590
95 1 224 223 225 226
96 1 843 844 845 842
97 1 843 842 844 845
98 1 224 225 226 223
99 1 459 458 460 461
100 1 939 941 938 940
101 1 591 593 590 592
102 1 74 73 75 76
103 1 459 460 461 458
104 1 214 216 213 215
105 1 639 638 640 641
106 1 447 446 448 449
107 1 543 544 545 542
108 1 759 760 761 758
109 1 639 640 641 638
110 1 627 629 626 628
111 1 4 6 3 5
112 1 543 542 544 545
113 1 639 641 638 640
114 1 819 821 818 820
115 1 114 115 116 113
116 1 759 761 758 760
117 1 627 626 628 629
118 1 627 628 629 626
119 1 819 818 820 821
120 1 795 797 794 796
121 1 687 688 689 686
122 1 819 820 821 818
123 1 759 758 760 761
124 1 615 617 614 616
125 1 615 614 616 617
126 1 663 664 665 662
127 1 615 616 617 614
128 1 44 43 45 46
129 1 315 314 316 317
130 1 104 106 103 105
131 1 104 103 105 106
132 1 567 569 566 568
133 1 651 652 653 650
134 1 651 650 652 653
135 1 104 105 106 103
136 1 663 665 662 664
137 1 144 145 146 143
138 1 495 494 496 497
139 1 315 316 317 314
140 1 663 662 664 665
141 1 927 928 929 926
142 1 519 521 518 520
143 1 567 566 568 569
144 1 495 496 497 494
145 1 14 16 13 15
146 1 807 806 808 809
147 1 134 136 133 135
148 1 495 497 494 496
149 1 204 206 203 205
150 1 867 866 868 869
151 1 807 808 809 806
152 1 807 809 806 808
153 1 675 677 674 676
154 1 567 568 569 566
155 1 399 400 401 398
156 1 435 437 434 436
157 1 783 782 784 785
158 1 867 868 869 866
159 1 34 33 35 36
160 1 435 436 437 434
161 1 675 676 677 674
162 1 879 878 880 881
163 1 915 916 917 914
164 1 915 914 916 917
165 1 339 338 340 341
166 1 339 340 341 338
167 1 867 869 866 868
168 1 84 86 83 85
169 1 699 700 701 698
170 1 927 926 928 929
171 1 675 674 676 677
172 1 204 205 206 203
173 1 555 557 554 556
174 1 555 556 557 554
175 1 34 36 33 35
176 1 34 35 36 33
177 1 927 929 926 928
178 1 651 653 650 652
179 1 915 917 914 916
180 1 339 341 338 340
181 1 435 434 436 437
182 1 795 796 797 794
183 1 411 410 412 413
184 1 519 518 520 521
185 1 44 45 46 43
186 1 471 473 470 472
187 1 903 905 902 904
188 1 399 398 400 401
189 1 903 902 904 905
190 1 783 785 782 784
191 1 204 203 205 206
192 1 555 554 556 557
193 1 303 302 304 305
194 1 303 305 302 304
195 1 303 304 305 302
196 1 879 880 881 878
197 1 351 353 350 352
198 1 351 352 353 350
199 1 351 350 352 353
200 1 184 186 183 185
201 1 184 183 185 186
202 1 184 185 186 183
203 1 284 283 285 286
204 1 174 173 175 176
205 1 471 470 472 473
206 1 44 46 43 45
207 1 891 893 890 892
208 1 483 485 482 484
209 1 284 285 286 283
210 1 274 276 273 275
211 1 174 175 176 173
212 1 274 273 275 276
213 1 471 472 473 470
214 1 114 116 113 115
215 1 411 412 413 410
216 1 891 890 892 893
217 1 294 295 296 293
218 1 294 296 293 295
219 1 891 892 893 890
220 1 294 293 295 296
221 1 531 530 532 533
222 1 531 533 530 532
223 1 747 749 746 748
224 1 531 532 533 530
225 1 855 856 857 854
226 1 747 748 749 746
227 1 164 165 166 163
228 1 747 746 748 749
229 1 855 857 854 856
230 1 951 952 953 950
231 1 855 854 856 857
232 1 164 166 163 165
233 1 951 953 950 952
234 1 164 163 165 166
235 1 134 133 135 136
236 1 84 85 86 83
237 1 951 950 952 953
238 1 134 135 136 133
239 1 254 255 256 253
240 1 687 689 686 688
241 1 735 736 737 734
242 1 124 125 126 123
243 1 174 176 173 175
244 1 879 881 878 880
245 1 483 482 484 485
246 1 274 275 276 273
247 1 735 737 734 736
248 1 411 413 410 412
249 1 735 734 736 737
250 1 114 113 115 116
251 1 483 484 485 482
252 1 423 425 422 424
253 1 423 422 424 425
254 1 124 123 125 126
255 1 124 126 123 125
256 1 423 424 425 422
257 1 84 83 85 86
258 1 687 686 688 689
