LAMMPS (22 Jul 2025 - Update 4)
# Restart continuation NPT chunk for composition tag=ec_dmc_3_7_libf4_1m_298K
# Generated by scripts/curate_ff_md_data.py

read_restart    ${input_restart}
read_restart    ec_dmc_3_7_libf4_1m_298K.npt.4.restart
Reading restart file ...
  restart file = 22 Jul 2025, LAMMPS = 22 Jul 2025
  restoring atom style full from restart
  orthogonal box = (-0.19966115 -0.16766114 -0.20866115) to (22.794953 22.826953 22.785953)
  1 by 2 by 2 MPI processor grid
  restoring pair style lj/cut/coul/long from restart
  restoring bond style harmonic from restart
  restoring angle style harmonic from restart
  restoring dihedral style opls from restart
  restoring improper style cvff from restart
  1014 atoms
  944 bonds
  1504 angles
  1452 dihedrals
  258 impropers
Finding 1-2 1-3 1-4 neighbors ...
  special bond factors lj:    0        0        0.5     
  special bond factors coul:  0        0        0.5     
     4 = max # of 1-2 neighbors
     5 = max # of 1-3 neighbors
     9 = max # of 1-4 neighbors
    11 = max # of special neighbors
  special bonds CPU = 0.001 seconds
  read_restart CPU = 0.019 seconds
kspace_style    pppm 1.0e-4
neighbor        2.0 bin
neigh_modify    every 1 delay 0 check yes
timestep        1.0

thermo_style    custom step time temp press vol density pe ke etotal
thermo          100
variable        tracked_temperature_K equal temp
variable        tracked_density_g_cm3 equal density
variable        tracked_volume_A3 equal vol
variable        tracked_pressure_atm equal press
fix             NPT_EQ all npt temp 298.15 298.15 100.0 iso 1.0 1.0 1000.0
fix             NPT_TRACE all ave/time 100 1 100 v_tracked_temperature_K v_tracked_density_g_cm3 v_tracked_volume_A3 v_tracked_pressure_atm file ${thermo_trace}
fix             NPT_TRACE all ave/time 100 1 100 v_tracked_temperature_K v_tracked_density_g_cm3 v_tracked_volume_A3 v_tracked_pressure_atm file npt_thermo.5.dat
run             5000
PPPM initialization ...
  using 12-bit tables for long-range coulomb
  G vector (1/distance) = 0.20426489
  grid = 8 8 8
  stencil order = 5
  estimated absolute RMS force accuracy = 0.025320315
  estimated relative force accuracy = 7.6251378e-05
  using double precision FFTW3
  3d grid and FFT values/proc = 1053 128
Generated 28 of 28 mixed pair_coeff terms from arithmetic mixing rule
Neighbor list info ...
  update: every = 1 steps, delay = 0 steps, check = yes
  max neighbors/atom: 2000, page size: 100000
  master list distance cutoff = 14
  ghost atom cutoff = 14
  binsize = 7, bins = 4 4 4
  1 neighbor lists, perpetual/occasional/extra = 1 0 0
  (1) pair lj/cut/coul/long, perpetual
      attributes: half, newton on
      pair build: half/bin/newton
      stencil: half/bin/3d
      bin: standard
Per MPI rank memory allocation (min/avg/max) = 13.34 | 13.35 | 13.35 Mbytes
   Step          Time           Temp          Press          Volume        Density         PotEng         KinEng         TotEng    
     20667   20667          309.89584     -1979.5723      12158.454      1.1393733     -119.43252      935.74925      816.31674    
     20700   20700          300.53762     -1689.9618      12154.473      1.1397465     -92.481704      907.49154      815.00983    
     20800   20800          288.3165      -2770.7663      12114.693      1.143489      -76.555118      870.58913      794.03401    
     20900   20900          287.24523     -2538.9207      12068.818      1.1478356     -107.11447      867.35438      760.23991    
     21000   21000          295.86653      797.48902      12047.891      1.1498294     -167.91689      893.3869       725.47001    
     21100   21100          295.71858      509.34599      12043.617      1.1502374     -133.62139      892.94015      759.31877    
     21200   21200          296.02424     -240.34966      12039.128      1.1506663     -85.074232      893.86313      808.7889     
     21300   21300          304.35366      663.53645      12065.325      1.1481679     -103.91755      919.0143       815.09675    
     21400   21400          295.88158     -73.377465      12124.431      1.1425707     -85.880614      893.43235      807.55174    
     21500   21500          296.4469      -3647.8418      12114.441      1.1435128     -118.60999      895.13938      776.52939    
     21600   21600          285.75891      1298.0851      12002.85       1.1541441     -140.73608      862.86634      722.13025    
     21700   21700          298.67869     -155.49922      11928.131      1.1613738     -165.8295       901.87839      736.04889    
     21800   21800          303.28766     -1976.1853      11895.891      1.1645213     -137.68633      915.79545      778.10912    
     21900   21900          301.6939      -259.06647      11848.831      1.1691464     -129.11766      910.98301      781.86535    
     22000   22000          303.55577      2365.7879      11834.177      1.1705942     -144.04472      916.60504      772.56032    
     22100   22100          296.15517     -518.51399      11906.537      1.16348       -116.92633      894.25849      777.33216    
     22200   22200          306.57927     -1179.9355      12039.896      1.1505929     -110.70712      925.73469      815.02757    
     22300   22300          296.98119      247.72024      12113.275      1.1436229     -46.662741      896.7527       850.08996    
     22400   22400          312.27499      3008.4552      12139.458      1.1411562     -87.671898      942.93324      855.26134    
     22500   22500          294.58277     -208.65274      12130.934      1.1419581     -89.431903      889.51053      800.07863    
     22600   22600          281.15638      725.18148      12010.209      1.153437      -83.376391      848.96872      765.59233    
     22700   22700          297.01708     -1724.4219      11844.6        1.1695641     -119.7438       896.86107      777.11727    
     22800   22800          297.50399     -1034.5272      11719.58       1.1820406     -93.690224      898.33132      804.6411     
     22900   22900          307.11673      1584.9075      11665.176      1.1875534     -167.89889      927.35757      759.45869    
     23000   23000          293.742        3698.9409      11682.945      1.1857472     -176.2631       886.97176      710.70866    
     23100   23100          299.44533      598.3016       11774.693      1.1765079     -178.82809      904.19333      725.36524    
     23200   23200          301.52611     -4155.9464      11936.477      1.1605618     -147.03639      910.47635      763.43995    
     23300   23300          288.48998     -2010.2173      12071.517      1.147579      -76.76842       871.11297      794.34455    
     23400   23400          301.72769     -2349.4947      12164.678      1.1387904     -87.885645      911.08503      823.19938    
     23500   23500          307.70397     -503.78704      12174.8        1.1378436     -96.451301      929.13078      832.67948    
     23600   23600          306.42663     -1553.2793      12117.283      1.1432447     -110.07031      925.27376      815.20346    
     23700   23700          296.79775      887.97734      11993.925      1.1550029     -113.00734      896.19879      783.19145    
     23800   23800          296.27222     -42.052282      11887.532      1.1653401     -127.09621      894.61191      767.5157     
     23900   23900          298.19776      2382.4373      11868.165      1.1672419     -158.58652      900.4262       741.83968    
     24000   24000          283.05394      46.200668      11947.264      1.1595139     -170.21753      854.69851      684.48098    
     24100   24100          283.52009     -44.067312      12021.995      1.1523062     -152.49899      856.1061       703.60711    
     24200   24200          286.28059     -2781.9092      12103.011      1.1445927     -109.90983      864.4416       754.53177    
     24300   24300          291.9391      -1852.0748      12176.79       1.1376577     -88.639211      881.52779      792.88857    
     24400   24400          302.27026     -998.4586       12265.723      1.129409      -88.450466      912.72335      824.27288    
     24500   24500          307.71815     -474.74133      12299.281      1.1263275     -98.413328      929.17361      830.76028    
     24600   24600          298.75279      445.54618      12224.942      1.1331766     -108.64769      902.10215      793.45446    
     24700   24700          288.95628     -2271.1489      12103.908      1.144508      -118.15472      872.521        754.36628    
     24800   24800          300.77917     -3095.7861      11962.375      1.1580492     -149.58536      908.22092      758.63556    
     24900   24900          314.81131     -415.55167      11786.075      1.1753717     -131.11134      950.59183      819.48049    
     25000   25000          311.64921      3686.3517      11668.078      1.187258      -104.37576      941.04368      836.66792    
     25100   25100          311.37734      2546.5681      11715.453      1.1824569     -142.99548      940.22275      797.22727    
     25200   25200          308.05346      408.36789      11829.43       1.1710639     -166.26117      930.18609      763.92493    
     25300   25300          302.99418     -691.84551      11930.867      1.1611075     -172.55708      914.90929      742.35221    
     25400   25400          284.49572     -262.03712      12007.476      1.1536995     -109.14245      859.05206      749.90961    
     25500   25500          303.0969      -1379.959       12099.838      1.1448929     -111.05137      915.21946      804.16809    
     25600   25600          306.86166     -1404.9457      12173.422      1.1379725     -107.60914      926.58738      818.97825    
     25667   25667          296.45443     -1735.6105      12178.971      1.1374539     -82.820401      895.1621       812.3417     
Loop time of 92.6838 on 4 procs for 5000 steps with 1014 atoms

Performance: 4.661 ns/day, 5.149 hours/ns, 53.947 timesteps/s, 54.702 katom-step/s
55.0% CPU use with 4 MPI tasks x no OpenMP threads

MPI task timing breakdown:
Section |  min time  |  avg time  |  max time  |%varavg| %total
---------------------------------------------------------------
Pair    | 23.626     | 26.148     | 28.602     |  36.2 | 28.21
Bond    | 1.1034     | 1.1679     | 1.219      |   4.1 |  1.26
Kspace  | 49.762     | 52.205     | 54.691     |  25.6 | 56.33
Neigh   | 2.0821     | 2.1121     | 2.1624     |   2.2 |  2.28
Comm    | 5.7699     | 5.8909     | 6.0436     |   4.1 |  6.36
Output  | 0.059456   | 0.077163   | 0.087108   |   3.9 |  0.08
Modify  | 4.0496     | 4.1773     | 4.266      |   4.2 |  4.51
Other   |            | 0.9055     |            |       |  0.98

Nlocal:          253.5 ave         259 max         248 min
Histogram: 1 1 0 0 0 0 0 0 1 1
Nghost:        6414.25 ave        6461 max        6381 min
Histogram: 2 0 0 0 0 1 0 0 0 1
Neighs:         121212 ave      130995 max      110213 min
Histogram: 1 0 0 0 1 0 1 0 0 1

Total # of neighbors = 484848
Ave neighs/atom = 478.15385
Ave special neighs/atom = 6.7613412
Neighbor list builds = 108
Dangerous builds = 0
unfix           NPT_TRACE
unfix           NPT_EQ
write_restart   ${output_restart}
write_restart   ec_dmc_3_7_libf4_1m_298K.npt.5.restart
System init for write_restart ...
PPPM initialization ...
  using 12-bit tables for long-range coulomb
  G vector (1/distance) = 0.2042229
  grid = 8 8 8
  stencil order = 5
  estimated absolute RMS force accuracy = 0.025361551
  estimated relative force accuracy = 7.6375557e-05
  using double precision FFTW3
  3d grid and FFT values/proc = 1053 128
Generated 28 of 28 mixed pair_coeff terms from arithmetic mixing rule
Total wall time: 0:01:32
