LAMMPS (22 Jul 2025 - Update 4)
# Initial NPT chunk for composition tag=ec_dmc_3_7_libf4_1m_298K
# Generated by scripts/curate_ff_md_data.py

units           real
boundary        p p p
atom_style      full
bond_style      harmonic
angle_style     harmonic
dihedral_style  opls
improper_style  cvff

pair_style      lj/cut/coul/long 12.0 12.0
pair_modify     mix arithmetic
special_bonds   lj/coul 0.0 0.0 0.5

read_data       ec_dmc_3_7_libf4_1m_298K.lmp
Reading data file ...
  triclinic box = (-0.089000009 -0.057 -0.098000005) to (22.684292 22.716292 22.675292) with tilt (0 0 0)
  1 by 2 by 2 MPI processor grid
  reading atoms ...
  1014 atoms
  scanning bonds ...
  4 = max bonds/atom
  scanning angles ...
  6 = max angles/atom
  scanning dihedrals ...
  10 = max dihedrals/atom
  scanning impropers ...
  1 = max impropers/atom
  triclinic box = (-0.089000009 -0.057 -0.098000005) to (22.684292 22.716292 22.675292) with tilt (0 0 0)
  1 by 2 by 2 MPI processor grid
  reading bonds ...
  944 bonds
  reading angles ...
  1504 angles
  reading dihedrals ...
  1452 dihedrals
  reading impropers ...
  258 impropers
Finding 1-2 1-3 1-4 neighbors ...
  special bond factors lj:    0        0        0.5     
  special bond factors coul:  0        0        0.5     
     4 = max # of 1-2 neighbors
     5 = max # of 1-3 neighbors
     9 = max # of 1-4 neighbors
    11 = max # of special neighbors
  special bonds CPU = 0.016 seconds
  read_data CPU = 0.312 seconds

# openff-interchange writes the box as triclinic with zero tilt; PPPM stalls
# indefinitely in triclinic mode on this brew LAMMPS build, but works fine
# after change_box all ortho converts the zero-tilt box to orthogonal.
change_box      all ortho
Changing box ...
  orthogonal box = (-0.089000009 -0.057 -0.098000005) to (22.684292 22.716292 22.675292)
kspace_style    pppm 1.0e-4

min_style       cg
minimize        1.0e-4 1.0e-6 10000 100000
PPPM initialization ...
  using 12-bit tables for long-range coulomb
  G vector (1/distance) = 0.20498675
  grid = 8 8 8
  stencil order = 5
  estimated absolute RMS force accuracy = 0.024620357
  estimated relative force accuracy = 7.4143474e-05
  using double precision FFTW3
  3d grid and FFT values/proc = 1053 128
Generated 28 of 28 mixed pair_coeff terms from arithmetic mixing rule
Neighbor list info ...
  update: every = 1 steps, delay = 0 steps, check = yes
  max neighbors/atom: 2000, page size: 100000
  master list distance cutoff = 14
  ghost atom cutoff = 14
  binsize = 7, bins = 4 4 4
  1 neighbor lists, perpetual/occasional/extra = 1 0 0
  (1) pair lj/cut/coul/long, perpetual
      attributes: half, newton on
      pair build: half/bin/newton
      stencil: half/bin/3d
      bin: standard
Per MPI rank memory allocation (min/avg/max) = 14.1 | 14.39 | 14.48 Mbytes
   Step          Temp          E_pair         E_mol          TotEng         Press     
         0   0              2426.7763      20029.305      22456.082      109624.88    
       667   0             -3777.6783      3109.2199     -668.45845      2063.0294    
Loop time of 67.1846 on 4 procs for 667 steps with 1014 atoms

44.4% CPU use with 4 MPI tasks x no OpenMP threads

Minimization stats:
  Stopping criterion = energy tolerance
  Energy initial, next-to-last, final = 
      22456.0817121287  -668.446848216221  -668.458452427621
  Force two-norm initial, final = 6631.3769 90.469128
  Force max component initial, final = 732.94315 56.194245
  Final line search alpha, max atom move = 0.0062260933 0.34987061
  Iterations, force evaluations = 667 1342

MPI task timing breakdown:
Section |  min time  |  avg time  |  max time  |%varavg| %total
---------------------------------------------------------------
Pair    | 13.001     | 14.678     | 15.75      |  27.1 | 21.85
Bond    | 0.38601    | 0.46151    | 0.53301    |  10.2 |  0.69
Kspace  | 36.431     | 37.614     | 39.312     |  17.7 | 55.99
Neigh   | 0.38798    | 0.42139    | 0.4537     |   4.1 |  0.63
Comm    | 3.7956     | 7.4315     | 11.037     | 129.9 | 11.06
Output  | 0          | 0          | 0          |   0.0 |  0.00
Modify  | 0          | 0          | 0          |   0.0 |  0.00
Other   |            | 6.578      |            |       |  9.79

Nlocal:          253.5 ave         264 max         233 min
Histogram: 1 0 0 0 0 0 1 0 0 2
Nghost:        6597.75 ave        6654 max        6529 min
Histogram: 1 0 1 0 0 0 0 0 0 2
Neighs:         125190 ave      129681 max      117462 min
Histogram: 1 0 0 0 0 0 0 2 0 1

Total # of neighbors = 500761
Ave neighs/atom = 493.84714
Ave special neighs/atom = 6.7613412
Neighbor list builds = 15
Dangerous builds = 0
velocity        all create 298.15 104729 dist gaussian
neighbor        2.0 bin
neigh_modify    every 1 delay 0 check yes
timestep        1.0

thermo_style    custom step time temp press vol density pe ke etotal
thermo          100
variable        tracked_temperature_K equal temp
variable        tracked_density_g_cm3 equal density
variable        tracked_volume_A3 equal vol
variable        tracked_pressure_atm equal press
fix             NPT_EQ all npt temp 298.15 298.15 100.0 iso 1.0 1.0 1000.0
fix             NPT_TRACE all ave/time 100 1 100 v_tracked_temperature_K v_tracked_density_g_cm3 v_tracked_volume_A3 v_tracked_pressure_atm file ${thermo_trace}
fix             NPT_TRACE all ave/time 100 1 100 v_tracked_temperature_K v_tracked_density_g_cm3 v_tracked_volume_A3 v_tracked_pressure_atm file npt_thermo.1.dat
run             5000
PPPM initialization ...
  using 12-bit tables for long-range coulomb
  G vector (1/distance) = 0.20498675
  grid = 8 8 8
  stencil order = 5
  estimated absolute RMS force accuracy = 0.024620357
  estimated relative force accuracy = 7.4143474e-05
  using double precision FFTW3
  3d grid and FFT values/proc = 1053 128
Generated 28 of 28 mixed pair_coeff terms from arithmetic mixing rule
Per MPI rank memory allocation (min/avg/max) = 13.36 | 13.36 | 13.36 Mbytes
   Step          Time           Temp          Press          Volume        Density         PotEng         KinEng         TotEng    
       667   667            298.15         5547.4774      11810.749      1.1729162     -668.45845      900.28199      231.82353    
       700   700            189.84413      5057.3323      11821.195      1.1718797     -310.42261      573.24584      262.82324    
       800   800            186.42142      2084.0188      12095.492      1.1453043     -198.94572      562.91077      363.96504    
       900   900            217.61973      2383.0428      12513.884      1.1070119     -144.77412      657.11597      512.34185    
      1000   1000           229.20647     -333.94928      12859.839      1.0772311     -7.8679792      692.10282      684.23484    
      1100   1100           262.90384      4457.8871      13112.678      1.0564599      62.799263      793.85407      856.65333    
      1200   1200           293.25729      1872.4266      13342.456      1.0382661      116.61645      885.50816      1002.1246    
      1300   1300           310.5887       1210.9145      13514.247      1.0250677      143.43861      937.84141      1081.28      
      1400   1400           314.25706      923.33542      13588.486      1.0194674      103.24886      948.91824      1052.1671    
      1500   1500           287.8831       1681.4252      13679.567      1.0126796      108.93638      869.28046      978.21685    
      1600   1600           296.9615      -2309.6251      13786.202      1.0048466      37.623209      896.69323      934.31644    
      1700   1700           300.11703     -1101.5378      13871.191      0.99868995     32.299585      906.22157      938.52115    
      1800   1800           294.63041     -1974.804       13902.376      0.99644969     87.649537      889.65437      977.30391    
      1900   1900           305.48041     -204.72164      13863.264      0.99926095     88.932565      922.41661      1011.3492    
      2000   2000           303.17072     -422.39151      13766.965      1.0062508      119.83177      915.44234      1035.2741    
      2100   2100           313.02463      980.70546      13681.862      1.0125098      67.259056      945.19683      1012.4559    
      2200   2200           300.26842     -100.78416      13621.578      1.0169907      69.400688      906.67867      976.07936    
      2300   2300           290.87705      115.24634      13553.745      1.0220805      57.278454      878.32088      935.59934    
      2400   2400           298.08671      1058.9109      13476.338      1.0279512      19.463759      900.09089      919.55465    
      2500   2500           289.30085      1961.9034      13449.44       1.0300071      53.19441       873.56146      926.75587    
      2600   2600           296.94358      776.01115      13443.654      1.0304504      43.544588      896.63912      940.1837     
      2700   2700           287.08835      934.03219      13455.31       1.0295577      86.508584      866.88065      953.38924    
      2800   2800           294.80729      1262.0682      13457.959      1.0293551      81.619881      890.18848      971.80836    
      2900   2900           309.90423      1244.8194      13509.213      1.0254497      52.675733      935.77458      988.45032    
      3000   3000           302.91871      499.06657      13521.218      1.0245393      56.487183      914.68139      971.16857    
      3100   3100           292.1587       1596.4755      13431.322      1.0313965      43.913496      882.19091      926.1044     
      3200   3200           290.93039      280.68008      13382.578      1.0351532      19.182051      878.48194      897.66399    
      3300   3300           294.69669     -372.76614      13356.16       1.0372007      7.858654       889.85452      897.71317    
      3400   3400           293.58898      625.82053      13343.279      1.038202       51.78286       886.5097       938.29256    
      3500   3500           312.59578     -1175.4104      13422.765      1.0320541      28.709093      943.90189      972.61098    
      3600   3600           304.45563      807.67002      13447.17       1.030181       30.466961      919.32223      949.78919    
      3700   3700           291.19859      1540.0502      13422.942      1.0320404      30.132625      879.29178      909.4244     
      3800   3800           297.74622      982.47567      13407.904      1.0331979      8.1277293      899.06274      907.19047    
      3900   3900           302.77754      757.44275      13382.984      1.0351218      17.122098      914.25513      931.37722    
      4000   4000           311.67014      77.823325      13319.451      1.0400593      30.28514       941.10686      971.392      
      4100   4100           313.70989      1562.8679      13229.331      1.0471443     -3.1505452      947.26601      944.11546    
      4200   4200           287.32024      2677.5032      13176.307      1.0513582      21.097739      867.58086      888.6786     
      4300   4300           305.23584      816.98748      13216.064      1.0481955     -25.82532       921.6781       895.85278    
      4400   4400           296.63764      969.45724      13207.713      1.0488582      15.524734      895.71531      911.24005    
      4500   4500           314.80742      3199.6568      13127.73       1.0552486     -10.815074      950.58008      939.765      
      4600   4600           307.9407       2502.2622      13107.681      1.0568627      3.4369444      929.8456       933.28254    
      4700   4700           299.63798      743.58516      13086.544      1.0585697     -12.087406      904.77502      892.68762    
      4800   4800           291.33561      162.1943       13052.953      1.0612939     -11.896429      879.70552      867.80909    
      4900   4900           295.93747     -943.12256      12992.182      1.066258      -10.732728      893.60113      882.8684     
      5000   5000           302.59227      263.57017      12907.457      1.073257       28.606602      913.69569      942.30229    
      5100   5100           306.55091      1747.2991      12851.235      1.0779523      9.8079408      925.64903      935.45697    
      5200   5200           299.81538      2296.5113      12847.726      1.0782467     -7.4109849      905.31071      897.89972    
      5300   5300           289.70139     -3301.426       12851.028      1.0779697      6.0611695      874.77091      880.83207    
      5400   5400           292.86206     -1625.6909      12837.633      1.0790945      0.55664157     884.31472      884.87136    
      5500   5500           305.21828     -128.76039      12838.308      1.0790377     -15.61956       921.62509      906.00553    
      5600   5600           310.94842      3372.165       12858.066      1.0773797      18.809927      938.92759      957.73752    
      5667   5667           312.15231     -344.99971      12924.346      1.0718545      34.122918      942.56281      976.68572    
Loop time of 317.456 on 4 procs for 5000 steps with 1014 atoms

Performance: 1.361 ns/day, 17.636 hours/ns, 15.750 timesteps/s, 15.971 katom-step/s
36.5% CPU use with 4 MPI tasks x no OpenMP threads

MPI task timing breakdown:
Section |  min time  |  avg time  |  max time  |%varavg| %total
---------------------------------------------------------------
Pair    | 32.218     | 34.834     | 37.346     |  31.0 | 10.97
Bond    | 1.7624     | 1.8598     | 2.0006     |   6.5 |  0.59
Kspace  | 208.65     | 210.91     | 213.33     |  12.0 | 66.44
Neigh   | 4.5919     | 4.6265     | 4.6661     |   1.2 |  1.46
Comm    | 30.795     | 31.279     | 31.948     |   7.9 |  9.85
Output  | 1.2138     | 2.5725     | 3.0414     |  48.9 |  0.81
Modify  | 25.269     | 25.989     | 27.676     |  19.3 |  8.19
Other   |            | 5.39       |            |       |  1.70

Nlocal:          253.5 ave         261 max         246 min
Histogram: 2 0 0 0 0 0 0 0 0 2
Nghost:         6077.5 ave        6106 max        6050 min
Histogram: 1 0 0 1 0 1 0 0 0 1
Neighs:         114302 ave      127344 max      102227 min
Histogram: 1 0 1 0 0 0 1 0 0 1

Total # of neighbors = 457207
Ave neighs/atom = 450.89448
Ave special neighs/atom = 6.7613412
Neighbor list builds = 109
Dangerous builds = 0
unfix           NPT_TRACE
unfix           NPT_EQ
write_restart   ${output_restart}
write_restart   ec_dmc_3_7_libf4_1m_298K.npt.1.restart
System init for write_restart ...
PPPM initialization ...
  using 12-bit tables for long-range coulomb
  G vector (1/distance) = 0.21146131
  grid = 9 9 9
  stencil order = 5
  estimated absolute RMS force accuracy = 0.015961456
  estimated relative force accuracy = 4.8067451e-05
  using double precision FFTW3
  3d grid and FFT values/proc = 1400 225
Generated 28 of 28 mixed pair_coeff terms from arithmetic mixing rule
Total wall time: 0:06:25
