LAMMPS (22 Jul 2025 - Update 4)
# Restart continuation NPT chunk for composition tag=ec_dmc_3_7_libf4_1m_298K
# Generated by scripts/curate_ff_md_data.py

read_restart    ${input_restart}
read_restart    ec_dmc_3_7_libf4_1m_298K.npt.1.restart
Reading restart file ...
  restart file = 22 Jul 2025, LAMMPS = 22 Jul 2025
  restoring atom style full from restart
  orthogonal box = (-0.46104666 -0.42904665 -0.47004666) to (23.056338 23.088338 23.047338)
  1 by 1 by 1 MPI processor grid
  restoring pair style lj/cut/coul/long from restart
  restoring bond style harmonic from restart
  restoring angle style harmonic from restart
  restoring dihedral style opls from restart
  restoring improper style cvff from restart
  1014 atoms
  944 bonds
  1504 angles
  1452 dihedrals
  258 impropers
Finding 1-2 1-3 1-4 neighbors ...
  special bond factors lj:    0        0        0.5     
  special bond factors coul:  0        0        0.5     
     4 = max # of 1-2 neighbors
     5 = max # of 1-3 neighbors
     9 = max # of 1-4 neighbors
    11 = max # of special neighbors
  special bonds CPU = 0.001 seconds
  read_restart CPU = 0.005 seconds
kspace_style    pppm 1.0e-4
neighbor        2.0 bin
neigh_modify    every 1 delay 0 check yes
timestep        1.0

thermo_style    custom step time temp press vol density pe ke etotal
thermo          100
variable        tracked_temperature_K equal temp
variable        tracked_density_g_cm3 equal density
variable        tracked_volume_A3 equal vol
variable        tracked_pressure_atm equal press
fix             NPT_EQ all npt temp 298.15 298.15 100.0 iso 1.0 1.0 1000.0
fix             NPT_TRACE all ave/time 100 1 100 v_tracked_temperature_K v_tracked_density_g_cm3 v_tracked_volume_A3 v_tracked_pressure_atm file ${thermo_trace}
fix             NPT_TRACE all ave/time 100 1 100 v_tracked_temperature_K v_tracked_density_g_cm3 v_tracked_volume_A3 v_tracked_pressure_atm file npt_thermo.2.dat
run             5000
PPPM initialization ...
  using 12-bit tables for long-range coulomb
  G vector (1/distance) = 0.21130673
  grid = 9 9 9
  stencil order = 5
  estimated absolute RMS force accuracy = 0.016061352
  estimated relative force accuracy = 4.8368285e-05
  using double precision FFTW3
  3d grid and FFT values/proc = 2744 729
Generated 28 of 28 mixed pair_coeff terms from arithmetic mixing rule
Neighbor list info ...
  update: every = 1 steps, delay = 0 steps, check = yes
  max neighbors/atom: 2000, page size: 100000
  master list distance cutoff = 14
  ghost atom cutoff = 14
  binsize = 7, bins = 4 4 4
  1 neighbor lists, perpetual/occasional/extra = 1 0 0
  (1) pair lj/cut/coul/long, perpetual
      attributes: half, newton on
      pair build: half/bin/newton
      stencil: half/bin/3d
      bin: standard
Per MPI rank memory allocation (min/avg/max) = 14.88 | 14.88 | 14.88 Mbytes
   Step          Time           Temp          Press          Volume        Density         PotEng         KinEng         TotEng    
      5844   5844           292.09062     -2559.3429      13006.699      1.065068      -10.809003      881.98533      871.17633    
      5900   5900           299.09209      1463.7966      13006.41       1.0650917     -25.381566      903.12668      877.74511    
      6000   6000           299.63471      166.49114      12986.933      1.066689       7.44632        904.76517      912.21149    
      6100   6100           308.92099      1543.3755      12889.228      1.0747749      33.480641      932.80564      966.28628    
      6200   6200           305.3479       568.75107      12810.005      1.0814218      38.031018      922.01649      960.04751    
      6300   6300           287.54604     -738.62353      12759.55       1.0856981      59.334711      868.26269      927.5974     
      6400   6400           292.11885     -3740.0127      12739.716      1.0873883      37.950093      882.07057      920.02067    
      6500   6500           295.85796      81.701925      12663.568      1.093927       10.790229      893.36102      904.15125    
      6600   6600           300.24079      824.24319      12543.936      1.1043598     -9.7291946      906.59526      896.86606    
      6700   6700           292.1982       2283.8133      12466.621      1.1112088     -14.215299      882.31018      868.09488    
      6800   6800           298.02541      1037.5204      12472.161      1.1107152     -65.258781      899.90578      834.647      
      6900   6900           289.44132     -738.63865      12555.103      1.1033775     -50.279587      873.9856       823.70601    
      7000   7000           301.51978     -1138.9343      12679.213      1.0925772     -26.845308      910.45724      883.61193    
      7100   7100           299.32498     -1043.7526      12806.448      1.0817222      13.225652      903.82992      917.05557    
      7200   7200           305.35024     -1793.7198      12933.902      1.0710626      15.834232      922.02355      937.85779    
      7300   7300           299.40093     -2336.973       13006.481      1.0650858      38.833295      904.05925      942.89255    
      7400   7400           305.75793      2045.9899      13004.04       1.0652857     -10.945023      923.2546       912.30958    
      7500   7500           285.53443      74.831845      12961.502      1.0687819      4.3293977      862.18851      866.51791    
      7600   7600           286.03103     -27.193572      12890.861      1.0746388      1.8504813      863.68804      865.53852    
      7700   7700           301.97318     -3525.9311      12804.393      1.0818958      2.7116835      911.82631      914.53799    
      7800   7800           303.459       -721.90135      12685.703      1.0920183      15.792228      916.31284      932.10507    
      7900   7900           312.24375     -18.701268      12635.441      1.0963621     -12.983176      942.83891      929.85573    
      8000   8000           291.83007      2158.8635      12617.255      1.0979424      16.473908      881.19858      897.67249    
      8100   8100           301.4549      -1480.6657      12645.632      1.0954785     -48.496317      910.26132      861.765      
      8200   8200           298.34765     -1834.5913      12641.067      1.0958742     -35.042696      900.8788       865.8361     
      8300   8300           298.5195       1240.1182      12607.1        1.0988268     -30.382718      901.3977       871.01498    
      8400   8400           310.52575      939.11658      12597.262      1.0996849     -40.823987      937.65132      896.82733    
      8500   8500           306.81907     -478.86039      12578.984      1.1012828     -3.6808905      926.45878      922.77789    
      8600   8600           303.70419     -1230.6593      12559.566      1.1029855      15.32552       917.05321      932.37873    
      8700   8700           288.68548     -260.70071      12518.437      1.1066093      11.366294      871.7033       883.0696     
      8800   8800           289.69803     -1054.2371      12526.426      1.1059036     -26.581388      874.76074      848.17935    
      8900   8900           291.65808     -804.66404      12544.41       1.104318      -36.005877      880.67924      844.67337    
      9000   9000           301.20908      1165.5575      12529.122      1.1056656     -33.030311      909.51907      876.48876    
      9100   9100           307.46406      1082.9386      12489.153      1.109204      -30.869439      928.40635      897.53691    
      9200   9200           298.325        334.76055      12465.888      1.1112741      11.667171      900.8104       912.47757    
      9300   9300           298.07582      379.07487      12429.863      1.1144949     -34.921512      900.05801      865.1365     
      9400   9400           295.11099     -751.53749      12381.019      1.1188917     -68.646633      891.10552      822.45889    
      9500   9500           287.55764     -675.92247      12331.06       1.1234248     -39.704355      868.29772      828.59337    
      9600   9600           287.85093      1158.816       12332.673      1.1232778     -24.340171      869.18333      844.84316    
      9700   9700           297.78384     -384.32191      12367.256      1.1201368     -7.1097113      899.17634      892.06663    
      9800   9800           306.91778     -1943.0794      12458.185      1.1119612     -10.157883      926.75684      916.59896    
      9900   9900           305.56554      516.22493      12534.091      1.1052272     -52.725187      922.67367      869.94848    
     10000   10000          292.39085     -100.7479       12565.24       1.1024874     -55.539822      882.89189      827.35207    
     10100   10100          298.41111     -599.40392      12513.943      1.1070067     -60.73534       901.07044      840.3351     
     10200   10200          309.50849     -133.37444      12426.18       1.1148252     -63.922424      934.57962      870.6572     
     10300   10300          306.95749      592.85158      12292.229      1.1269737     -48.465385      926.87674      878.41136    
     10400   10400          294.68353      1687.1035      12206.52       1.1348868     -75.073743      889.81476      814.74102    
     10500   10500          291.86003      2960.4293      12219.729      1.1336601     -89.059472      881.28905      792.22958    
     10600   10600          294.93648      1589.0116      12280.299      1.1280685     -83.898898      890.57858      806.67968    
     10700   10700          300.50052     -1237.0175      12337.207      1.122865      -73.680971      907.37953      833.69856    
     10800   10800          302.26563      832.63402      12440.283      1.1135613     -32.547559      912.70939      880.16183    
     10844   10844          311.5441      -1538.5202      12510.394      1.1073207     -36.947605      940.7263       903.77869    
Loop time of 69.2327 on 1 procs for 5000 steps with 1014 atoms

Performance: 6.240 ns/day, 3.846 hours/ns, 72.220 timesteps/s, 73.231 katom-step/s
96.0% CPU use with 1 MPI tasks x no OpenMP threads

MPI task timing breakdown:
Section |  min time  |  avg time  |  max time  |%varavg| %total
---------------------------------------------------------------
Pair    | 59.926     | 59.926     | 59.926     |   0.0 | 86.56
Bond    | 2.6911     | 2.6911     | 2.6911     |   0.0 |  3.89
Kspace  | 2.7209     | 2.7209     | 2.7209     |   0.0 |  3.93
Neigh   | 2.5371     | 2.5371     | 2.5371     |   0.0 |  3.66
Comm    | 0.32325    | 0.32325    | 0.32325    |   0.0 |  0.47
Output  | 0.0024314  | 0.0024314  | 0.0024314  |   0.0 |  0.00
Modify  | 0.93386    | 0.93386    | 0.93386    |   0.0 |  1.35
Other   |            | 0.09794    |            |       |  0.14

Nlocal:           1014 ave        1014 max        1014 min
Histogram: 1 0 0 0 0 0 0 0 0 0
Nghost:          10012 ave       10012 max       10012 min
Histogram: 1 0 0 0 0 0 0 0 0 0
Neighs:         471858 ave      471858 max      471858 min
Histogram: 1 0 0 0 0 0 0 0 0 0

Total # of neighbors = 471858
Ave neighs/atom = 465.3432
Ave special neighs/atom = 6.7613412
Neighbor list builds = 112
Dangerous builds = 0
unfix           NPT_TRACE
unfix           NPT_EQ
write_restart   ${output_restart}
write_restart   ec_dmc_3_7_libf4_1m_298K.npt.2.restart
System init for write_restart ...
PPPM initialization ...
  using 12-bit tables for long-range coulomb
  G vector (1/distance) = 0.20355345
  grid = 8 8 8
  stencil order = 5
  estimated absolute RMS force accuracy = 0.026026616
  estimated relative force accuracy = 7.837838e-05
  using double precision FFTW3
  3d grid and FFT values/proc = 2197 512
Generated 28 of 28 mixed pair_coeff terms from arithmetic mixing rule
Total wall time: 0:01:09
