LAMMPS (22 Jul 2025 - Update 4)
# Restart continuation NPT chunk for composition tag=ec_dmc_3_7_libf4_1m_298K
# Generated by scripts/curate_ff_md_data.py

read_restart    ${input_restart}
read_restart    ec_dmc_3_7_libf4_1m_298K.npt.2.restart
Reading restart file ...
  restart file = 22 Jul 2025, LAMMPS = 22 Jul 2025
  restoring atom style full from restart
  orthogonal box = (-0.30954179 -0.27754178 -0.31854178) to (22.904833 22.936833 22.895833)
  1 by 1 by 1 MPI processor grid
  restoring pair style lj/cut/coul/long from restart
  restoring bond style harmonic from restart
  restoring angle style harmonic from restart
  restoring dihedral style opls from restart
  restoring improper style cvff from restart
  1014 atoms
  944 bonds
  1504 angles
  1452 dihedrals
  258 impropers
Finding 1-2 1-3 1-4 neighbors ...
  special bond factors lj:    0        0        0.5     
  special bond factors coul:  0        0        0.5     
     4 = max # of 1-2 neighbors
     5 = max # of 1-3 neighbors
     9 = max # of 1-4 neighbors
    11 = max # of special neighbors
  special bonds CPU = 0.002 seconds
  read_restart CPU = 0.007 seconds
kspace_style    pppm 1.0e-4
neighbor        2.0 bin
neigh_modify    every 1 delay 0 check yes
timestep        1.0

thermo_style    custom step time temp press vol density pe ke etotal
thermo          100
variable        tracked_temperature_K equal temp
variable        tracked_density_g_cm3 equal density
variable        tracked_volume_A3 equal vol
variable        tracked_pressure_atm equal press
fix             NPT_EQ all npt temp 298.15 298.15 100.0 iso 1.0 1.0 1000.0
fix             NPT_TRACE all ave/time 100 1 100 v_tracked_temperature_K v_tracked_density_g_cm3 v_tracked_volume_A3 v_tracked_pressure_atm file ${thermo_trace}
fix             NPT_TRACE all ave/time 100 1 100 v_tracked_temperature_K v_tracked_density_g_cm3 v_tracked_volume_A3 v_tracked_pressure_atm file npt_thermo.3.dat
run             5000
PPPM initialization ...
  using 12-bit tables for long-range coulomb
  G vector (1/distance) = 0.20355345
  grid = 8 8 8
  stencil order = 5
  estimated absolute RMS force accuracy = 0.026026616
  estimated relative force accuracy = 7.837838e-05
  using double precision FFTW3
  3d grid and FFT values/proc = 2197 512
Generated 28 of 28 mixed pair_coeff terms from arithmetic mixing rule
Neighbor list info ...
  update: every = 1 steps, delay = 0 steps, check = yes
  max neighbors/atom: 2000, page size: 100000
  master list distance cutoff = 14
  ghost atom cutoff = 14
  binsize = 7, bins = 4 4 4
  1 neighbor lists, perpetual/occasional/extra = 1 0 0
  (1) pair lj/cut/coul/long, perpetual
      attributes: half, newton on
      pair build: half/bin/newton
      stencil: half/bin/3d
      bin: standard
Per MPI rank memory allocation (min/avg/max) = 14.87 | 14.87 | 14.87 Mbytes
   Step          Time           Temp          Press          Volume        Density         PotEng         KinEng         TotEng    
     10844   10844          311.5441      -1533.735       12510.394      1.1073207     -36.823422      940.7263       903.90287    
     10900   10900          310.62157      1341.1694      12512.025      1.1071764     -42.678916      937.94064      895.26172    
     11000   11000          296.60609      663.06342      12542.404      1.1044947     -45.018199      895.62005      850.60185    
     11100   11100          295.74919     -771.02644      12560.34       1.1029175     -70.722848      893.03261      822.30976    
     11200   11200          292.49128      1041.8863      12516.408      1.1067887     -58.287401      883.19514      824.90774    
     11300   11300          293.36784      233.21697      12419.378      1.1154358     -53.589928      885.84198      832.25205    
     11400   11400          292.20632      1035.8139      12306.688      1.1256496     -28.013989      882.33469      854.3207     
     11500   11500          299.60397      1722.3089      12230.768      1.1326369     -51.981648      904.67235      852.6907     
     11600   11600          290.35006      1602.9777      12259.852      1.1299499     -94.47494       876.7296       782.25466    
     11700   11700          292.09412      362.42744      12343.347      1.1223066     -97.904891      881.9959       784.09101    
     11800   11800          302.94547      1145.1739      12445.843      1.1130639     -91.717328      914.76219      823.04487    
     11900   11900          306.38588     -2728.2584      12534.026      1.105233      -77.011829      925.15071      848.13888    
     12000   12000          296.62181     -84.18249       12563.024      1.1026818     -44.5318        895.66752      851.13572    
     12100   12100          302.69688     -1738.0585      12565.169      1.1024936     -47.451345      914.01156      866.56022    
     12200   12200          313.32828      739.93716      12519.107      1.10655       -27.030635      946.11373      919.08309    
     12300   12300          309.759       -29.693578      12499.729      1.1082655     -29.798888      935.33606      905.53717    
     12400   12400          294.95158      371.40011      12446.014      1.1130486     -36.023793      890.62417      854.60037    
     12500   12500          292.10574     -708.50279      12345.443      1.1221159     -46.052997      882.03098      835.97799    
     12600   12600          291.69388     -65.331813      12237.073      1.1320533     -45.67197       880.78733      835.11536    
     12700   12700          302.0039      -1437.3852      12192.347      1.1362061     -80.02363       911.91908      831.89545    
     12800   12800          286.82587      2557.8389      12190.272      1.1363995     -72.366211      866.08808      793.72187    
     12900   12900          290.71226     -405.40655      12234.127      1.1323259     -109.29568      877.82327      768.52759    
     13000   13000          297.65312      271.09761      12250.455      1.1308166     -94.552333      898.78163      804.2293     
     13100   13100          301.85919     -925.61979      12285.472      1.1275935     -62.510679      911.48211      848.97143    
     13200   13200          306.68986      1320.7838      12337.837      1.1228077     -74.200929      926.06861      851.86768    
     13300   13300          297.97826     -473.57293      12376.154      1.1193315     -75.343624      899.76341      824.41978    
     13400   13400          297.92668      922.66698      12396.907      1.1174577     -99.515298      899.60767      800.09237    
     13500   13500          292.35396      1582.1897      12417.315      1.1156211     -71.371537      882.78049      811.40896    
     13600   13600          310.55133     -57.847311      12459.408      1.1118521     -71.52536       937.72856      866.2032     
     13700   13700          309.91591      1620.4933      12490.109      1.1091191     -56.000716      935.80986      879.80914    
     13800   13800          306.28307     -325.18963      12513.506      1.1070453     -78.345326      924.8403       846.49497    
     13900   13900          294.87183     -2319.8229      12511.302      1.1072404     -87.90026       890.38337      802.48311    
     14000   14000          303.94328     -1997.6901      12483.302      1.1097239     -119.88797      917.77515      797.88719    
     14100   14100          297.87052      272.16653      12415.143      1.1158163     -88.854673      899.43808      810.58341    
     14200   14200          302.71827      737.18866      12299.162      1.1263384     -77.176674      914.07615      836.89948    
     14300   14300          306.31114      1972.2741      12231.955      1.1325269     -24.877819      924.92505      900.04723    
     14400   14400          309.92488     -534.69841      12277.376      1.1283371     -52.281607      935.83695      883.55534    
     14500   14500          294.82531     -805.8139       12347.511      1.121928      -52.839177      890.24289      837.40372    
     14600   14600          298.45146     -11.241312      12429.081      1.114565      -82.507607      901.19228      818.68467    
     14700   14700          311.76994      1185.0034      12488.3        1.1092798     -109.74927      941.40821      831.65894    
     14800   14800          309.39539     -178.54724      12478.407      1.1101592     -67.60805       934.23812      866.63007    
     14900   14900          308.03751     -1240.5205      12430.315      1.1144544     -24.303846      930.13793      905.83409    
     15000   15000          314.27584     -2104.6355      12437.245      1.1138334     -64.345797      948.97493      884.62913    
     15100   15100          302.15927     -1579.058       12429.768      1.1145034     -90.296695      912.38821      822.09151    
     15200   15200          290.15146      58.055706      12430.017      1.1144811     -78.162845      876.1299       797.96706    
     15300   15300          295.69715     -119.50563      12438.513      1.1137199     -76.066606      892.87545      816.80884    
     15400   15400          308.91536      975.8436       12420.39       1.1153449     -68.707358      932.78865      864.0813     
     15500   15500          309.48126      1172.7713      12386.25       1.1184191     -63.922898      934.4974       870.5745     
     15600   15600          298.03468      319.09641      12374.512      1.11948       -54.080133      899.93376      845.85363    
     15700   15700          300.89345     -678.72551      12350.106      1.1216923     -76.099624      908.56599      832.46637    
     15800   15800          296.31238     -1109.4571      12261.612      1.1297877     -69.163337      894.73317      825.56984    
     15844   15844          292.59317      1584.6858      12213.696      1.13422       -58.750869      883.50279      824.75192    
Loop time of 67.1732 on 1 procs for 5000 steps with 1014 atoms

Performance: 6.431 ns/day, 3.732 hours/ns, 74.434 timesteps/s, 75.477 katom-step/s
96.6% CPU use with 1 MPI tasks x no OpenMP threads

MPI task timing breakdown:
Section |  min time  |  avg time  |  max time  |%varavg| %total
---------------------------------------------------------------
Pair    | 58.613     | 58.613     | 58.613     |   0.0 | 87.26
Bond    | 2.4349     | 2.4349     | 2.4349     |   0.0 |  3.62
Kspace  | 2.4614     | 2.4614     | 2.4614     |   0.0 |  3.66
Neigh   | 2.5165     | 2.5165     | 2.5165     |   0.0 |  3.75
Comm    | 0.30805    | 0.30805    | 0.30805    |   0.0 |  0.46
Output  | 0.0011489  | 0.0011489  | 0.0011489  |   0.0 |  0.00
Modify  | 0.74364    | 0.74364    | 0.74364    |   0.0 |  1.11
Other   |            | 0.09473    |            |       |  0.14

Nlocal:           1014 ave        1014 max        1014 min
Histogram: 1 0 0 0 0 0 0 0 0 0
Nghost:           9960 ave        9960 max        9960 min
Histogram: 1 0 0 0 0 0 0 0 0 0
Neighs:         482297 ave      482297 max      482297 min
Histogram: 1 0 0 0 0 0 0 0 0 0

Total # of neighbors = 482297
Ave neighs/atom = 475.63807
Ave special neighs/atom = 6.7613412
Neighbor list builds = 112
Dangerous builds = 0
unfix           NPT_TRACE
unfix           NPT_EQ
write_restart   ${output_restart}
write_restart   ec_dmc_3_7_libf4_1m_298K.npt.3.restart
System init for write_restart ...
PPPM initialization ...
  using 12-bit tables for long-range coulomb
  G vector (1/distance) = 0.20415197
  grid = 8 8 8
  stencil order = 5
  estimated absolute RMS force accuracy = 0.025431324
  estimated relative force accuracy = 7.6585678e-05
  using double precision FFTW3
  3d grid and FFT values/proc = 2197 512
Generated 28 of 28 mixed pair_coeff terms from arithmetic mixing rule
Total wall time: 0:01:07
