LAMMPS (22 Jul 2025 - Update 4)
# Restart continuation NPT chunk for composition tag=ec_dmc_3_7_libf4_1m_298K
# Generated by scripts/curate_ff_md_data.py

read_restart    ${input_restart}
read_restart    ec_dmc_3_7_libf4_1m_298K.npt.3.restart
Reading restart file ...
  restart file = 22 Jul 2025, LAMMPS = 22 Jul 2025
  restoring atom style full from restart
  orthogonal box = (-0.24143879 -0.20943879 -0.25043879) to (22.83673 22.86873 22.82773)
  1 by 2 by 2 MPI processor grid
  restoring pair style lj/cut/coul/long from restart
  restoring bond style harmonic from restart
  restoring angle style harmonic from restart
  restoring dihedral style opls from restart
  restoring improper style cvff from restart
  1014 atoms
  944 bonds
  1504 angles
  1452 dihedrals
  258 impropers
Finding 1-2 1-3 1-4 neighbors ...
  special bond factors lj:    0        0        0.5     
  special bond factors coul:  0        0        0.5     
     4 = max # of 1-2 neighbors
     5 = max # of 1-3 neighbors
     9 = max # of 1-4 neighbors
    11 = max # of special neighbors
  special bonds CPU = 0.072 seconds
  read_restart CPU = 0.166 seconds
kspace_style    pppm 1.0e-4
neighbor        2.0 bin
neigh_modify    every 1 delay 0 check yes
timestep        1.0

thermo_style    custom step time temp press vol density pe ke etotal
thermo          100
variable        tracked_temperature_K equal temp
variable        tracked_density_g_cm3 equal density
variable        tracked_volume_A3 equal vol
variable        tracked_pressure_atm equal press
fix             NPT_EQ all npt temp 298.15 298.15 100.0 iso 1.0 1.0 1000.0
fix             NPT_TRACE all ave/time 100 1 100 v_tracked_temperature_K v_tracked_density_g_cm3 v_tracked_volume_A3 v_tracked_pressure_atm file ${thermo_trace}
fix             NPT_TRACE all ave/time 100 1 100 v_tracked_temperature_K v_tracked_density_g_cm3 v_tracked_volume_A3 v_tracked_pressure_atm file npt_thermo.4.dat
run             5000
PPPM initialization ...
  using 12-bit tables for long-range coulomb
  G vector (1/distance) = 0.20399378
  grid = 8 8 8
  stencil order = 5
  estimated absolute RMS force accuracy = 0.025587534
  estimated relative force accuracy = 7.7056098e-05
  using double precision FFTW3
  3d grid and FFT values/proc = 1053 128
Generated 28 of 28 mixed pair_coeff terms from arithmetic mixing rule
Neighbor list info ...
  update: every = 1 steps, delay = 0 steps, check = yes
  max neighbors/atom: 2000, page size: 100000
  master list distance cutoff = 14
  ghost atom cutoff = 14
  binsize = 7, bins = 4 4 4
  1 neighbor lists, perpetual/occasional/extra = 1 0 0
  (1) pair lj/cut/coul/long, perpetual
      attributes: half, newton on
      pair build: half/bin/newton
      stencil: half/bin/3d
      bin: standard
Per MPI rank memory allocation (min/avg/max) = 13.34 | 13.34 | 13.35 Mbytes
   Step          Time           Temp          Press          Volume        Density         PotEng         KinEng         TotEng    
     15667   15667          298.01475     -384.05401      12291.477      1.1270427     -59.698413      899.87361      840.17519    
     15700   15700          308.94024     -451.53881      12287.327      1.1274233     -96.013061      932.86377      836.85071    
     15800   15800          302.22976      365.13214      12250.621      1.1308014     -111.13835      912.60107      801.46273    
     15900   15900          289.21469      1310.268       12256.981      1.1302146     -108.46118      873.30129      764.84011    
     16000   16000          288.03091     -1142.453       12309.872      1.1253585     -80.553776      869.72677      789.173      
     16100   16100          290.6391       1041.8115      12372.262      1.1196836     -20.674759      877.60238      856.92762    
     16200   16200          297.49939      286.33117      12435.68       1.1139736     -54.238038      898.31744      844.0794     
     16300   16300          294.01052      1022.6824      12486.618      1.1094292     -86.217276      887.78258      801.5653     
     16400   16400          293.57012     -1776.0154      12579.045      1.1012775     -88.529143      886.45277      797.92363    
     16500   16500          304.26662      1041.8485      12644.864      1.0955451     -70.695972      918.75148      848.05551    
     16600   16600          305.63614      177.98218      12682.056      1.0923322     -51.119735      922.88685      871.76712    
     16700   16700          297.06465     -880.41964      12576.785      1.1014754     -36.339083      897.0047       860.66561    
     16800   16800          300.08463     -786.39768      12373.119      1.1196061     -72.531508      906.12372      833.59222    
     16900   16900          294.51948      2306.2182      12243.404      1.1314679     -86.791189      889.31943      802.52824    
     17000   17000          300.05944      1758.8581      12228.843      1.1328151     -134.64318      906.04766      771.40448    
     17100   17100          302.63084     -61.785645      12260.034      1.1299332     -133.56385      913.81217      780.24832    
     17200   17200          296.94322      694.76331      12318.186      1.124599      -101.02172      896.63805      795.61632    
     17300   17300          306.63968     -246.29017      12363.061      1.1205169     -105.36335      925.9171       820.55374    
     17400   17400          301.23453     -2791.0854      12379.321      1.1190451     -63.991577      909.59592      845.60434    
     17500   17500          309.99778      497.75301      12338.682      1.1227308     -97.668632      936.05708      838.38845    
     17600   17600          293.87069      3072.205       12295.063      1.1267139     -107.22252      887.36036      780.13785    
     17700   17700          297.16782      223.52504      12287.869      1.1273736     -124.29184      897.31622      773.02438    
     17800   17800          296.93861      1902.3079      12295.912      1.1266361     -86.856841      896.62411      809.76727    
     17900   17900          304.6136       1042.8575      12345.684      1.1220941     -78.673766      919.79922      841.12546    
     18000   18000          302.92743     -9.010457       12414.488      1.1158752     -65.235429      914.70774      849.47231    
     18100   18100          304.44808     -1595.1822      12472.712      1.1106661     -84.009398      919.29941      835.29001    
     18200   18200          308.52647      210.57858      12491.971      1.1089538     -121.11744      931.61437      810.49693    
     18300   18300          294.88282     -973.64083      12487.32       1.1093668     -84.48494       890.41654      805.9316     
     18400   18400          293.00163      451.24075      12458.454      1.1119372     -40.300552      884.73616      844.43561    
     18500   18500          305.29741     -1460.0626      12433.929      1.1141304     -33.190926      921.86403      888.6731     
     18600   18600          314.0285       781.38096      12402.168      1.1169836     -85.33902       948.22808      862.88906    
     18700   18700          296.68964     -3424.3488      12333.218      1.1232283     -76.04472       895.87234      819.82762    
     18800   18800          289.27496     -2743.5062      12197.849      1.1356936     -71.196611      873.48327      802.28666    
     18900   18900          293.16674      893.64894      12058.313      1.1488355     -96.119793      885.23474      789.11494    
     19000   19000          293.91844      671.66165      12029.367      1.1515999     -119.73312      887.50455      767.77142    
     19100   19100          288.12625     -240.0215       11996.71       1.1547348     -140.27062      870.01465      729.74404    
     19200   19200          285.26389      832.24623      11982.667      1.1560881     -134.63723      861.37159      726.73436    
     19300   19300          287.53161     -2584.0461      12006.36       1.1538067     -78.958228      868.2191       789.26088    
     19400   19400          288.43668     -2520.9757      12096.331      1.1452248     -56.550027      870.95204      814.40201    
     19500   19500          295.15548      463.78384      12197.891      1.1356896     -65.406612      891.23986      825.83325    
     19600   19600          304.49632      1575.8089      12271.402      1.1288864     -88.569273      919.44509      830.87582    
     19700   19700          296.57881     -1902.2625      12293.615      1.1268467     -101.52098      895.53767      794.01669    
     19800   19800          280.31067     -2201.4625      12275.676      1.1284934     -78.398223      846.41504      768.01682    
     19900   19900          293.77141     -1620.4284      12240.799      1.1317087     -79.715897      887.06056      807.34467    
     20000   20000          311.17448      135.26366      12166.684      1.1386027     -101.13457      939.61019      838.47562    
     20100   20100          302.1068      -1516.7632      12138.731      1.1412247     -87.944115      912.22978      824.28567    
     20200   20200          289.7317      -341.02251      12060.66       1.148612      -83.209618      874.86241      791.65279    
     20300   20300          299.23947      3018.7172      11990.976      1.155287      -126.61328      903.57171      776.95842    
     20400   20400          299.58903      2565.2864      11977.493      1.1565875     -126.3071       904.62722      778.32012    
     20500   20500          291.48532      2309.0675      12012.029      1.1532621     -95.034581      880.15759      785.123      
     20600   20600          298.2182       1621.044       12094.806      1.1453692     -99.935314      900.48793      800.55261    
     20667   20667          309.89584     -1979.668       12158.454      1.1393733     -119.43477      935.74925      816.31448    
Loop time of 55.5673 on 4 procs for 5000 steps with 1014 atoms

Performance: 7.774 ns/day, 3.087 hours/ns, 89.981 timesteps/s, 91.241 katom-step/s
64.0% CPU use with 4 MPI tasks x no OpenMP threads

MPI task timing breakdown:
Section |  min time  |  avg time  |  max time  |%varavg| %total
---------------------------------------------------------------
Pair    | 21.085     | 22.787     | 25.379     |  37.2 | 41.01
Bond    | 0.95676    | 1.0578     | 1.1534     |   7.5 |  1.90
Kspace  | 22.014     | 24.716     | 26.616     |  37.3 | 44.48
Neigh   | 1.2783     | 1.2959     | 1.3083     |   1.1 |  2.33
Comm    | 3.3202     | 3.3948     | 3.4317     |   2.4 |  6.11
Output  | 0.034033   | 0.051593   | 0.058498   |   4.5 |  0.09
Modify  | 1.709      | 1.7242     | 1.731      |   0.7 |  3.10
Other   |            | 0.5394     |            |       |  0.97

Nlocal:          253.5 ave         265 max         247 min
Histogram: 2 0 0 1 0 0 0 0 0 1
Nghost:        6363.25 ave        6408 max        6304 min
Histogram: 1 0 0 0 1 0 0 0 1 1
Neighs:         121699 ave      131055 max      108980 min
Histogram: 1 0 0 0 1 0 0 0 1 1

Total # of neighbors = 486795
Ave neighs/atom = 480.07396
Ave special neighs/atom = 6.7613412
Neighbor list builds = 106
Dangerous builds = 0
unfix           NPT_TRACE
unfix           NPT_EQ
write_restart   ${output_restart}
write_restart   ec_dmc_3_7_libf4_1m_298K.npt.4.restart
System init for write_restart ...
PPPM initialization ...
  using 12-bit tables for long-range coulomb
  G vector (1/distance) = 0.20426489
  grid = 8 8 8
  stencil order = 5
  estimated absolute RMS force accuracy = 0.025320315
  estimated relative force accuracy = 7.6251378e-05
  using double precision FFTW3
  3d grid and FFT values/proc = 1053 128
Generated 28 of 28 mixed pair_coeff terms from arithmetic mixing rule
Total wall time: 0:00:55
