LAMMPS data file via write_data, version 22 Jul 2025, timestep = 15447, units = real

1078 atoms
7 atom types
1021 bonds
7 bond types
1628 angles
9 angle types
1658 dihedrals
15 dihedral types
336 impropers
1 improper types

-0.258495020314502 23.48070724022459 xlo xhi
-0.2614950226859971 23.477707240246186 ylo yhi
-0.3124950303149774 23.42670724031526 zlo zhi

Masses

1 12.01078
2 15.99943
3 12.01078
4 15.99943
5 1.007947
6 6.9412
7 10.8117

Pair Coeffs # lj/cut/coul/long

1 0.108841 3.37953
2 0.168465 3.02511
3 0.0868793 3.48065
4 0.210206 3.03981
5 0.0164092 2.58323
6 0.0279896 1.82634
7 0.095 3.42105

Bond Coeffs # harmonic

1 215.301 1.53363
2 227.037 1.43632
3 357.819 1.09421
4 291.342 1.35606
5 762.039 1.225
6 267.429 1.46787
7 215 1.48

Angle Coeffs # harmonic

1 91.5186 108.173
2 66.7563 109.938
3 63.31 123.606
4 36.7766 108.354
5 119.896 112.874
6 84.5477 120.105
7 50.9018 124.802
8 55 120
9 50 109.5

Dihedral Coeffs # opls

1 1 0.111303 3 0
2 1 0.438911 1 180
3 1 1.76361 2 180
4 1 -0.0153377 3 0
5 1 0.41915 2 0
6 1 0.131135 3 0
7 1 0.436547 1 0
8 1 0.263111 3 0
9 1 0.227995 3 0
10 1 0.302195 2 180
11 1 1.35005 1 180
12 1 3.48187 2 180
13 1 1.04276 2 180
14 1 0.2 3 0
15 1 1 2 180

Improper Coeffs # cvff

1 4.30523 -1 2

Atoms # full

33 4 2 -0.4048 1.8650506498165118 1.6509513965964184 3.725638000510969 0 0 0
457 44 3 0.7551165 7.585873991381138 5.44082880006852 4.892998403517534 0 0 0
458 44 4 -0.5800835 7.3615800759660575 6.561968229394476 5.331033092527108 0 0 0
392 38 5 0.0582835 1.3392475317978065 4.074818236288518 -0.09336657257602887 1 0 0
387 38 2 -0.3889835 2.8398274855614423 4.415678732865775 1.32607127088895 1 0 0
388 38 1 0.1266165 2.292984710067942 3.6640464530917525 0.31216004110291695 1 0 0
385 38 3 0.7551165 1.938414042387758 4.691075425245344 2.378871706078622 1 0 0
456 44 2 -0.3889835 6.943303579826525 5.0151937548918815 3.7663278943176115 0 0 0
455 44 1 0.1266165 5.9702640395269855 5.986242665225191 3.115678417119662 0 0 0
462 44 5 0.0582835 5.382243276404933 5.470141119485177 2.321579181021067 0 0 0
384 38 2 -0.3889835 2.402357171368722 5.41378165175016 3.4339567357978984 1 0 0
394 38 5 0.0582835 2.1575526803678846 2.634369669661629 0.6237076511278518 1 0 0
386 38 4 -0.5800835 0.7754295111546201 4.274086559179981 2.343663028301193 1 0 0
383 38 1 0.1266165 1.5078468424046843 5.702715193892146 4.525296283104274 1 0 0
53 6 2 -0.4048 5.847849791387459 2.634629591957239 0.6539658955985861 0 0 1
461 44 5 0.0582835 6.4523428217405625 6.869744375084018 2.7274298402739277 0 0 0
730 66 5 0.0582835 5.343403255077569 0.3280361300562409 5.446619371974562 0 0 0
390 38 5 0.0582835 2.011556591747849 6.397617158448969 5.248592320883514 1 0 0
389 38 5 0.0582835 1.256908373598271 4.812485596983216 5.082348235685304 1 0 0
60 6 5 0.0798 6.117777412782769 2.7182765984506796 2.528678030777689 0 0 1
52 6 1 0.0955 6.3934157452000075 2.0231225241077517 1.756054449823579 0 0 1
59 6 5 0.0798 6.008740711719643 1.0921446490059727 2.070398887216281 0 0 1
54 6 3 0.8478 6.889583782962869 3.0912801275870967 -0.16641472385614314 0 0 1
724 66 1 0.1266165 6.0787773077063525 1.0671571198284306 5.825413472720262 0 0 0
729 66 5 0.0582835 5.8886950818298 1.973337140461354 5.24065627941801 0 0 0
722 66 4 -0.5800835 7.277173427091127 -0.023031684505774586 3.664527159670614 0 0 0
40 4 5 0.0798 0.9446095612122818 1.2367195013404746 5.664103192944245 0 0 0
51 6 1 0.0955 7.893699735654527 2.0939394268866445 1.5526854275439006 0 0 1
56 6 2 -0.4048 8.145986357267356 2.7846600407021387 0.3327021998693209 0 0 1
32 4 1 0.0955 0.8105907637085774 1.102507981340546 4.564023911359534 0 0 0
58 6 5 0.0798 8.498114528698855 2.2605565285656404 2.421018160267372 0 0 1
57 6 5 0.0798 8.052972352430734 1.0576955088284608 1.2475657882711133 0 0 1
459 44 2 -0.3889835 8.450927075093217 4.5715335921461 5.4904503169431935 0 0 0
391 38 5 0.0582835 0.6725593675499921 6.220937253299022 4.120561406781623 1 0 0
723 66 2 -0.3889835 7.422461904754158 0.5883714499874878 5.884341279905979 0 0 0
34 4 3 0.8478 2.434742732095594 0.5922994881759635 2.978878425165848 0 0 0
728 66 5 0.0582835 5.839156350658248 1.4432569236831934 6.788614387563578 0 0 0
721 66 3 0.7551165 7.929086006523029 0.021844555243574093 4.6886826256061696 0 0 0
738 67 5 0.0582835 2.188938113867941 7.375473942430154 0.3648559243323122 0 0 0
460 44 1 0.1266165 9.058839329970178 5.145359491782474 6.662668292544125 0 0 0
466 44 5 0.0582835 9.455405222547842 6.159405680302191 6.535374794527101 0 0 0
942 84 5 0.0582835 12.084952414927471 5.042475531599412 5.897182902141042 0 0 0
936 84 2 -0.3889835 12.740202469536994 6.415723407742783 4.485773642407369 0 0 0
937 84 3 0.7551165 13.666596985129098 7.388050779960087 4.206431008127501 0 0 0
938 84 4 -0.5800835 14.503130121293328 7.7065014070756375 5.025011804810805 0 0 0
935 84 1 0.1266165 12.831071081201454 5.805702954845382 5.797112147161008 0 0 0
61 7 1 0.0955 10.971575349798993 6.165962699860609 1.812104153556354 0 0 0
64 7 3 0.8478 9.03244950093105 6.1889641753318845 0.5552323526599638 0 0 0
66 7 2 -0.4048 10.290069103842631 5.728318513098932 0.6111261188403161 0 0 0
67 7 5 0.0798 11.291836075688554 5.433697923688924 2.548655218116638 0 0 0
68 7 5 0.0798 11.900545181454078 6.7504627576082905 1.5909279123406628 0 0 0
602 56 4 -0.5800835 15.40051425256583 5.7118016554323106 0.9835172219073207 0 0 1
605 56 5 0.0582835 14.298869295321827 3.4681567674751936 1.9736888580015979 0 0 1
943 84 5 0.0582835 13.790678797387727 5.297268854502083 5.846847889243904 0 0 0
941 84 5 0.0582835 12.665530731762495 6.528909612188707 6.59536575876923 0 0 0
399 39 2 -0.3889835 12.78713545643939 2.1049411650307706 5.439398017502446 0 0 0
400 39 1 0.1266165 13.140404224316315 0.8538735507251987 4.7665513971690725 0 0 0
404 39 5 0.0582835 12.999026697078566 0.9783476979418293 3.7097831379166797 0 0 0
405 39 5 0.0582835 14.21078293733258 0.6824410649405362 4.785533776111172 0 0 0
601 56 3 0.7551165 14.670767520988603 5.460328492929927 0.05425523359632484 0 0 1
63 7 2 -0.4048 8.782694818783163 6.949935943898147 1.6684767140233072 0 0 0
607 56 5 0.0582835 15.67128507017256 3.0624465207044325 0.9168286926056526 0 0 1
599 56 1 0.1266165 14.51433802051733 3.1947112414226124 0.9705374012609702 0 0 1
606 56 5 0.0582835 13.940445084485601 2.2413032491949507 0.8512557207300324 0 0 1
600 56 2 -0.3889835 14.137153187368186 4.160829668592592 -0.07083174198924713 0 0 1
406 39 5 0.0582835 12.464129833315159 0.05175413942360735 5.061486254852951 0 0 0
397 39 3 0.7551165 12.884144092921503 2.0256933638068713 6.822484908812427 0 0 0
319 32 5 0.0582835 22.50789196106963 6.871627660566864 2.0267589114528164 0 0 0
311 32 1 0.1266165 22.334104045955524 7.065029733703538 0.9697185967131439 0 0 0
630 58 5 0.0582835 23.27488002635114 2.6410251329430063 1.2550681132081751 -1 1 0
318 32 5 0.0582835 22.835850119102727 6.401712036960989 0.28758064951213824 0 0 0
39 4 5 0.0798 -0.22104566592823013 1.6023284413094738 4.419434744874465 0 0 0
317 32 5 0.0582835 21.246538504192515 7.072041185095858 0.7347455832438112 0 0 0
623 58 1 0.1266165 22.42220515816745 2.0067042676701323 1.0442922192290596 -1 1 0
629 58 5 0.0582835 21.605341954534246 2.1208048881883133 1.7948383576046387 -1 1 0
581 54 5 0.0582835 17.537473640014905 2.390186000915117 1.701521368576608 0 0 0
965 86 5 0.0582835 21.990610512104404 3.962166442565062 3.9397781208961726 0 0 0
576 54 2 -0.3889835 18.48027572373321 1.6684222543459946 3.467406391219383 0 0 0
582 54 5 0.0582835 19.19670470461512 1.7318930359165936 1.3942637862717628 0 0 0
963 86 2 -0.3889835 18.87017373499022 6.20545045037637 5.0368153861943075 0 0 0
964 86 1 0.1266165 17.97276541789606 6.9004770680613285 4.1913281573465495 0 0 0
967 86 5 0.0582835 20.90978232820341 2.753849628786091 4.579573974560518 0 0 0
959 86 1 0.1266165 21.487194079829063 3.658865564704909 4.83188217256078 0 0 0
962 86 4 -0.5800835 19.820384033936648 4.977465026170567 3.277926308872242 0 0 0
960 86 2 -0.3889835 20.555531322207415 4.670633082680238 5.385313623980852 0 0 0
846 76 5 0.0582835 15.815694294151093 4.912391106832821 7.03051890490785 0 0 0
961 86 3 0.7551165 19.751454649622847 5.258788161924184 4.479720718670619 0 0 0
968 86 5 0.0582835 17.36419606886569 6.15227677790614 3.60837004500172 0 0 0
966 86 5 0.0582835 22.122249223662806 3.44890911483725 5.718347266880476 0 0 0
839 76 1 0.1266165 16.5146085467897 5.205461251997795 7.820929723803731 0 0 0
847 76 5 0.0582835 16.292855337063482 6.252594479157937 8.118365737294562 0 0 0
845 76 5 0.0582835 17.61917229620335 5.06231728567625 7.640919493834529 0 0 0
575 54 1 0.1266165 18.28986139082201 1.61120506679754 2.011363171951709 0 0 0
583 54 5 0.0582835 17.846504021174894 0.6676177240275732 1.7028177876373665 0 0 0
598 55 5 0.0582835 19.782372292478737 3.8676468196181935 7.514351796808022 0 0 0
596 55 5 0.0582835 19.98327988913283 2.254106064708667 6.935836222539276 0 0 0
1046 98 4 -0.58 21.287872009848254 0.41635115460429306 5.194397255483309 -1 1 0
624 58 2 -0.3889835 22.837033813333083 0.5774495808652974 0.9792767149235462 -1 1 0
578 54 4 -0.5800835 16.228046935145358 1.482599791563428 3.8345041644632376 0 0 0
586 54 5 0.0582835 15.84300383600365 2.367551851066854 6.256017895799971 0 0 0
577 54 3 0.7551165 17.372402757043382 1.5868391676346936 4.260910868233046 0 0 0
579 54 2 -0.3889835 17.633084555461675 1.6486199541768842 5.5396259348636105 0 0 0
580 54 1 0.1266165 16.55845431974671 1.571692810940732 6.4420012171994525 0 0 0
584 54 5 0.0582835 16.077455603059903 0.6106364342975679 6.252740017557543 0 0 0
585 54 5 0.0582835 16.87716904966689 1.5687552810279413 7.52569829491648 0 0 0
631 58 5 0.0582835 22.110763691636468 2.356831145757114 0.056313363515128 -1 1 0
138 14 5 0.0798 19.048866406058583 6.241384761916178 1.3454826040156225 0 0 1
137 14 5 0.0798 17.877788900624427 5.053590296901392 0.8760580712737269 0 0 1
463 44 5 0.0582835 5.108876946082027 6.2014468791412085 3.816314184183855 0 0 0
281 29 1 0.0955 2.129370468094374 10.840957322095115 6.153929674250873 0 0 0
282 29 1 0.0955 1.8615409644731762 9.560118515071037 5.307352546022707 0 0 0
287 29 5 0.0798 1.3523946759966554 11.197202672245327 6.808786790881054 0 0 0
288 29 5 0.0798 2.4909586701650346 11.583242589074786 5.375821061994624 0 0 0
289 29 5 0.0798 1.0388187682366965 9.074615559052171 5.864271971689128 0 0 0
290 29 5 0.0798 1.5014037532172626 9.645004243206824 4.258521711432815 0 0 0
283 29 2 -0.4048 3.001141513189317 8.708977774157939 5.521797012436901 0 0 0
284 29 3 0.8478 3.8610993667298645 9.30009279666032 6.344174042772231 0 0 0
286 29 2 -0.4048 3.374615138841092 10.559066396623201 6.747613141667562 0 0 0
442 42 5 0.0582835 5.670566527353703 11.551824854379753 7.002439391451346 0 0 0
285 29 4 -0.5484 4.935251923831421 8.798256925599976 6.719204513610947 0 0 0
734 67 4 -0.5800835 3.527162961100066 10.937880149793713 0.4563740338402418 0 0 0
733 67 3 0.7551165 3.195014600414357 10.378112987776538 1.4858724205687421 0 0 0
735 67 2 -0.3889835 3.3147250149444036 10.984475238331589 2.6718908071412746 0 0 0
433 42 3 0.7551165 6.726320748947087 11.083488070741966 4.381468979809812 0 0 0
434 42 4 -0.5800835 6.881077281685111 9.986744020291521 4.9329761307964235 0 0 0
437 42 5 0.0582835 6.114775820159307 9.47671314652478 2.3464585213469067 0 0 0
432 42 2 -0.3889835 6.750637880431862 11.315964612930724 3.0881861258509664 0 0 0
732 67 2 -0.3889835 2.691521062737687 9.071490193017361 1.5586210916145051 0 0 0
315 32 2 -0.3889835 23.032506597326936 10.575513496441564 1.3467947823961421 0 0 0
320 32 5 0.0582835 22.697988667978837 11.504390217413368 3.175262407923483 0 0 0
939 84 2 -0.3889835 13.563328674031307 7.945517546324131 2.957985721309995 0 0 0
69 7 5 0.0798 9.725888883146679 6.775879616673209 3.5160237070673497 0 0 0
944 84 5 0.0582835 15.509347124223316 8.615683065829808 2.805746180700407 0 0 0
995 89 6 1 7.363345681348524 8.46098319091936 5.889141772575283 0 0 0
431 42 1 0.1266165 6.950035802221076 10.154181469170457 2.287942422987676 0 0 0
438 42 5 0.0582835 7.018393861250022 10.475514338625599 1.242799536701317 0 0 0
439 42 5 0.0582835 7.863467879900698 9.58587519643079 2.4714240448608327 0 0 0
62 7 1 0.0955 9.932842881375613 7.0054403240214835 2.484623082775471 0 0 0
940 84 1 0.1266165 14.493198115340315 8.95501971343871 2.653533690355119 0 0 0
946 84 5 0.0582835 14.358295410851692 9.748136707335778 3.3657703065286295 0 0 0
945 84 5 0.0582835 14.351902252173074 9.351887592825825 1.596575948376539 0 0 0
70 7 5 0.0798 10.342854160463965 8.07990343249716 2.427122493912861 0 0 0
15 2 4 -0.5484 9.356378968842012 8.687767048277985 5.433729216495635 0 0 0
11 2 1 0.0955 11.412317454269509 11.059440876167416 4.057315788528007 0 0 0
13 2 2 -0.4048 9.937798665286124 10.920533305164893 5.8007289999804845 0 0 0
14 2 3 0.8478 9.992979518917123 9.720031318342551 5.152254192132094 0 0 0
16 2 2 -0.4048 10.829855824475654 9.771704255193928 4.119133006972598 0 0 0
17 2 5 0.0798 12.464296031066281 10.937439364277065 4.192029601017356 0 0 0
18 2 5 0.0798 11.29428838272018 11.517724074803564 3.0876120660023076 0 0 0
1038 97 4 -0.58 13.67592217848199 11.07070908144099 6.959859153153985 0 0 0
1039 97 2 -0.58 15.456466108484085 11.599931492029333 5.625891994222394 0 0 0
610 56 5 0.0582835 14.295473863278083 8.190562399823822 -0.0386996101792344 0 0 1
1064 99 4 -0.58 11.679864507267832 9.992325258075883 1.0969259499453126 0 0 1
970 86 5 0.0582835 18.52146067537205 7.503616498221193 3.4427771171904573 0 0 0
312 32 2 -0.3889835 22.9296010034238 8.419826669769263 0.7925643667129731 0 0 0
513 48 5 0.0582835 19.257397831674503 9.065633083612322 1.2871381971369058 0 0 1
508 48 1 0.1266165 18.646217680960348 9.953292658110287 1.4241560980291657 0 0 1
514 48 5 0.0582835 19.286964199603254 10.811911888012753 1.5578314454406754 0 0 1
507 48 2 -0.3889835 17.611384550990056 10.176619711966152 0.3556060080779403 0 0 1
512 48 5 0.0582835 18.117622936556387 9.654080858948735 2.3948069524263755 0 0 1
969 86 5 0.0582835 17.287747666587652 7.497231341106704 4.782116844877227 0 0 0
43 5 2 -0.4048 19.900852720082344 9.33131387833853 7.308576186183829 0 0 0
313 32 3 0.7551165 22.414452567869905 9.333156507736822 1.5593120896182777 0 0 0
314 32 4 -0.5800835 21.50042540810435 9.128181077727412 2.3709126895900723 0 0 0
50 5 5 0.0798 20.82841906632814 10.039045396273973 5.775068862252211 0 0 0
42 5 1 0.0955 20.696730199051693 10.334779365043378 6.820505195840923 0 0 0
49 5 5 0.0798 20.248552749116516 11.33628313985197 6.7102966684006615 0 0 0
48 5 5 0.0798 22.881224901784556 10.131712955391057 6.746389417720633 0 0 0
41 5 1 0.0955 22.042649024974963 10.10726603459007 7.408191889272769 0 0 0
505 48 3 0.7551165 16.664658438076405 11.128346702945633 0.7327471233323499 0 0 1
47 5 5 0.0798 22.21195495665551 10.911168172240066 8.163464847858814 0 0 0
46 5 2 -0.4048 21.919215059017183 8.913840405203274 8.196358337352105 0 0 0
35 4 4 -0.5484 3.352945971443373 0.6949785397321346 2.183435403218558 0 0 0
693 63 5 0.0582835 5.232328815063311 5.183802500043674 7.846263865614338 0 0 0
594 55 5 0.0582835 0.9248645400185354 5.435697387353476 10.381804715208823 1 0 0
688 63 1 0.1266165 4.220808137420494 4.662250959999919 7.719977718194343 0 0 0
694 63 5 0.0582835 4.0364557088049375 4.135846204933206 8.69554522442572 0 0 0
692 63 5 0.0582835 4.316552483747367 3.885675396870461 6.924857055387777 0 0 0
687 63 2 -0.3889835 3.1747696441245696 5.611701098840894 7.434767513934131 0 0 0
983 88 1 0.1266165 2.4021483493983653 0.956225957586778 11.015219277270187 0 0 0
989 88 5 0.0582835 2.2199555407498357 1.5734088477873667 10.133112435512308 0 0 0
990 88 5 0.0582835 2.807020354026904 0.036531614358408016 10.591372970185928 0 0 0
156 16 2 -0.4048 7.330490801210858 7.275128537519492 9.224035274166454 0 0 0
103 11 2 -0.4048 6.509733585323117 1.8026359083492154 11.159361076495802 0 0 0
105 11 4 -0.5484 5.53136431338341 2.3022803863781984 9.12843949305642 0 0 0
104 11 3 0.8478 5.954411686133175 2.668316397698047 10.266178983983274 0 0 0
157 16 5 0.0798 6.15561202996553 6.327590742662934 10.82587028298129 0 0 0
151 16 1 0.0955 6.805206971483408 7.231707797367682 10.482822195897722 0 0 0
106 11 2 -0.4048 5.876568004486615 3.9493307519950545 10.727238234790914 0 0 0
685 63 3 0.7551165 3.0642045854245556 6.5365724471719036 8.49260392435479 0 0 0
464 44 5 0.0582835 8.26797141829945 5.266195276522369 7.409110251254187 0 0 0
465 44 5 0.0582835 9.786940949244896 4.371395753941617 7.05526632336988 0 0 0
158 16 5 0.0798 7.671824761042451 7.169398796144562 11.085556108449389 0 0 0
396 39 2 -0.3889835 12.545263838589578 3.187068120340765 7.462857526839354 0 0 0
395 39 1 0.1266165 12.606843050627782 3.1774954625712755 8.85283293166903 0 0 0
398 39 4 -0.5800835 13.234209793305427 1.0273112179180086 7.449431297801317 0 0 0
401 39 5 0.0582835 13.589424722354511 2.910589278049337 9.17141147523059 0 0 0
402 39 5 0.0582835 12.38359438002193 4.199851654962702 9.205083740407444 0 0 0
403 39 5 0.0582835 11.93935691147972 2.4821793372134713 9.275460274580201 0 0 0
74 8 3 0.8478 10.691196678222827 7.4187633992906274 9.639969764980544 0 0 0
75 8 4 -0.5484 10.8348865869561 6.196832838202384 9.670014559870136 0 0 0
73 8 2 -0.4048 10.079837287470404 8.131619761568112 10.595929548876454 0 0 0
843 76 2 -0.3889835 16.691440454364805 3.5833973897686016 11.16718855986826 0 0 0
825 74 5 0.0582835 15.590953461283181 1.3844454512159245 9.949124530742962 -1 1 0
45 5 4 -0.5484 20.183230982808432 7.532453155510585 8.668162750276474 0 0 0
592 55 1 0.1266165 20.140137973729704 2.912344573263294 7.803755933089997 0 0 0
931 83 5 0.0582835 16.525586106528163 8.601635166382067 8.339922819140726 0 0 0
587 55 1 0.1266165 -0.1977032813963225 5.247622886296356 10.334710793320085 1 0 0
840 76 2 -0.3889835 16.19634098454723 4.352748701300993 8.94897834388778 0 0 0
841 76 3 0.7551165 16.980580844872286 4.401747206256265 10.087198399500396 0 0 0
595 55 5 0.0582835 23.16684753720443 6.144441437692505 9.878623913758661 0 0 0
588 55 2 -0.3889835 23.22394070638053 4.2021567799614905 9.373966226100212 0 0 0
882 79 5 0.0582835 22.615300063678976 1.812340455243643 10.512519090456575 0 0 0
883 79 5 0.0582835 21.03548558703233 2.1355532633177714 11.40246079617945 0 0 0
875 79 1 0.1266165 22.13943799825554 1.9385061149948326 11.532264855638699 0 0 0
593 55 5 0.0582835 23.162678525136794 5.0149762683389785 11.302962128366143 0 0 0
589 55 3 0.7551165 21.86471820565035 4.0489498747342045 9.063989759346914 0 0 0
590 55 4 -0.5800835 21.02441977813774 4.806486174475042 9.61622707278087 0 0 0
842 76 4 -0.5800835 17.955977346660543 5.139583250880488 10.132796136924476 0 0 0
996 90 6 1 19.348916042440276 6.3672424519137465 10.117796174050389 0 0 0
591 55 2 -0.3889835 21.550369148082876 3.025972693749346 8.108247928755766 0 0 0
597 55 5 0.0582835 19.57604614412379 2.509144947629796 8.652281848952438 0 0 0
816 74 2 -0.3889835 19.834139372918262 0.2498126758063961 9.903800577597371 -1 1 0
817 74 3 0.7551165 18.518297399160314 -0.08169582799782979 10.182027335701962 -1 1 0
819 74 2 -0.3889835 17.576596856277035 0.8537874978308426 9.991516936401641 -1 1 0
820 74 1 0.1266165 16.20988191377779 0.5602291954478412 10.255267270123674 -1 1 0
824 74 5 0.0582835 16.15617749801744 0.39836064178283326 11.316918413081229 -1 1 0
155 16 4 -0.5484 7.650233818611666 8.864796594028672 7.720498503394014 0 0 0
686 63 4 -0.5800835 3.7326678931112003 6.540624566769503 9.49853834569243 0 0 0
689 63 5 0.0582835 2.6483051881285515 9.194251995821137 9.478887928538482 0 0 0
154 16 3 0.8478 7.249087601472539 8.500762048817649 8.815491898668459 0 0 0
684 63 2 -0.3889835 2.079649306422318 7.450955091721643 8.253399022353209 0 0 0
683 63 1 0.1266165 1.829736261354089 8.474544922637486 9.221051323520541 0 0 0
690 63 5 0.0582835 0.9120276421542626 9.059069362567959 8.89905427919683 0 0 0
691 63 5 0.0582835 1.5183584833613923 8.09926280360375 10.190826692878808 0 0 0
159 16 5 0.0798 5.2436662611067835 8.643895286322893 10.920423268016645 0 0 0
153 16 2 -0.4048 6.701925990171644 9.362462907265495 9.668667417527745 0 0 0
152 16 1 0.0955 6.336846240978606 8.621115428900877 10.811277760042994 0 0 0
78 8 5 0.0798 10.16000222335069 9.933678557488843 8.191744362821154 0 0 0
930 83 5 0.0582835 14.99598322144366 8.803028523217314 8.9985894271328 0 0 0
76 8 2 -0.4048 11.178263587754119 8.195578090755912 8.608571686494248 0 0 0
80 8 5 0.0798 9.196735679890132 10.07351440276523 10.095898590669401 0 0 0
72 8 1 0.0955 10.120685347539608 9.495325299555224 10.243164877321838 0 0 0
77 8 5 0.0798 11.58808291416525 10.346450449349092 8.729520774175691 0 0 0
79 8 5 0.0798 10.614617392929517 10.080227594258972 11.046323335011367 0 0 0
71 8 1 0.0955 10.84111466102041 9.562292314851266 8.924594389435224 0 0 0
376 37 1 0.1266165 13.589412437960133 9.94356197561045 11.121235934410116 0 0 0
381 37 5 0.0582835 13.229991269956182 9.531414488104566 10.142917953387878 0 0 0
380 37 5 0.0582835 14.208520890321873 10.839824339547983 11.02995320468767 0 0 0
929 83 5 0.0582835 16.079510821528263 7.4984305997895175 9.709525216785575 0 0 0
44 5 3 0.8478 20.620632129451003 8.53425717734014 8.0990410837469 0 0 0
923 83 1 0.1266165 16.003279487189644 8.539840968165894 9.29555815294603 0 0 0
926 83 4 -0.5800835 18.415563497135423 8.412328098142883 10.329698170718641 0 0 0
924 83 2 -0.3889835 16.510802143064893 9.591748871946539 10.171047788106186 0 0 0
925 83 3 0.7551165 17.777403541376664 9.392190281166663 10.630757749431679 0 0 0
932 83 5 0.0582835 20.28303487990414 9.809709082573018 11.117953100378582 0 0 0
1066 100 4 -0.58 22.876397364313938 11.105382790157112 10.82197549270366 -1 0 0
927 83 2 -0.3889835 18.27841069989641 10.353331440199934 11.46364149382404 0 0 0
641 59 5 0.0582835 6.641479627625326 -0.13613185695526653 9.398241451311998 0 0 0
642 59 5 0.0582835 8.133800775407762 0.34351550738190184 10.165733636141313 0 0 0
635 59 1 0.1266165 7.757307295362404 -0.20082119909605303 9.334226306689544 0 0 0
643 59 5 0.0582835 8.070079914683209 0.2833021702741483 8.44898453207082 0 0 0
248 25 5 0.0798 10.899474223770643 2.2986966953467523 -0.2720277915849631 0 0 0
131 14 1 0.0955 18.731908274342175 5.601453853803986 0.4686439065068464 0 0 1
136 14 2 -0.4048 19.8044739032302 4.7498016825362654 0.02308691396167606 0 0 1
626 58 4 -0.5800835 20.770954516669494 -0.03300253315794735 0.2878475778198907 -1 1 0
731 67 1 0.1266165 2.5878256887471687 8.414697632051688 0.24847506215891613 0 0 0
1063 99 3 0.66 11.556503449959914 9.559234514890667 -0.04618997939790015 0 0 1
504 48 2 -0.3889835 15.717493218547581 11.390451550348544 -0.1684740297031866 0 0 1
393 38 5 0.0582835 3.011027769709949 3.590556520061793 23.25966483176624 1 0 -1
737 67 5 0.0582835 3.5020217020494444 8.408263686974985 23.385940323567773 0 0 -1
93 10 2 -0.4048 6.875085850253606 -0.1709278522035129 22.765094602611878 0 1 -1
861 77 5 0.0582835 19.288613163672217 11.535166486939026 22.828121282757703 -1 0 0
856 77 1 0.1266165 19.939689460284498 11.283487181795635 21.997399921410015 -1 0 0
984 88 2 -0.3889835 3.249533303497614 1.6002040685404444 11.990404851229458 0 0 0
985 88 3 0.7551165 2.8102659071256357 2.7904698558116148 12.481030481800913 0 0 0
986 88 4 -0.5800835 1.7428410005343649 3.2724504785821313 12.094613294905741 0 0 0
987 88 2 -0.3889835 3.5693333020858784 3.480107056889914 13.412998681942378 0 0 0
988 88 1 0.1266165 3.0763042113703154 4.744725178917761 13.872408796093366 0 0 0
992 88 5 0.0582835 2.0729747978281874 4.68698808655993 14.342672723263187 0 0 0
994 88 5 0.0582835 3.0377398682972907 5.509733302342118 13.08159908421715 0 0 0
991 88 5 0.0582835 1.498261381194855 0.6650884609822044 11.579787778707821 0 0 0
110 11 5 0.0798 6.405665608326751 2.0900700689607596 13.14587856534197 0 0 0
108 11 5 0.0798 5.640480708983904 4.310409603076531 12.645233812856254 0 0 0
102 11 1 0.0955 6.862960834526108 2.5181357745056516 12.311444943521444 0 0 0
101 11 1 0.0955 6.444898097588512 3.9170181220295763 12.044839127378452 0 0 0
814 73 5 0.0582835 6.71199683137536 6.816263037930268 14.81043005540269 0 0 0
993 88 5 0.0582835 3.7104422249744253 5.146431731884415 14.663659328585734 0 0 0
470 45 4 -0.5800835 1.2519250107860007 0.7829515036523644 15.255871225888377 0 0 0
473 45 5 0.0582835 3.764312677995467 0.20204021174940762 14.851790739631555 0 0 0
467 45 1 0.1266165 3.7120023283999384 0.37415214082697934 15.933276144229445 0 0 0
474 45 5 0.0582835 4.675770514534021 0.3815317325520048 16.32170277062331 0 0 0
107 11 5 0.0798 7.22497272106219 4.653745827009113 12.275698808987624 0 0 0
109 11 5 0.0798 7.903224523956078 2.5053234962148543 12.474682951380435 0 0 0
225 23 4 -0.5484 9.963471148508669 3.8669594055316683 11.994461788637933 0 0 0
224 23 3 0.8478 10.479173360738514 4.903122996896044 12.471133751998684 0 0 0
226 23 2 -0.4048 11.778281186578143 5.19559479471984 12.410915871074813 0 0 0
221 23 1 0.0955 11.993625955773576 6.466776733469063 13.054700386610293 0 0 0
180 18 5 0.0798 12.696572908927578 2.481882373451273 12.15703796848976 0 1 0
172 18 1 0.0955 12.75995683875439 1.7416843582921073 12.94040547776999 0 1 0
179 18 5 0.0798 12.022848362001366 1.985687660105396 13.677400042041983 0 1 0
176 18 2 -0.4048 14.550456639539295 0.2522104342328688 13.493016183485418 0 1 0
171 18 1 0.0955 14.177995185357847 1.6493467484934328 13.609257134322366 0 1 0
178 18 5 0.0798 14.851016456649766 2.1967400069960648 13.089943013185707 0 1 0
227 23 5 0.0798 12.67840852617943 6.266950467712635 13.83526920774852 0 0 0
849 76 5 0.0582835 17.28662919474596 2.9526836133544285 13.101647002347006 0 0 0
223 23 2 -0.4048 9.782802459495574 5.863559321755851 13.105748223056239 0 0 0
222 23 1 0.0955 10.587308485910391 6.8663367823304045 13.512028797400298 0 0 0
844 76 1 0.1266165 17.577170962493497 3.667092394796243 12.321823470637316 0 0 0
848 76 5 0.0582835 17.557707093814603 4.656449712441542 12.70900671549626 0 0 0
850 76 5 0.0582835 18.544201654132483 3.3615254683622124 12.053823480081391 0 0 0
881 79 5 0.0582835 22.53820822450859 2.793871168696715 12.101723829904639 0 0 0
878 79 4 -0.5800835 20.958464709938273 1.7439076417691068 13.932941058089579 0 0 0
303 31 2 -0.4048 21.217947753868923 5.558889433842015 13.735208237196794 -1 0 0
876 79 2 -0.3889835 22.33076176307078 0.8283746866623014 12.387526388421264 0 0 0
877 79 3 0.7551165 21.676724324910307 0.813485153622159 13.615867811860022 0 0 0
304 31 3 0.8478 20.910606827489435 6.330212189987942 12.679866085943356 -1 0 0
305 31 4 -0.5484 19.89064755071948 6.322936244195815 11.986918057733876 -1 0 0
306 31 2 -0.4048 21.93668047359753 7.280573521336294 12.376316520821357 -1 0 0
309 31 5 0.0798 23.065478679115877 5.091494701373563 13.956787248359635 -1 0 0
301 31 1 0.0955 22.952303496870012 7.097906078911423 13.306492597381093 -1 0 0
302 31 1 0.0955 22.51010355373636 5.969933335286636 14.1774471270983 -1 0 0
310 31 5 0.0798 22.69086449276901 6.101680043151622 15.206989554274916 -1 0 0
477 45 5 0.0582835 -0.21043447584242614 2.8070472115588494 14.491462415711448 0 0 0
550 51 5 0.0582835 17.09979889338305 0.20911141147925627 16.407075986644255 0 0 0
119 12 5 0.0798 19.236352951220383 3.874244715208218 16.032921034978216 0 0 0
1076 100 3 0.66 2.4338940934476874 8.5648486984764 14.303991470289338 0 0 0
1075 100 4 -0.58 4.637617491706314 8.276950854154459 13.201122247278533 0 0 0
1069 100 7 1 1.814574963846038 10.378404166474697 12.926483249782173 0 0 0
1073 100 2 -0.58 3.174652954443351 9.870765555287317 12.55561847408244 0 0 0
1074 100 3 0.66 3.5598382539732247 8.821416059471458 13.320468422587414 0 0 0
1078 100 2 -0.58 1.4543132433013624 9.469601563489768 14.049697666747319 0 0 0
1068 100 2 -0.58 0.8103624457110745 10.115365813602175 11.941304153768044 0 0 0
160 16 5 0.0798 6.805157329325356 9.031302342888205 11.71168906671291 0 0 0
805 73 3 0.7551165 6.951799065898613 9.610090096542917 15.074563759132344 0 0 0
228 23 5 0.0798 12.430858018545845 7.208992095370074 12.425629417217054 0 0 0
806 73 4 -0.5800835 7.9808800067091195 9.399340405194096 14.483793769523531 0 0 0
230 23 5 0.0798 10.31867872702847 7.766624446888855 12.94403076167385 0 0 0
229 23 5 0.0798 10.369074256620397 7.214411408848437 14.462337107312152 0 0 0
382 37 5 0.0582835 12.69154628681164 10.258171690531576 11.583341241316333 0 0 0
375 37 2 -0.3889835 14.280882461383982 8.933779422861079 12.000354184974931 0 0 0
307 31 5 0.0798 0.23018678306951718 7.1235071556536775 12.986577257805083 0 0 0
378 37 5 0.0582835 16.41203309294492 8.424003455773548 15.848246286256593 0 0 0
372 37 2 -0.3889835 15.336998808266767 8.682728861282047 13.983957372620655 0 0 0
377 37 5 0.0582835 14.923328618729176 9.478013408662697 15.915823353539462 0 0 0
374 37 4 -0.5800835 14.525744208679749 10.755842325575994 13.448845268604352 0 0 0
373 37 3 0.7551165 14.711013838157543 9.555552325462832 13.179671134307664 0 0 0
379 37 5 0.0582835 16.494687218097365 9.999655508413525 15.059358729355084 0 0 0
371 37 1 0.1266165 15.83510975930401 9.169472603145696 15.267815804391747 0 0 0
308 31 5 0.0798 22.82639970200547 7.935231591737676 13.88389449995608 -1 0 0
934 83 5 0.0582835 19.632426836443713 9.272081803533124 12.566884397395086 0 0 0
1067 100 3 0.66 0.06992712970603604 11.154983632535084 11.643317120488144 0 0 0
933 83 5 0.0582835 20.13693789348333 10.986686456257752 12.394330787241689 0 0 0
928 83 1 0.1266165 19.64391908457417 10.11768217001526 11.918811439359713 0 0 0
173 18 2 -0.4048 12.559168431589047 0.32021862343700236 12.510571273578174 0 1 0
618 57 5 0.0582835 8.49310379800183 0.5745912861097986 13.553474053970792 0 1 0
888 80 2 -0.3889835 0.6173015734860635 1.1363531367270863 20.311545365790554 0 0 0
5 1 4 -0.5484 7.286138682188964 3.963844038370243 14.979442854352778 0 0 0
472 45 1 0.1266165 23.405222570304897 2.9034603822295524 15.565481407882404 -1 0 0
469 45 3 0.7551165 1.7994496395747226 1.7653689939420363 15.80872594766904 0 0 0
468 45 2 -0.3889835 3.0790278823141235 1.7120123816227044 16.21801203313321 0 0 0
3 1 2 -0.4048 6.438785979527355 3.7648408541178267 17.112662737989744 0 0 0
471 45 2 -0.3889835 1.0784467257728212 2.9341091943565902 16.0255896756283 0 0 0
890 80 4 -0.5800835 1.9189214890236417 2.5717841873380167 21.22464122643703 0 0 0
889 80 3 0.7551165 1.7369734951763731 1.4606108495297112 20.886092903775726 0 0 0
891 80 2 -0.3889835 2.662624245922116 0.42412880692017807 21.077597396186377 0 0 0
892 80 1 0.1266165 3.9257854132617247 0.7829593085143653 21.735315604921695 0 0 0
896 80 5 0.0582835 3.7483928798896304 1.2810401676004675 22.71073469566741 0 0 0
898 80 5 0.0582835 4.325731078015919 1.6107138016738936 21.14352713885169 0 0 0
55 6 4 -0.5484 6.706137754016398 3.6975177696367605 22.50279026849893 0 0 0
897 80 5 0.0582835 4.5257471436802765 -0.08702961150391217 21.894679039748908 0 0 0
9 1 5 0.0798 5.4441184461945795 2.5002261640109547 18.22138878887235 0 0 0
2 1 1 0.0955 6.4779572127757605 2.7848019952379537 18.065437940351764 0 0 0
10 1 5 0.0798 6.737688345589734 3.0883724750796704 19.05537021749263 0 0 0
574 53 5 0.0582835 5.326488007915616 5.456578769149395 18.915001066010156 0 0 0
573 53 5 0.0582835 3.6364574704826835 5.842524843659518 18.513175041452698 0 0 0
568 53 1 0.1266165 4.378802439899639 5.793440055235284 19.301741875429407 0 0 0
572 53 5 0.0582835 4.119425451509584 5.054905608992526 20.071778829861568 0 0 0
567 53 2 -0.3889835 4.378677636765852 7.168797267541581 19.89310756601965 0 0 0
566 53 4 -0.5800835 5.854121970537789 6.582939134069049 21.55576281650081 0 0 0
95 10 4 -0.5484 7.070307474650591 1.0381528843266143 20.8883244336279 0 1 -1
565 53 3 0.7551165 5.140175514297915 7.401739400267666 20.987662714866993 0 0 0
887 80 1 0.1266165 23.386748086719425 2.190492094796287 20.134881119709963 -1 0 0
813 73 5 0.0582835 6.282486010420114 6.654200952160272 16.33897894020003 0 0 0
999 93 6 1 7.337762295513583 5.335748424754664 21.698134543786633 0 0 0
4 1 3 0.8478 7.149858182666536 3.3111024211466216 16.00318470127137 0 0 0
1 1 1 0.0955 7.298819740490059 1.5731928526175074 17.54304884807868 0 0 0
893 80 5 0.0582835 0.1081698663639023 3.0157078842670866 19.50527200497704 0 0 0
812 73 5 0.0582835 7.9421509023041725 7.365215166832782 16.02679035295262 0 0 0
8 1 5 0.0798 8.219103799772139 1.5219708534890055 18.105858379243166 0 0 0
6 1 2 -0.4048 7.6623101467648 2.03617401156547 16.19099884477281 0 0 0
7 1 5 0.0798 6.915731288254007 0.5488840442975177 17.702766656938397 0 0 0
808 73 1 0.1266165 6.86341085424243 7.2967284700151325 15.718242460457311 0 0 0
571 53 5 0.0582835 5.55375534731333 8.278969479219363 23.3484423271094 0 0 0
247 25 5 0.0798 11.824823306885493 3.514271823364801 22.805123887646356 0 0 -1
603 56 2 -0.3889835 14.24583145977757 6.3062708363519295 22.79162615633856 0 0 0
177 18 5 0.0798 14.135305837077835 1.9135171702492824 14.688579391247428 0 1 0
187 19 5 0.0798 9.963673392490245 3.3623740930875683 16.031040140551053 0 0 0
185 19 4 -0.5484 13.757821674654734 4.326604226497611 15.356015566891973 0 0 0
186 19 2 -0.4048 11.877366254670319 3.3373236215194693 16.27699130355784 0 0 0
188 19 5 0.0798 10.35044215707984 3.3997007811072595 17.770274336519694 0 0 0
65 7 4 -0.5484 8.222041937141455 5.928247167880452 23.355755111778382 0 0 -1
245 25 4 -0.5484 9.196074703393533 3.2285299831652177 19.932820500049676 0 0 -1
181 19 1 0.0955 10.653965337550193 3.798296729078234 16.776467022973772 0 0 0
246 25 2 -0.4048 10.075049957741895 3.3204586666547993 21.901291780637585 0 0 -1
241 25 1 0.0955 11.184586326033829 2.690714734904113 22.508118327366315 0 0 -1
242 25 1 0.0955 11.834967125367447 1.7872907848150899 21.54847620084314 0 0 -1
243 25 2 -0.4048 11.024365043717657 1.977957485615505 20.401936804516556 0 0 -1
244 25 3 0.8478 10.05136024715736 2.864552791880803 20.68583291149808 0 0 -1
250 25 5 0.0798 11.688120619079207 0.7691536280918567 21.879656313352005 0 0 -1
249 25 5 0.0798 12.857812366714084 2.0746890287402757 21.42471696798806 0 0 -1
182 19 1 0.0955 10.692297741781063 5.282751822162193 16.584982754588786 0 0 0
183 19 2 -0.4048 11.979334721298995 5.611085838331316 15.978356636682832 0 0 0
184 19 3 0.8478 12.62138613885086 4.450706146571366 15.834526460464769 0 0 0
1053 99 4 -0.58 11.679169541433643 5.299020995321719 19.887281497336144 0 0 0
1054 99 3 0.66 11.16353804488075 6.21351314808243 20.566886694519187 0 0 0
752 68 5 0.0582835 14.273671304988506 4.372140977677405 20.719925429435097 0 1 -1
754 68 5 0.0582835 13.784541847097916 2.9949922038139567 19.81668077084359 0 1 -1
1059 99 4 -0.58 8.675567784247638 6.134916545745201 20.278209036577348 0 0 0
1058 99 3 0.66 9.704341913571824 6.64257406962084 20.78799989896724 0 0 0
190 19 5 0.0798 10.691949274826664 5.6070506252042 17.569688562734928 0 0 0
189 19 5 0.0798 9.756548653700126 5.690347669258363 16.128519422519382 0 0 0
715 65 5 0.0582835 13.66156530494596 6.608616597464275 19.40922793697217 0 0 0
562 52 5 0.0582835 11.456777543866341 1.3632790881447943 17.723510841388627 0 1 0
714 65 5 0.0582835 12.940952085427268 7.364171321779161 17.99528869703538 0 0 0
476 45 5 0.0582835 22.83562027436202 3.807887888091984 15.754230824097306 -1 0 0
858 77 5 0.0582835 22.900266581696062 6.561767585022322 21.187446622931102 -1 0 0
608 56 5 0.0582835 15.788528696478942 7.563683440178533 23.02366211865397 0 0 0
746 68 4 -0.5800835 15.679448060965102 2.5430646742183733 21.92132291536988 0 1 -1
748 68 1 0.1266165 14.48063535923548 3.803439068044203 19.826364045762944 0 1 -1
753 68 5 0.0582835 14.333738476364399 4.399895056110303 18.90558440494682 0 1 -1
745 68 3 0.7551165 16.336907036023117 2.70263645020561 20.87313163946605 0 1 -1
747 68 2 -0.3889835 15.862937817151266 3.330350868539616 19.731554726554165 0 1 -1
751 68 5 0.0582835 18.213914226449194 2.2164430553063927 22.92318508725894 0 1 -1
743 68 1 0.1266165 18.100755698614545 1.5035699462942693 22.077402458648574 0 1 -1
750 68 5 0.0582835 19.082155046209433 1.0974488749343183 21.96248803338183 0 1 -1
894 80 5 0.0582835 22.44750889009811 1.8655025136241474 19.745658155410908 -1 0 0
478 45 5 0.0582835 22.927098076817543 2.121266505549306 16.11565254106289 -1 0 0
895 80 5 0.0582835 23.084947082041325 2.5560791015038933 21.12519499909426 -1 0 0
549 51 5 0.0582835 17.299379522906342 1.988710177162388 16.170689321580642 0 0 0
544 51 1 0.1266165 17.315128148282398 1.086513404351349 16.82449159815546 0 0 0
548 51 5 0.0582835 16.596345299414377 1.2496417705933618 17.619257095910605 0 0 0
117 12 5 0.0798 20.142248584716278 3.5709611178382374 18.095724594674735 0 0 0
111 12 1 0.0955 19.623769887861176 4.533969475322266 18.067589533560263 0 0 0
116 12 2 -0.4048 20.55219063730074 5.538179043734516 18.245837529319665 0 0 0
543 51 2 -0.3889835 18.712625799349638 1.1329022975584784 17.37964362773696 0 0 0
749 68 5 0.0582835 17.44118863655013 0.6640751852225839 22.31039218105481 0 1 -1
744 68 2 -0.3889835 17.662284835454766 2.1701538743726227 20.845856863887647 0 1 -1
540 51 2 -0.3889835 20.301708875485758 0.1976955994431856 18.72752329980388 0 0 0
113 12 2 -0.4048 19.75167789276775 5.937165769168048 16.176965784249408 0 0 0
120 12 5 0.0798 17.95211159484308 5.003691620353709 16.627231375766264 0 0 0
114 12 3 0.8478 20.615055917545405 6.368886290103612 17.12245029724607 0 0 0
132 14 1 0.0955 18.421290442044363 6.598413674170789 23.04121703416349 0 0 0
140 14 5 0.0798 18.28848606935098 7.6806893298533625 23.268841308037942 0 0 0
133 14 2 -0.4048 19.39704752165108 6.196415222617018 21.995407264022262 0 0 0
139 14 5 0.0798 17.520493833296126 6.17395681352993 22.633546476265757 0 0 0
112 12 1 0.0955 19.031251751947014 4.736434170127042 16.67209494503296 0 0 0
135 14 4 -0.5484 21.05532697743575 4.592588324617493 21.805575544917144 0 0 0
134 14 3 0.8478 20.15045003667863 5.126850099509841 22.460906755529905 0 0 0
118 12 5 0.0798 18.867111722405685 4.593240572862149 18.886441034849682 0 0 0
541 51 3 0.7551165 19.05523969523477 0.0826648903071342 18.210642110689214 0 0 0
1077 100 4 -0.58 2.3569477346386565 7.713358538142103 15.196758382963722 0 0 0
739 67 5 0.0582835 1.9759138835964496 8.946514446807207 23.25161147542279 0 0 -1
807 73 2 -0.3889835 6.291797722241967 8.591401026796316 15.75734149581876 0 0 0
408 40 2 -0.3889835 2.089898149593311 11.281034527702655 20.677385748228712 0 0 0
409 40 3 0.7551165 2.0802854421643016 10.474919780280395 19.58978063679306 0 0 0
410 40 4 -0.5800835 1.1910512055178237 9.675292030834159 19.450865439358775 0 0 0
411 40 2 -0.3889835 3.1222439194359786 10.640926335482114 18.74477643887259 0 0 0
412 40 1 0.1266165 3.0856294761017886 9.77535220057596 17.59075053724 0 0 0
417 40 5 0.0582835 3.2208687999178047 8.739750969969837 17.99678998532967 0 0 0
564 53 2 -0.3889835 5.0406309638987326 8.722652293822833 21.419451266366885 0 0 0
418 40 5 0.0582835 2.1627867598076467 10.030306858305911 17.064734479396297 0 0 0
416 40 5 0.0582835 3.9540422351984033 9.981010890552435 16.95124511250406 0 0 0
804 73 2 -0.3889835 6.341466485006537 10.785295648883706 15.171384802064948 0 0 0
563 53 1 0.1266165 5.84321459577042 9.030949303945965 22.59520326273529 0 0 0
775 70 5 0.0582835 8.623365668961714 11.455853517523828 19.48475597202729 0 0 -1
570 53 5 0.0582835 5.685159064880243 9.993899232206852 22.943083580328523 0 0 0
569 53 5 0.0582835 6.892249489691412 8.927272501103673 22.434262891741156 0 0 0
413 40 5 0.0582835 0.8265723133271965 10.129835707460632 21.811571119948315 0 0 0
407 40 1 0.1266165 0.9624878148486058 11.133424239823036 21.644422815472574 0 0 0
768 70 2 -0.3889835 8.588306756580113 10.984223912999067 21.565100958704058 0 0 -1
774 70 5 0.0582835 9.637058999204893 10.093811992049416 19.956025125322356 0 0 -1
767 70 1 0.1266165 9.260777590775588 11.088427064539244 20.270148917131802 0 0 -1
415 40 5 0.0582835 0.0705769638736719 11.423949687715227 21.088991727328125 0 0 0
713 65 5 0.0582835 13.509648243066103 8.399461900786052 19.27459489709527 0 0 0
604 56 1 0.1266165 14.733877092354344 7.632770199237871 22.88750159296771 0 0 0
609 56 5 0.0582835 14.474394791914426 8.15162827318653 21.940534688307483 0 0 0
707 65 1 0.1266165 13.72503093070274 7.441432190738198 18.706603738602094 0 0 0
1055 99 2 -0.58 11.885154821565502 7.0767151835978925 21.305046195710247 0 0 0
1065 99 2 -0.58 11.198387862023518 8.279913928981859 23.413361268949068 0 0 0
168 17 5 0.0798 10.952374933645345 10.676379489279178 14.26054515046535 0 0 0
161 17 1 0.0955 11.478349345054074 10.600052376071108 15.168384610435554 0 0 0
162 17 1 0.0955 10.749963974272184 11.498261416630967 16.08854200120322 0 0 0
163 17 2 -0.4048 10.139918320699973 10.6079042894607 17.017080505521896 0 0 0
164 17 3 0.8478 10.52660030784165 9.371815665292623 16.702024889708625 0 0 0
165 17 4 -0.5484 10.1855096008824 8.354243591631077 17.33752041383729 0 0 0
166 17 2 -0.4048 11.343936625498062 9.30172823222156 15.588575284543913 0 0 0
1056 99 7 1 11.115664002743253 8.06965189552163 22.017458247341366 0 0 0
1057 99 2 -0.58 9.718285300507164 7.721131456895476 21.621124688453364 0 0 0
1060 99 2 -0.58 11.515410202236845 9.300080505236252 21.413690075459513 0 0 0
167 17 5 0.0798 12.440935459329953 10.990153012619237 14.880278212348905 0 0 0
1061 99 3 0.66 11.779505437775745 10.265582084317778 22.36604291427714 0 0 0
1062 99 4 -0.58 12.139473553352051 11.42969764348693 22.163140360481904 0 0 0
454 43 5 0.0582835 14.094621575621574 11.032594807485149 19.96097007674176 0 0 0
453 43 5 0.0582835 15.801866606884325 11.224906395674845 20.421722456599667 0 0 0
448 43 1 0.1266165 15.12942259402862 11.133006876264261 19.571414201808714 0 0 0
452 43 5 0.0582835 15.494532318461468 10.34457235670256 18.908582286653385 0 0 0
269 27 5 0.0798 23.270035587533588 10.220759248532572 15.50562629659626 -1 0 0
761 69 5 0.0582835 18.14110870368369 11.05038021042635 16.63069976939396 0 0 0
115 12 4 -0.5484 21.335943988129703 7.334060644772981 16.974120962818176 0 0 0
710 65 4 -0.5800835 16.0470938582984 7.852929332155185 20.14842363628963 0 0 0
857 77 5 0.0582835 22.824767607350815 7.683504911960845 19.900261406886255 -1 0 0
852 77 2 -0.3889835 21.825994586177103 8.219901283418178 21.651468493692622 -1 0 0
267 27 5 0.0798 22.908002233411356 9.840338082711341 17.705593882719626 -1 0 0
708 65 2 -0.3889835 15.08291598787722 7.4387149503586825 18.135369128346525 0 0 0
859 77 5 0.0582835 21.459628778003253 6.70380150629003 20.20843801805139 -1 0 0
851 77 1 0.1266165 22.28072034099754 7.248433844585541 20.69987829960806 -1 0 0
855 77 2 -0.3889835 20.746805538089284 10.108716027180098 22.305719716276776 -1 0 0
853 77 3 0.7551165 21.11270561780028 9.252173130652752 21.26255739412732 -1 0 0
711 65 2 -0.3889835 17.35460264151406 7.660183650902543 18.329730340817857 0 0 0
717 65 5 0.0582835 19.47061353847024 8.112147686985145 18.583426135005404 0 0 0
709 65 3 0.7551165 16.11113800706924 7.649667961459841 18.937157131135685 0 0 0
270 27 5 0.0798 21.449642961137677 10.59007984727806 15.257808803228505 -1 0 0
262 27 1 0.0955 22.41684196438152 10.821885044154557 15.80175266372175 -1 0 0
268 27 5 0.0798 21.303423081950612 10.348444574915339 17.620108777233497 -1 0 0
261 27 1 0.0955 22.358585578899035 10.673466176275197 17.299005580221067 -1 0 0
854 77 4 -0.5800835 20.804650342087097 9.437504754575917 20.12094939977186 -1 0 0
712 65 1 0.1266165 18.515124978516994 7.917204382496735 19.138836454828393 0 0 0
716 65 5 0.0582835 18.691213163755638 7.084452012990479 19.857983814117702 0 0 0
860 77 5 0.0582835 19.219970505663678 10.97359426653109 21.20492362152571 -1 0 0
718 65 5 0.0582835 18.266830845630633 8.799639116232283 19.781498938447076 0 0 0
94 10 3 0.8478 7.427440418501782 0.0858028922526512 21.547744010097393 0 1 -1
560 52 5 0.0582835 12.072481546467488 0.5489301508373743 16.23648577420145 0 1 0
554 52 4 -0.5800835 13.982077628933933 0.7443860008406786 18.255029563360267 0 1 0
561 52 5 0.0582835 10.663654542115431 0.09465420068744651 16.890135080933316 0 1 0
556 52 1 0.1266165 11.660576989931993 0.42990353279914795 17.15753944504579 0 1 0
886 79 5 0.0582835 21.397363823571773 0.5098859241656494 16.226064359948992 0 0 0
557 52 5 0.0582835 15.254545487157447 -0.2328362537307442 20.618423548180438 0 1 0
703 64 5 0.0582835 14.5505589751288 23.047818643898225 0.1352236808001765 0 -1 1
625 58 3 0.7551165 21.92669181449373 23.43524880058939 0.5936151618368531 -1 0 0
740 67 5 0.0582835 3.1063686643823187 12.980968128986236 2.12235785312206 0 0 0
427 41 5 0.0582835 0.9583653060926682 15.629088130077598 1.9864935022235972 0 0 0
736 67 1 0.1266165 3.8542189005295837 12.354942914785902 2.6766030946608605 0 0 0
741 67 5 0.0582835 3.725146389909606 12.727068602721522 3.6932460872121133 0 0 0
1013 95 2 -0.58 4.520667033772761 14.556517162857235 5.001599359656576 0 0 0
1011 95 3 0.66 3.2511963253587646 15.103512971019258 4.970617893446119 0 0 0
1012 95 4 -0.58 2.2061498163314397 14.446940855790897 5.142489316465507 0 0 0
435 42 2 -0.3889835 6.538991196361221 12.19935075632421 5.1385527214847695 0 0 0
200 20 5 0.0798 2.281692200127875 15.719490353049018 7.71306068470153 0 0 0
742 67 5 0.0582835 4.863346268709225 12.441494577694774 2.3243598425955967 0 0 0
426 41 5 0.0582835 1.444049592273697 14.69270685850273 0.4243098967158865 0 0 0
321 32 5 0.0582835 22.934123615453085 12.67459731189173 1.948766016834778 0 0 0
332 33 5 0.0582835 5.606234422112444 17.827738501509486 2.2794183332337923 0 0 1
436 42 1 0.1266165 6.545370743801028 12.010854224463973 6.605553809266937 0 0 0
440 42 5 0.0582835 7.47097314063603 11.637420638541736 6.997703894816577 0 0 0
441 42 5 0.0582835 6.415501457832789 12.99643928421835 7.025203358272982 0 0 0
12 2 1 0.0955 10.80990018629131 11.798273432279661 5.159061985095956 0 0 0
19 2 5 0.0798 11.597890850318624 12.174734750216661 5.799192736658701 0 0 0
20 2 5 0.0798 10.162804782232213 12.612718481131575 4.795710541689889 0 0 0
777 70 5 0.0582835 6.59536437273962 13.216722922144568 1.021491616467144 0 0 0
1037 97 3 0.66 14.724713943946607 11.670667852880834 6.81252178217394 0 0 0
530 50 4 -0.5800835 12.932442086679906 15.689361382078944 4.984635705179254 0 0 0
772 70 1 0.1266165 7.0076800995712265 13.46697433619997 0.04505579504874996 0 0 0
538 50 5 0.0582835 15.625638817172986 15.862154599057101 4.78473547543545 0 0 0
536 50 5 0.0582835 14.980427253112511 14.95213432244168 3.4660158602425537 0 0 0
532 50 1 0.1266165 15.333655452750536 15.956658263145831 3.7575970162787202 0 0 0
351 35 2 -0.3889835 12.745797803584406 14.756867404149268 0.7717655554427068 0 0 0
358 35 5 0.0582835 10.788128280107506 14.967692156450651 1.4056532485849365 0 0 0
346 34 5 0.0582835 16.27287198074871 15.614514222380608 8.048858774774816 0 0 0
486 46 5 0.0582835 12.54504610890891 14.764454167530483 7.760814650548578 0 0 0
352 35 1 0.1266165 11.359870445908983 14.318136797955676 0.7088330363430979 0 0 0
511 48 5 0.0582835 14.301638678988716 12.090134981965685 1.2176641164071402 0 0 1
778 70 5 0.0582835 7.8973722805022355 14.124195641996787 0.19570423523245106 0 0 0
506 48 4 -0.5800835 16.74668838743358 11.669650887334898 1.8405774105869983 0 0 1
537 50 5 0.0582835 16.081539205833984 16.458049197723774 3.099876542133519 0 0 0
220 22 5 0.0798 23.288201047002016 15.138908186859329 3.838681653453368 -1 0 0
215 22 4 -0.5484 23.218507077711337 12.862872181242329 7.248317335388508 -1 0 0
216 22 2 -0.4048 23.051074157679384 15.180246685420745 6.874025244573012 -1 0 0
213 22 2 -0.4048 22.686305116593452 13.732222823792158 5.153563496335705 -1 0 0
214 22 3 0.8478 23.006708459479086 13.82740668128574 6.486332339953035 -1 0 0
1034 97 2 -0.58 16.531350989079783 12.946859461355707 7.043528319244836 0 0 0
1029 97 2 -0.58 17.85343187759825 11.712979840676432 5.513088458901452 0 0 0
1030 97 7 1 16.650670306398926 12.417677753054832 5.6928195194359414 0 0 0
1027 97 4 -0.58 19.837827267736095 11.790578855989459 4.312815299475159 0 0 0
212 22 1 0.0955 22.509829063654593 15.070423494062426 4.629713812857734 -1 0 0
219 22 5 0.0798 21.46797886161878 15.164990104647073 4.170218469367216 -1 0 0
1031 97 2 -0.58 16.80909728010222 13.53160133255612 4.7466946653243225 0 0 0
1032 97 3 0.66 18.017293051922106 13.47181113155522 4.092459183681477 0 0 0
1033 97 4 -0.58 18.35104841599231 14.315928729460456 3.2704834867454005 0 0 0
1028 97 3 0.66 18.68908113242496 12.25178203436474 4.6216571998310245 0 0 0
316 32 1 0.1266165 22.520012396950634 11.6557671182829 2.142290174210279 0 0 0
322 32 5 0.0582835 21.392321854081175 11.757515926593047 1.9587648623775493 0 0 0
972 87 2 -0.3889835 19.431279438530986 14.553642426489542 6.97404199050891 0 0 0
509 48 5 0.0582835 15.304754854268793 13.326544845187916 0.4404600117369648 0 0 1
871 78 5 0.0582835 19.49616690481547 14.125334560668236 0.8640097268271536 0 0 0
863 78 1 0.1266165 19.374857914596845 15.108892958960373 0.4397856544991814 0 0 0
870 78 5 0.0582835 18.32609330369429 15.282986960478318 0.26862811357276983 0 0 0
866 78 4 -0.5800835 22.08721084368505 14.615535509635224 0.02927490310713282 0 0 0
419 41 1 0.1266165 1.2470339580889342 15.63634427023535 0.9224673141863187 0 0 0
1003 95 2 -0.58 6.549150549260866 15.519247106576465 5.907390614901873 0 0 0
1005 95 2 -0.58 6.408086030524083 15.15053890647679 3.549204569603955 0 0 0
1004 95 7 1 5.646634209385215 15.506471755715483 4.783886108769857 0 0 0
1002 95 3 0.66 7.788019541456924 15.187497488112186 5.37786404169735 0 0 0
1006 95 3 0.66 7.702711225255666 14.925543768522038 3.8606699305645966 0 0 0
420 41 2 -0.3889835 2.3527335808548524 16.622091726669133 0.9063570153510387 0 0 0
31 4 1 0.0955 0.780521841181143 23.38713889368045 4.244850181520686 0 -1 0
36 4 2 -0.4048 1.8477203936883648 23.15386423613326 3.2643419794112614 0 -1 0
428 41 5 0.0582835 2.3653886241524873 19.849969972315172 3.0455404241395496 0 0 0
1008 95 2 -0.58 4.859112239205279 16.698734375170453 4.625088535744092 0 0 0
1009 95 3 0.66 3.518749325909174 16.55824650373419 4.705778299962862 0 0 0
421 41 3 0.7551165 1.9849903072783035 17.869823102387386 1.4484575581266128 0 0 0
423 41 2 -0.3889835 2.9677847814970346 18.80976868414426 1.4674023447271687 0 0 0
424 41 1 0.1266165 2.607827044757121 20.055228330580725 2.035707721323674 0 0 0
429 41 5 0.0582835 3.45144417979818 20.7614284820203 2.0098826252956576 0 0 0
430 41 5 0.0582835 1.8444120426076491 20.53539967187193 1.4688371898034194 0 0 0
1010 95 4 -0.58 2.626519956726222 17.37065240588796 4.609243586277606 0 0 0
368 36 5 0.0582835 5.153055642693385 21.814255304315246 3.6702798602236006 0 0 0
369 36 5 0.0582835 5.129323948794807 19.997277752909646 3.2923652408018538 0 0 0
364 36 1 0.1266165 5.755664959238237 20.872755902651193 3.6305214205665197 0 0 0
422 41 4 -0.5800835 0.8572782711651326 18.019377870147565 1.8566392887709449 0 0 0
81 9 1 0.0955 3.219756996374101 20.208453448304823 6.1602429498739735 0 -1 0
88 9 5 0.0798 4.106325405295327 19.564783074713986 6.168438563390302 0 -1 0
38 4 5 0.0798 0.9491419152241294 22.740853874875015 5.152108494432762 0 -1 0
328 33 1 0.1266165 5.705078297508623 17.352381659750527 1.2941407625854038 0 0 1
87 9 5 0.0798 2.8445223072760966 19.962051753607184 5.150990817531514 0 -1 0
86 9 2 -0.4048 3.563777849881147 21.618083065657714 6.437984813613111 0 -1 0
333 33 5 0.0582835 4.7376560349808985 17.373776236507297 0.7500874777774511 0 0 1
334 33 5 0.0582835 5.947908045609442 16.28920858496749 1.414533377388327 0 0 1
327 33 2 -0.3889835 6.727581455631415 18.057009204853856 0.5902055250928229 0 0 1
89 9 5 0.0798 1.2877972509204187 19.397266028246904 6.931530588913097 0 -1 0
82 9 1 0.0955 2.2825101460321155 19.747017642463895 7.233216998398453 0 -1 0
370 36 5 0.0582835 6.143960776852328 20.605419608390307 4.655648291805556 0 0 0
363 36 2 -0.3889835 6.829315056475961 20.989018167845785 2.555707280083638 0 0 0
218 22 5 0.0798 -0.17923569564776723 16.65653159755238 5.521584201179521 0 0 0
84 9 3 0.8478 2.8847753171412123 21.96287384917379 7.574036705116443 0 -1 0
83 9 2 -0.4048 2.1409868747538368 20.902020676257848 8.048092693830558 0 -1 0
85 9 4 -0.5484 2.9596979009032043 23.078313480342906 8.104712216591093 0 -1 0
425 41 5 0.0582835 0.3743312636107453 15.992361952544014 0.4028818718497079 0 0 0
701 64 5 0.0582835 14.113457951944584 21.989760010580603 1.4437466363259113 0 -1 1
702 64 5 0.0582835 15.811105528892007 21.941741313444616 0.7479192209191887 0 -1 1
695 64 1 0.1266165 14.727393016781132 22.08502239492278 0.49987478125906903 0 -1 1
725 66 5 0.0582835 9.880282999687898 23.40341036410552 2.640169000030076 0 -1 0
1007 95 4 -0.58 8.505812539473895 14.617239671970243 2.965308302133671 0 0 0
1001 95 4 -0.58 8.826541148871083 15.106876299099183 6.1115903673753795 0 0 0
344 34 5 0.0582835 15.128825390301891 15.702427715632306 6.786961926917958 0 0 0
340 34 1 0.1266165 15.60088097740665 16.292454866368544 7.565567240757655 0 0 0
529 50 3 0.7551165 13.051017386304759 16.627471548786033 4.218964929652328 0 0 0
531 50 2 -0.3889835 14.21537231187903 16.86994046483572 3.5343285283258323 0 0 0
100 10 5 0.0798 7.958993947942702 22.518645012049717 0.5615759415684562 0 0 0
533 50 5 0.0582835 10.886991848344866 17.378183920503083 5.715841340114615 0 0 0
535 50 5 0.0582835 10.178043417719925 16.671131506071255 4.283709302202186 0 0 0
362 36 4 -0.5800835 7.714882036959842 18.975570244604917 3.2880240416840087 0 0 0
361 36 3 0.7551165 7.732563079282295 19.948323968126473 2.5191657589179197 0 0 0
727 66 5 0.0582835 8.94283106800108 22.04635461427766 2.963861106392498 0 -1 0
349 35 3 0.7551165 13.002478499032105 16.088238219715812 0.5284828070725417 0 0 0
528 50 2 -0.3889835 12.040290991324126 17.556524973013424 3.979348669654313 0 0 0
527 50 1 0.1266165 10.803877714256146 17.478705041247736 4.61832327497373 0 0 0
719 66 1 0.1266165 9.698579806330828 22.650690205800778 3.4232999948765364 0 -1 0
726 66 5 0.0582835 10.529398032664014 21.992082522845855 3.5785367376712736 0 -1 0
720 66 2 -0.3889835 9.23826522907549 23.243593586527403 4.714564192033701 0 -1 0
534 50 5 0.0582835 10.186321868923748 18.402104961278404 4.424146034123404 0 0 0
366 36 5 0.0582835 10.364821611695598 19.313288901101586 0.5877983914794791 0 0 0
360 36 2 -0.3889835 8.7075287764578 20.079297052658127 1.548695522688138 0 0 0
257 26 5 0.0798 13.90646858814902 21.262997714026305 5.833969757985711 0 -1 0
252 26 1 0.0955 14.395478292769463 19.31804407479141 6.101439824799136 0 -1 0
260 26 5 0.0798 13.661890700429565 18.524652690674557 6.109966048183683 0 -1 0
365 36 5 0.0582835 9.251729286141595 18.11012245879229 1.2938953561589557 0 0 0
256 26 2 -0.4048 14.79732925290093 20.418181276812042 4.096470031097202 0 -1 0
359 36 1 0.1266165 9.713232483277789 19.051038626893295 1.450981137701966 0 0 0
367 36 5 0.0582835 10.312868539599942 18.951819003126538 2.3433082322685252 0 0 0
251 26 1 0.0955 13.838806812716008 20.340455182839698 5.212985765929835 0 -1 0
258 26 5 0.0798 12.710798470400542 20.241035419978104 5.126712002553512 0 -1 0
254 26 3 0.8478 15.78735628937499 19.50551863781289 4.388587026061584 0 -1 0
353 35 5 0.0582835 14.169380020996764 18.516155793494285 1.2284856477240709 0 0 0
347 35 1 0.1266165 14.471864539467434 17.999210247314394 0.2986401831275072 0 0 0
259 26 5 0.0798 14.333875509577123 19.534443434889305 7.159932585946774 0 -1 0
253 26 2 -0.4048 15.610667665666725 18.84518294566405 5.571422537551817 0 -1 0
644 59 5 0.0582835 8.076569748411153 19.61083008886677 6.084579858190068 0 -1 0
350 35 4 -0.5800835 12.113552910783259 16.884005035048595 0.2889220897854231 0 0 0
255 26 4 -0.5484 16.75606620120866 19.339263617259 3.6003082644546947 0 -1 0
348 35 2 -0.3889835 14.27805940794761 16.54755971772945 0.5612980740182024 0 0 0
678 62 5 0.0582835 10.213793192724037 16.67405594985013 8.439394450702592 0 0 0
356 35 5 0.0582835 11.024421183512581 14.43321311133263 -0.2994437795222993 0 0 0
211 22 1 0.0955 22.738635977683032 16.03747956789912 5.782542916526431 -1 0 0
37 4 5 0.0798 -0.21803750505325056 23.1649266630415 3.754338427792147 0 -1 0
345 34 5 0.0582835 16.090185433391127 17.135100567139062 7.075182028666045 0 0 0
217 22 5 0.0798 21.790729914816453 16.479636366838264 6.015576686117908 -1 0 0
975 87 2 -0.3889835 19.212494535174265 16.551249264970473 5.692451098372274 0 0 0
627 58 2 -0.3889835 22.385266416990206 22.111609684607288 0.5629773716727335 -1 0 0
982 87 5 0.0582835 17.898719689771756 18.155725356915532 6.0924627414660675 0 0 0
981 87 5 0.0582835 18.97794481275843 18.341375160373914 4.64121766424807 0 0 0
976 87 1 0.1266165 18.92693542923172 17.96397036571831 5.69093485798147 0 0 0
980 87 5 0.0582835 19.665545510865176 18.543368862926457 6.2932539696225245 0 0 0
780 71 2 -0.3889835 22.312105074491498 20.70970870867007 5.7631504853605025 -1 0 0
781 71 3 0.7551165 22.412182266375403 20.0940191627067 6.97157595016092 -1 0 0
782 71 4 -0.5800835 22.353321747239537 18.88963697534672 7.16942833173218 -1 0 0
787 71 5 0.0582835 23.053485281921102 19.24230059500932 4.577073048821752 -1 0 0
785 71 5 0.0582835 21.29129422951272 19.188224360031967 4.804514498761821 -1 0 0
1040 98 4 -0.58 20.03672304848859 22.18366785040861 3.264802531733141 -1 0 0
1041 98 3 0.66 19.782549171747284 22.374758774538655 4.454522154777843 -1 0 0
1042 98 2 -0.58 18.87128273727263 21.68031897124439 5.126577476658967 -1 0 0
779 71 1 0.1266165 22.132611500648558 19.81781227582163 4.666553389251655 -1 0 0
786 71 5 0.0582835 22.05216757218203 20.333098817740733 3.7198076169115497 -1 0 0
1043 98 7 1 18.751094369870753 22.068906839736634 6.52904790261104 -1 0 0
1045 98 3 0.66 20.409352731052955 23.357194133018943 5.3833984012158504 -1 0 0
1052 98 2 -0.58 17.341837293317194 22.249776341742084 6.963911049396391 -1 0 0
354 35 5 0.0582835 15.498830818308337 18.293423777482694 0.18870623904762096 0 0 0
1044 98 2 -0.58 19.761313517337413 23.13586350412436 6.6022708106733505 -1 0 0
633 58 5 0.0582835 21.936739088494814 20.196884205202466 -0.035029439301049126 -1 0 0
869 78 5 0.0582835 19.72464355177732 15.784997529340574 1.2121948785347092 0 0 0
826 74 5 0.0582835 15.956577979375439 23.35589852059975 9.791125849154842 -1 0 0
822 74 5 0.0582835 21.745203690717453 23.306850382563923 9.99653872196301 -1 0 0
815 74 1 0.1266165 20.73906923728711 22.929638454514787 10.152226899940425 -1 0 0
823 74 5 0.0582835 20.644742857599393 22.62724453110625 11.194714480090779 -1 0 0
818 74 4 -0.5800835 18.285362070523327 22.521036911240145 10.587469014527851 -1 0 0
199 20 5 0.0798 3.379284152890697 14.273220566011789 7.855665432456524 0 0 0
955 85 5 0.0582835 3.8185870322048556 12.37465511477962 10.997895639238207 0 0 0
950 85 4 -0.5800835 6.1165108495792175 12.833381728771826 9.631639455403153 0 0 0
949 85 3 0.7551165 6.111263262414264 13.756003999121088 10.431082407771488 0 0 0
198 20 5 0.0798 1.9460531321619365 15.782120450562173 9.979247304721564 0 0 0
197 20 5 0.0798 3.2138981584637203 14.452506051460881 10.23941770779703 0 0 0
191 20 1 0.0955 2.9940374371125955 15.452285698406591 9.755616392067651 0 0 0
192 20 1 0.0955 3.137703742182436 15.26169191319832 8.200610061117231 0 0 0
958 85 5 0.0582835 8.427693727483986 14.192248398650383 8.903916793842544 0 0 0
951 85 2 -0.3889835 6.850490634670447 14.892654026402576 10.243482892953196 0 0 0
952 85 1 0.1266165 7.701816101384869 14.971601432404082 8.986128512883246 0 0 0
956 85 5 0.0582835 7.167825923050945 14.812348965457943 8.100504424482414 0 0 0
1035 97 3 0.66 15.474158855206557 12.565653807456618 7.715270372289037 0 0 0
957 85 5 0.0582835 8.175566983695148 15.86635481667532 8.788503240066529 0 0 0
483 46 2 -0.3889835 10.174520678656354 14.34599338063588 11.316576321126657 0 0 0
482 46 4 -0.5800835 10.170354534656159 12.640381463046888 9.797991316130828 0 0 0
481 46 3 0.7551165 10.540559177552977 13.77738429182537 10.143455319657914 0 0 0
479 46 1 0.1266165 11.773970362276017 14.052720924338278 8.089368738904884 0 0 0
480 46 2 -0.3889835 11.320726602934275 14.562020177747756 9.403159420605991 0 0 0
485 46 5 0.0582835 10.95745427907537 13.974440123317997 7.352667989314808 0 0 0
487 46 5 0.0582835 12.21621908683032 13.085266504861371 8.186597258804833 0 0 0
1036 97 4 -0.58 15.226917625928882 12.932462154934235 8.87187092420516 0 0 0
973 87 3 0.7551165 19.155521119648466 15.915155640926097 6.879340106458573 0 0 0
971 87 1 0.1266165 19.33776633071264 13.914754921072497 8.311613260245398 0 0 0
978 87 5 0.0582835 19.545775494843706 12.880578899990745 8.185542283793216 0 0 0
210 21 5 0.0798 16.513313104483995 12.188856108733168 11.381964242264297 0 0 0
977 87 5 0.0582835 18.319977339674438 13.898416889572813 8.757427855383764 0 0 0
204 21 3 0.8478 17.2088230035248 14.986454374389314 11.453395881642507 0 0 0
979 87 5 0.0582835 20.00203315772121 14.361604876273855 9.102881277254141 0 0 0
525 49 5 0.0582835 23.00758897469037 16.92481665008068 9.988485945102138 0 0 0
526 49 5 0.0582835 21.432207626399872 16.295767524560297 10.454881676916875 0 0 0
646 59 5 0.0582835 6.588767336777362 19.172977300728434 7.001886427120507 0 -1 0
640 59 1 0.1266165 7.672148373455892 19.25105868780159 7.030221995443628 0 -1 0
638 59 4 -0.5800835 7.0766755175487885 21.826355241434065 7.407715914853013 0 -1 0
196 20 2 -0.4048 3.9032376464009015 16.457579899632357 10.058501435979675 0 0 0
193 20 2 -0.4048 4.15117410200013 16.22798719548185 7.889028621481412 0 0 0
90 9 5 0.0798 2.766462225859528 18.954585529136615 7.775865110089915 0 -1 0
645 59 5 0.0582835 8.020951283996913 18.243401049576725 7.147140384359276 0 -1 0
194 20 3 0.8478 4.597326028849544 16.8997459499342 8.928283285394649 0 0 0
195 20 4 -0.5484 5.441010748180964 17.718339634292235 8.91455235528128 0 0 0
908 81 5 0.0582835 5.443178527487824 21.23029900830477 11.416612027899824 1 -1 0
909 81 5 0.0582835 5.106326299705054 21.141019253698694 9.73373907314427 1 -1 0
904 81 1 0.1266165 4.720072301560999 21.481652047766538 10.698179221143027 1 -1 0
910 81 5 0.0582835 4.6281279602543135 22.558326078088335 10.642172781921419 1 -1 0
903 81 2 -0.3889835 3.3846842720475525 20.967244073862787 11.003028822687753 1 -1 0
639 59 2 -0.3889835 8.18042417015659 20.08798521947881 8.214115410380254 0 -1 0
636 59 2 -0.3889835 8.233380176556123 22.14606111770356 9.327957990909216 0 -1 0
637 59 3 0.7551165 7.814543450597558 21.368420786131068 8.27938437451826 0 -1 0
679 62 5 0.0582835 10.996597245113023 17.11214838479939 9.957012376227791 0 0 0
671 62 1 0.1266165 10.406202887744925 17.460042278004202 9.104946390219498 0 0 0
672 62 2 -0.3889835 11.115292079387414 18.436325875019357 8.4170813073817 0 0 0
677 62 5 0.0582835 9.465144062991273 17.883898036239678 9.454833721059938 0 0 0
673 62 3 0.7551165 11.293371252065432 19.58895226339513 9.085180350530482 0 0 0
674 62 4 -0.5800835 10.842169971925284 19.7317742625605 10.223845972465442 0 0 0
675 62 2 -0.3889835 11.992779353842446 20.571632126373146 8.411198034994031 0 0 0
682 62 5 0.0582835 11.272882505390898 22.26937708836776 9.386725007442259 0 0 0
339 34 2 -0.3889835 14.478655742277112 16.82290575910512 8.43137402034877 0 0 0
676 62 1 0.1266165 12.204378910155377 21.822302389476583 9.089974376671746 0 0 0
680 62 5 0.0582835 12.81237393162653 21.660780397967116 10.016363904046177 0 0 0
681 62 5 0.0582835 12.728103100056607 22.399287882467483 8.371044661160536 0 0 0
336 34 2 -0.3889835 13.822177277271583 18.010429628336645 10.165394625900927 0 0 0
337 34 3 0.7551165 14.864137927370674 17.587860142343835 9.465232379591995 0 0 0
335 34 1 0.1266165 14.148522862536954 18.854797989536053 11.325818437221097 0 0 0
783 71 2 -0.3889835 22.603361384935628 20.942453544331485 7.967483977819873 -1 0 0
1047 98 2 -0.58 19.168094978764014 20.86999337859085 7.256676421027475 -1 0 0
784 71 1 0.1266165 22.720155788097156 20.41358482042687 9.355278933307936 -1 0 0
341 34 5 0.0582835 14.368490636412872 19.87182452085606 11.000390523123473 0 0 0
974 87 4 -0.5800835 18.860253192446002 16.583665312965998 7.856357330031811 0 0 0
205 21 4 -0.5484 17.82545164857345 15.945877174850176 10.998031714540899 0 0 0
788 71 5 0.0582835 -0.2477546823314083 19.67252845359036 9.431564573910329 0 0 0
789 71 5 0.0582835 23.08688255768787 21.12838188853084 10.096720235176287 -1 0 0
524 49 5 0.0582835 21.502613873264814 17.632328356253055 9.267863466731558 0 0 0
520 49 1 0.1266165 21.990874502277244 17.193122663430827 10.20284177535521 0 0 0
790 71 5 0.0582835 21.751089955092844 19.987257596128472 9.719743976411142 -1 0 0
1048 98 3 0.66 18.141133772964466 20.41148557889698 8.03712399670224 -1 0 0
1049 98 4 -0.58 18.283337219619636 19.39406080213051 8.743644671026729 -1 0 0
1051 98 4 -0.58 15.80587364274978 21.252829460505936 8.36614419603525 -1 0 0
1050 98 3 0.66 16.94406237040835 21.312452005181115 7.857271318011229 -1 0 0
997 91 6 1 18.205797306845263 17.58777904547847 9.642776616584063 0 0 0
519 49 2 -0.3889835 21.86948948899376 18.064569817005996 11.323875858721557 0 0 0
821 74 5 0.0582835 20.560361194314073 22.114542423493226 9.413234401311339 -1 0 0
518 49 4 -0.5800835 19.586480633640164 18.205673493472958 11.029188207475329 0 0 0
338 34 4 -0.5800835 16.063339693441673 17.81100902306202 9.61721830075796 0 0 0
357 35 5 0.0582835 11.369455808856413 13.251371465808758 0.9591774156810893 0 0 0
503 48 1 0.1266165 14.77393556599377 12.392681101782712 0.307329229766915 0 0 1
654 60 5 0.0582835 17.750092323720885 17.664230397581967 0.3422688489730926 0 0 0
653 60 5 0.0582835 17.951625278201796 19.368350925721472 0.007942479832106442 0 0 0
647 60 1 0.1266165 18.31444459019467 18.397364340480593 -0.27397989320429944 0 0 0
655 60 5 0.0582835 19.35690546832881 18.37762766792911 -0.11042699379536874 0 0 0
634 58 5 0.0582835 20.72605833590052 21.040965181028717 1.008987499911265 -1 0 0
628 58 1 0.1266165 21.38478536998033 21.11950992754921 0.14271431157229514 -1 0 0
776 70 5 0.0582835 6.314261374577936 13.87512461716103 23.102626855964534 0 0 -1
771 70 2 -0.3889835 7.502434720348071 12.206652021854675 23.226016815895726 0 0 -1
864 78 2 -0.3889835 20.020119125380393 15.282082059724733 22.877131693957175 0 0 -1
865 78 3 0.7551165 21.438046580496525 14.99089481470621 22.783094614688427 0 0 -1
99 10 5 0.0798 6.704463470397063 21.727044004628972 23.392937579668057 0 0 -1
92 10 1 0.0955 7.487874378991454 22.399911110611527 23.325386373775927 0 0 -1
97 10 5 0.0798 8.336338258092754 21.017760705991947 21.914536780210607 0 0 -1
696 64 2 -0.3889835 14.319547379047073 21.120209312951836 23.247790244535345 0 -1 0
697 64 3 0.7551165 13.006760036408101 21.243537498696938 22.704906531372693 0 -1 0
698 64 4 -0.5800835 12.212228431635854 22.17653482075565 23.068311716393687 0 -1 0
355 35 5 0.0582835 13.922073574287099 18.38424961472382 23.193816178139592 0 0 -1
98 10 5 0.0798 9.543622469784157 22.01111607525796 22.541144989820307 0 0 -1
91 10 1 0.0955 8.492791572571976 22.01040667183424 22.25742195069698 0 0 -1
954 85 5 0.0582835 4.057445545020462 12.524596152356512 12.754657187699621 0 0 0
947 85 1 0.1266165 4.559266239989932 12.53205702117737 11.858425553753598 0 0 0
948 85 2 -0.3889835 5.3696422011648375 13.748127627247854 11.609007169907423 0 0 0
953 85 5 0.0582835 5.216825508564374 11.652983299719207 11.835025685734424 0 0 0
1070 100 2 -0.58 1.6103625442061344 11.851444349628817 13.25098850200158 0 0 0
1071 100 3 0.66 0.6144462670899306 12.313209226185341 12.492372222206768 0 0 0
913 82 3 0.7551165 2.408376322760462 15.168145605968942 14.356071860753321 0 0 0
915 82 2 -0.3889835 3.4271884290240178 14.26842064373831 14.489323378018332 0 0 0
1072 100 4 -0.58 0.2607335340115172 13.471504732772623 12.568466343943207 0 0 0
809 73 5 0.0582835 6.8930693570553405 11.746422825591607 13.442433759524759 0 0 0
803 73 1 0.1266165 7.0068935096741525 11.900384378093975 14.483482402619538 0 0 0
810 73 5 0.0582835 6.511240817751615 12.831324149875135 14.705461527742223 0 0 0
484 46 1 0.1266165 9.304680800721597 13.5177497198976 12.143438067849278 0 0 0
488 46 5 0.0582835 9.740809049094821 12.512227950605782 12.378453032100074 0 0 0
489 46 5 0.0582835 9.073756696837107 14.100570385113146 13.115645723928548 0 0 0
490 46 5 0.0582835 8.33383701240342 13.353955339339105 11.604902964221004 0 0 0
208 21 5 0.0798 14.547660801652492 13.404484432544239 11.9203048129132 0 0 0
1015 96 3 0.66 11.486873177829942 15.706045293571052 13.888658972305958 0 0 0
1014 96 4 -0.58 12.449357178629457 15.082782052915933 13.524406995965718 0 0 0
1026 96 2 -0.58 8.279498865173105 15.467186473218202 15.078693287394096 0 0 0
1016 96 2 -0.58 10.669938242028966 15.219356012281562 14.883546489669298 0 0 0
811 73 5 0.0582835 8.032026424653811 11.920757233115149 14.758787944353765 0 0 0
207 21 5 0.0798 15.23235276165883 13.946803850325432 13.392791883340847 0 0 0
201 21 1 0.0955 15.467916632531749 13.829518082628054 12.30452431410137 0 0 0
206 21 2 -0.4048 15.859405671386352 15.161572515797015 11.79371525104272 0 0 0
202 21 1 0.0955 16.715298728148998 12.919390332832876 12.172539484035589 0 0 0
203 21 2 -0.4048 17.691075292889938 13.779951352841527 11.64997988784926 0 0 0
209 21 5 0.0798 16.944040451497713 12.35056663850388 13.022970074698762 0 0 0
757 69 3 0.7551165 19.26762114659973 13.462554284794422 15.749086192185867 0 0 0
759 69 2 -0.3889835 20.274166489156638 14.410943008925884 15.667454123035256 0 0 0
760 69 1 0.1266165 20.54134479852712 14.923253375660858 14.309205248683162 0 0 0
764 69 5 0.0582835 21.279011330686526 15.745836801114278 14.437064515898888 0 0 0
765 69 5 0.0582835 20.987180039955465 14.149362741607847 13.677018777994526 0 0 0
766 69 5 0.0582835 19.570250966229647 15.27501242502074 13.862043503498466 0 0 0
758 69 4 -0.5800835 18.5836513038334 13.03155869393505 14.834549318893187 0 0 0
500 47 5 0.0582835 5.562477222314488 22.840515078581156 14.132665698599869 0 -1 0
914 82 4 -0.5800835 1.5505950765424683 15.370377139629316 15.23306629366123 0 0 0
912 82 2 -0.3889835 2.388459977122116 15.895801631474724 13.15054892293434 0 0 0
911 82 1 0.1266165 1.3512337584931788 16.79822453034511 13.108969518051884 0 0 0
919 82 5 0.0582835 0.3865578241633624 16.350302393947842 13.088739001779308 0 0 0
918 82 5 0.0582835 1.4543160765349668 17.50043405222739 12.206455477097345 0 0 0
917 82 5 0.0582835 1.4231283698593764 17.490039241581506 14.005960300875433 0 0 0
501 47 5 0.0582835 6.361647500697291 21.316362891049167 13.706596073127866 0 -1 0
278 28 5 0.0798 5.825932048402905 16.79827517662141 13.98463796006412 0 0 0
280 28 5 0.0798 4.460312372814499 18.633226820528215 13.634890010466533 0 0 0
279 28 5 0.0798 4.4717494329935965 18.19539869870985 11.883630957373121 0 0 0
272 28 1 0.0955 5.102651593448795 18.25949970176479 12.775194518926323 0 0 0
271 28 1 0.0955 5.795483279443595 16.94976584829645 12.931533425845444 0 0 0
277 28 5 0.0798 5.295173532582198 16.07026967343124 12.466920100421634 0 0 0
502 47 5 0.0582835 5.059366816456201 21.346556767671487 14.886702988688254 0 -1 0
496 47 1 0.1266165 5.938183262437563 21.856213382075275 14.532402415028782 0 -1 0
902 81 4 -0.5800835 3.4051108224442155 22.412260427044437 12.753581966707724 1 -1 0
901 81 3 0.7551165 2.794165186021101 21.57107815090916 12.14941433220874 1 -1 0
900 81 2 -0.3889835 1.5677684395236706 21.165469123953244 12.532675264873347 1 -1 0
899 81 1 0.1266165 0.9910127688456705 21.812875424529622 13.724299108489781 1 -1 0
905 81 5 0.0582835 0.6593012045061373 22.81561420999975 13.445918609239545 1 -1 0
906 81 5 0.0582835 0.172619914522869 21.178407931257695 14.038290247364555 1 -1 0
667 61 5 0.0582835 23.171196915803947 18.645006429126894 16.290934680058168 -1 0 0
907 81 5 0.0582835 1.7320153624819394 21.908328926046558 14.541617744462824 1 -1 0
475 45 5 0.0582835 3.2560058468483715 23.262086334296754 16.442661433816543 0 -1 0
174 18 3 0.8478 13.620801151221166 23.285883104166388 12.872935881842665 0 0 0
273 28 2 -0.4048 6.1723952883855935 19.12351281489341 12.41073219337401 0 0 0
276 28 2 -0.4048 7.22284565999742 17.152896490391377 12.640635726008552 0 0 0
175 18 4 -0.5484 13.648119857055848 22.09411317539803 12.60488073532697 0 0 0
274 28 3 0.8478 7.342825798148479 18.449219692739412 12.357448451969804 0 0 0
1019 96 3 0.66 10.913217164428179 17.033636328382634 13.49397681220502 0 0 0
1020 96 4 -0.58 11.261717838327838 17.88748758535821 12.681056198829365 0 0 0
275 28 4 -0.5484 8.387566956809042 18.995910983003448 12.051631842622092 0 0 0
1018 96 2 -0.58 9.790488991955318 17.239175552713945 14.26863995755866 0 0 0
611 57 1 0.1266165 9.101586364637873 23.370628974509494 13.342737302770844 0 0 0
612 57 2 -0.3889835 9.787677525521874 22.86007106537324 14.459667821506565 0 0 0
613 57 3 0.7551165 10.48097484854451 21.718769878807173 14.317372981834444 0 0 0
614 57 4 -0.5800835 10.502382962938446 21.139274265244403 13.215703905250654 0 0 0
617 57 5 0.0582835 8.481813975670047 22.542192434327447 12.98655455426606 0 0 0
619 57 5 0.0582835 9.797474463590955 23.469128852834622 12.4913294302611 0 0 0
1000 94 6 1 10.248512016716168 19.467914152014067 12.016049509466724 0 0 0
342 34 5 0.0582835 13.326889438925093 18.967717073400635 12.015669553361267 0 0 0
1017 96 7 1 9.571069606530232 16.09697207404019 15.189860969116465 0 0 0
343 34 5 0.0582835 15.037676969994168 18.452576229884116 11.86667377483739 0 0 0
620 57 5 0.0582835 12.577148292534746 20.102670960924556 14.605785704989787 0 0 0
834 75 5 0.0582835 17.22863180910896 15.671254881909794 15.573427576511378 0 0 0
833 75 5 0.0582835 15.692607125261548 16.429042886803302 16.219550879987697 0 0 0
615 57 2 -0.3889835 11.087244018723007 21.32000261124645 15.443469258617194 0 0 0
622 57 5 0.0582835 11.173887223254836 19.308551430133036 15.045157541915135 0 0 0
884 79 5 0.0582835 20.13844818334222 23.336851452528443 15.429626248784944 0 -1 0
879 79 2 -0.3889835 21.892843532716793 23.455208034080222 14.383732700723185 0 -1 0
665 61 5 0.0582835 22.894074073241 17.430052295435793 14.937961128980074 -1 0 0
659 61 1 0.1266165 22.50604972664753 18.291949917679872 15.467807381935932 -1 0 0
666 61 5 0.0582835 22.500587084999523 19.00847203321093 14.598008807743563 -1 0 0
521 49 5 0.0582835 18.315454054780034 19.006648632143936 13.213312771810923 0 0 0
516 49 2 -0.3889835 20.439922674713706 19.34735357627828 12.701025682077425 0 0 0
517 49 3 0.7551165 20.57152440982139 18.51889481649156 11.65778885369153 0 0 0
522 49 5 0.0582835 19.070353621100814 20.57190697892912 13.86995199446403 0 0 0
515 49 1 0.1266165 19.010763637043826 19.83986366335899 13.007998709564587 0 0 0
523 49 5 0.0582835 18.566011405124176 20.258030435375744 12.105896958319788 0 0 0
827 75 1 0.1266165 16.768442012246755 16.546779610616312 16.024216899487733 0 0 0
828 75 2 -0.3889835 16.978302860858193 17.698700508487114 15.162239456896518 0 0 0
838 75 5 0.0582835 15.055205509585702 21.133695529198626 15.160659004086266 0 0 0
836 75 5 0.0582835 16.48740586264259 21.4660853097066 15.942519490767584 0 0 0
831 75 2 -0.3889835 16.66477028321337 19.901746314825033 14.63702632348827 0 0 0
837 75 5 0.0582835 16.332963969797262 21.870084929256237 14.132627887521592 0 0 0
832 75 1 0.1266165 16.065359879379248 21.14595859764063 14.987402679424468 0 0 0
835 75 5 0.0582835 17.23094231159287 16.725946481760978 17.003603371345754 0 0 0
829 75 3 0.7551165 16.40239995817693 18.899684327833036 15.529428236769077 0 0 0
885 79 5 0.0582835 21.47324252929482 22.420299028153018 16.195227672193806 0 -1 0
880 79 1 0.1266165 21.22669432278856 23.35281696509729 15.648958087198045 0 -1 0
798 72 5 0.0582835 1.2303353368962695 23.15521718092503 17.87706304530728 1 0 -1
546 51 5 0.0582835 21.92868428450204 22.981614824384096 19.863869095620437 0 -1 0
547 51 5 0.0582835 20.257224628048903 22.93991515107384 20.63179415252256 0 -1 0
539 51 1 0.1266165 20.785101800800813 22.87684971565683 19.680057073116462 0 -1 0
542 51 4 -0.5800835 18.310214963559996 22.905510080779045 18.484119945515033 0 -1 0
545 51 5 0.0582835 20.655915284659482 21.914339696585664 19.22863419033583 0 -1 0
920 82 5 0.0582835 2.538249359923267 12.930936218820694 15.913834096748126 0 0 0
916 82 1 0.1266165 3.4545587640756605 13.534750946826687 15.726381835645501 0 0 0
921 82 5 0.0582835 4.330326402559647 12.906693799453272 15.768625735674089 0 0 0
922 82 5 0.0582835 3.4394283866813633 14.22644788422778 16.526278304878993 0 0 0
295 30 4 -0.5484 1.6869892238562525 14.673134464262422 18.59407865628302 0 0 0
294 30 3 0.8478 2.6052590518491865 14.381877008398305 19.360291732568772 0 0 0
293 30 2 -0.4048 3.845450323506282 14.025263313157199 18.958095708330113 0 0 0
300 30 5 0.0798 4.85201621109947 12.682982074506594 20.08656291323738 0 0 0
292 30 1 0.0955 4.665492439589699 13.748578089594796 20.09372723910634 0 0 0
298 30 5 0.0798 3.7295932201050737 13.21346401516202 21.987669312193987 0 0 0
291 30 1 0.0955 3.7303581493540268 14.038535656314972 21.27644143195706 0 0 0
299 30 5 0.0798 5.68773929425146 14.293230975477252 20.24755736143247 0 0 0
770 70 4 -0.5800835 8.28127799683659 13.299519118195112 21.475857981141782 0 0 -1
414 40 5 0.0582835 1.1379572107832507 11.756648427604377 22.542288180783178 0 0 0
296 30 2 -0.4048 2.481882049206008 14.407131093949868 20.71179189131348 0 0 0
773 70 5 0.0582835 10.113214318739564 11.754128370862512 20.330590756776772 0 0 -1
769 70 3 0.7551165 8.141393280356668 12.213467762642237 22.046387212363534 0 0 -1
1025 96 4 -0.58 6.37831329085597 15.199946100889585 16.249471443106554 0 0 0
998 92 6 1 0.4635290554076067 15.73546787254455 17.023375039702806 0 0 0
170 17 5 0.0798 10.038463825982223 12.230299563226554 15.65856611939445 0 0 0
449 43 5 0.0582835 12.780097667400305 13.959358489315626 15.906875596296345 0 0 0
169 17 5 0.0798 11.452438915443174 11.99958379923492 16.690422332605575 0 0 0
445 43 3 0.7551165 14.51377123608517 12.5468965736637 17.70888981601734 0 0 0
447 43 2 -0.3889835 15.28297271099795 12.434598040227177 18.879652885304804 0 0 0
444 43 2 -0.3889835 14.603624703924964 13.711587183789783 17.004494368795275 0 0 0
30 3 5 0.0798 11.537158083346567 13.997115281643358 19.714588054197545 0 0 0
29 3 5 0.0798 13.138894095348089 14.69740904791162 19.87043200832747 0 0 0
446 43 4 -0.5800835 13.770627459345594 11.608926355801877 17.333550262098868 0 0 0
27 3 5 0.0798 12.211802616418863 16.44773063625921 21.069071015637352 0 0 0
443 43 1 0.1266165 13.837544670598064 13.859920335754678 15.810192972846572 0 0 0
451 43 5 0.0582835 14.050012948324744 13.064584260551467 15.102233043195621 0 0 0
510 48 5 0.0582835 14.03223558730139 12.663135506355868 23.240753482978377 0 0 0
450 43 5 0.0582835 14.208099228823983 14.806938363310323 15.358057014069777 0 0 0
28 3 5 0.0798 10.582084437400223 16.06715168253008 20.582342984885077 0 0 0
21 3 1 0.0955 11.646208256438506 16.183115372430258 20.206952994949773 0 0 0
22 3 1 0.0955 12.12098604139139 14.910223641920625 19.507233690164785 0 0 0
862 77 5 0.0582835 20.516171752452824 12.13071506345439 21.665348522854366 -1 0 0
756 69 2 -0.3889835 19.081680790310685 13.032017812955106 17.00952041541763 0 0 0
755 69 1 0.1266165 18.04843238497978 12.06801399624623 17.166203999936755 0 0 0
762 69 5 0.0582835 17.9797982538047 11.792474971649481 18.248262388771266 0 0 0
265 27 4 -0.5484 23.323668800244466 13.999206653198055 16.846456300899106 -1 0 0
763 69 5 0.0582835 17.089399510805787 12.553458718579455 16.962831838582098 0 0 0
263 27 2 -0.4048 22.810667282616592 12.227119102925801 15.602650890080193 -1 0 0
266 27 2 -0.4048 22.746423258821917 11.99340028711656 17.79960610188893 -1 0 0
264 27 3 0.8478 22.988454952490514 12.836331365163922 16.763634804860153 -1 0 0
873 78 5 0.0582835 -0.12836843045796642 14.902359966718654 20.27382009476759 1 0 -1
867 78 2 -0.3889835 21.932768973523125 15.163766682946397 21.488980757791467 0 0 -1
872 78 5 0.0582835 -0.08085825440266192 13.973370746987658 21.881463761105675 1 0 -1
868 78 1 0.1266165 23.340585347558164 14.868858707423426 21.353523140032323 0 0 -1
669 61 5 0.0582835 20.152161726922557 14.875439138294343 18.428695166269534 -1 0 0
874 78 5 0.0582835 0.11972620511985882 15.717762751936476 21.88752554578013 1 0 -1
125 13 4 -0.5484 16.349865196581728 15.073246520622924 21.40364650603393 0 0 -1
240 24 5 0.0798 4.154817888231369 19.943014748254164 22.69607688827826 0 -1 0
495 47 2 -0.3889835 6.884572731069288 22.169277987216468 15.56734058651878 0 -1 0
494 47 4 -0.5800835 7.1762805371792915 19.974456542948317 15.78548313107169 0 -1 0
150 15 5 0.0798 5.779068890142048 17.756172179087407 16.786911980054413 0 0 0
149 15 5 0.0798 5.292227308503016 19.5055792589036 17.42714081308651 0 0 0
791 72 1 0.1266165 1.1077374714307173 22.067826312047394 17.92998809761597 1 0 -1
143 15 2 -0.4048 3.656218177389823 18.228185261411696 16.7384598497547 0 0 0
239 24 5 0.0798 3.6322242477847357 21.660195254535545 22.884527998779948 0 -1 0
238 24 5 0.0798 2.577447372688883 19.836522550686702 21.159791014780428 0 -1 0
237 24 5 0.0798 2.1153821322723645 21.524019094225487 21.16489321565251 0 -1 0
231 24 1 0.0955 2.975050732727851 20.80159598001923 21.12299423259061 0 -1 0
236 24 2 -0.4048 3.671166570771501 21.119679108294903 19.931220737105246 0 -1 0
148 15 5 0.0798 5.5229972135994485 16.920800063997888 18.78929609805743 0 0 0
141 15 1 0.0955 4.8281368889597 17.777968311284468 18.679914594685652 0 0 0
146 15 2 -0.4048 3.516326012626416 17.33726106133468 18.837363094525774 0 0 0
142 15 1 0.0955 4.958437309623613 18.393439820209615 17.321554436758245 0 0 0
144 15 3 0.8478 2.8597376524969325 17.58487909724945 17.700579783888838 0 0 0
145 15 4 -0.5484 1.6615797419600336 17.29631934230632 17.54025072785247 0 0 0
147 15 5 0.0798 5.082741026828331 18.444944810963428 19.481611424039073 0 0 0
232 24 1 0.0955 3.9839250506135437 20.90045520065732 22.192137961172588 0 -1 0
233 24 2 -0.4048 5.220284272898476 21.29687489933032 21.486926277891406 0 -1 0
234 24 3 0.8478 4.982987709497611 21.41041894182296 20.16887339939453 0 -1 0
235 24 4 -0.5484 5.802532491587674 21.737223226518175 19.306316202961078 0 -1 0
326 33 4 -0.5800835 6.460252026054311 16.607052721963065 22.57739039066727 0 0 0
297 30 5 0.0798 4.058761520518362 14.847786001663202 21.866959969104034 0 0 0
325 33 3 0.7551165 7.040020273163516 17.56992042892975 23.05302802149493 0 0 0
1024 96 3 0.66 7.536817484562132 15.692053924724869 16.16332877275308 0 0 0
329 33 5 0.0582835 7.335983847943785 17.661813170829454 20.363744820150988 0 0 0
323 33 1 0.1266165 8.23400010346604 17.597558317053817 20.974313816532693 0 0 0
331 33 5 0.0582835 8.521423688303647 16.52456759838755 21.02298508464833 0 0 0
799 72 5 0.0582835 2.118487342036618 21.802795775324995 18.172473651065037 1 0 -1
800 72 5 0.0582835 0.046332965995771636 18.080771477014686 20.833781404997996 1 0 -1
794 72 4 -0.5800835 0.6537121312835695 19.55600720285514 18.69953830484426 1 0 -1
706 64 5 0.0582835 10.56999785101068 20.03509020095617 21.887353276493165 0 -1 0
699 64 2 -0.3889835 12.693735476686795 20.294279915033712 21.756700875431235 0 -1 0
493 47 3 0.7551165 7.457950959420519 21.12723106894388 16.141627251127833 0 -1 0
492 47 2 -0.3889835 8.374477315089464 21.49081972157358 17.10334907618676 0 -1 0
499 47 5 0.0582835 8.385784171460397 19.69855501250165 18.26314716441702 0 -1 0
324 33 2 -0.3889835 8.011173243186947 18.188845973611507 22.321110294001652 0 0 0
330 33 5 0.0582835 9.057044994533465 18.149946828183474 20.538243962271103 0 0 0
704 64 5 0.0582835 11.177998355720444 21.480187597653362 20.85276174418755 0 -1 0
700 64 1 0.1266165 11.354182361897223 20.41291736708142 21.147513605524715 0 -1 0
705 64 5 0.0582835 11.3361727591326 19.83954921431831 20.201140834024077 0 -1 0
497 47 5 0.0582835 9.68432462636705 19.83988140522971 17.01507252232451 0 -1 0
1023 96 4 -0.58 7.983404381555463 16.99826463685438 18.17580492039373 0 0 0
491 47 1 0.1266165 9.096238517671507 20.367185713114317 17.77206822453837 0 -1 0
498 47 5 0.0582835 9.773790672949279 20.758144840605517 18.453031358555045 0 -1 0
616 57 1 0.1266165 11.825561752233492 20.10242957412943 15.361722556194158 0 0 0
96 10 2 -0.4048 8.384613859526192 22.95537207462403 21.176085180088215 0 0 -1
25 3 4 -0.5484 12.149956745091751 17.13828790970713 16.9825784511691 0 0 0
621 57 5 0.0582835 12.335234756927932 19.823773266479968 16.279531380977946 0 0 0
1021 96 2 -0.58 9.49826890756857 16.77969647050037 16.49502161204442 0 0 0
1022 96 3 0.66 8.3220184305201 16.555816291230578 17.085188968911044 0 0 0
26 3 2 -0.4048 11.644909727736763 17.11252702094128 19.225888794004188 0 0 0
23 3 2 -0.4048 12.348412720040303 15.225293295748816 18.200279135692142 0 0 0
24 3 3 0.8478 12.073744847474803 16.521106812199392 18.0160803743743 0 0 0
553 52 3 0.7551165 13.434350607056123 23.40138708589928 18.517385531797416 0 0 0
555 52 2 -0.3889835 12.193784837902793 23.11710601717178 17.97908119098735 0 0 0
552 52 2 -0.3889835 14.038734540644574 22.429600271482492 19.2894300205088 0 0 0
130 13 5 0.0798 13.598164366187902 18.184861686707542 20.461856091685487 0 0 -1
122 13 1 0.0955 14.633071998240501 17.887335487157195 20.55690603874092 0 0 -1
128 13 5 0.0798 14.475184559956606 17.149641935637334 18.54975282257506 0 0 -1
121 13 1 0.0955 15.220920852979761 17.528848320509404 19.25380851116685 0 0 -1
660 61 2 -0.3889835 21.17152724141222 17.97089050380714 15.86691411719422 -1 0 0
830 75 4 -0.5800835 15.713735322813966 19.016285530694027 16.566351189871 0 0 0
792 72 2 -0.3889835 0.20496355858022464 21.66998917934881 19.089444893946283 1 0 -1
795 72 2 -0.3889835 23.007923403320444 20.0274819001824 20.377851913599144 0 0 -1
801 72 5 0.0582835 22.250696022837833 18.56583060129914 21.654540795436112 0 0 -1
551 52 1 0.1266165 15.369924207915172 22.71497538433821 19.86008256544832 0 0 0
129 13 5 0.0798 15.231447467039448 18.78396002763931 20.890429098521206 0 0 -1
127 13 5 0.0798 15.612938456156733 18.38160349696934 18.72343846852384 0 0 -1
559 52 5 0.0582835 16.024508155018683 23.11695970335662 19.037536562578754 0 0 0
558 52 5 0.0582835 15.782327356356788 21.86668690846578 20.304271936933503 0 0 0
668 61 5 0.0582835 18.594377768432828 15.541865200463254 18.701509763743477 -1 0 0
664 61 1 0.1266165 19.653714357909095 15.830695115164405 18.52191965135198 -1 0 0
670 61 5 0.0582835 19.891189549913676 16.36031774727698 19.455054585450725 -1 0 0
663 61 2 -0.3889835 19.814759156937416 16.7985769339398 17.35066299234103 -1 0 0
648 60 2 -0.3889835 18.054088769101494 18.042596093326438 22.014559634604172 0 0 -1
797 72 5 0.0582835 0.7230361957211545 21.635332216546693 17.028359823368124 1 0 -1
796 72 1 0.1266165 22.83057813959304 18.625072809678542 20.68407147328382 0 0 -1
793 72 3 0.7551165 0.06009334180100734 20.378013117140867 19.385515072222496 1 0 -1
802 72 5 0.0582835 22.22796956692166 18.15781748346999 19.921066550023877 0 0 -1
123 13 2 -0.4048 15.044864182436276 16.913629281416675 21.481960807491184 0 0 -1
661 61 3 0.7551165 21.07342778612379 17.07787927779868 16.95617674763489 -1 0 0
656 60 5 0.0582835 19.783751316313253 19.573101841885993 18.786402266673644 0 0 -1
662 61 4 -0.5800835 22.07224184195233 16.619821928706628 17.527153545308003 -1 0 0
658 60 5 0.0582835 18.161268401661175 20.261383996609965 18.778160806431675 0 0 -1
649 60 3 0.7551165 18.54505083551037 18.90727310820548 21.069610579222807 0 0 -1
632 58 5 0.0582835 20.803536236878806 21.419657692173587 23.00498487275054 -1 0 -1
651 60 2 -0.3889835 18.24442645588422 18.46625970289861 19.755784824954254 0 0 -1
652 60 1 0.1266165 18.724471303755344 19.344741665679578 18.697664056272746 0 0 -1
657 60 5 0.0582835 18.517453212621902 18.82717170584843 17.733387423272774 0 0 -1
650 60 4 -0.5800835 19.154457391425023 19.923912061695688 21.400861152365106 0 0 -1
126 13 2 -0.4048 15.976011907310369 16.39362488810253 19.54635831895831 0 0 -1
124 13 3 0.8478 15.828395191816913 16.054488452786465 20.836605123094902 0 0 -1

Velocities

33 0.0022898904008165043 -0.006993454309701051 0.0015869632045394818
457 -0.003507345919590219 0.005670799837899581 -0.0035252066251614616
458 -0.008389366087129865 -0.0037439496838431686 -0.0008554806663942426
392 -0.024818533606673125 0.007033226403304422 -0.020921512791061487
387 0.003923158564871587 0.0032869949514199442 0.006709302109975512
388 -0.00015597019237681273 -0.004953480334214497 0.0012801617547152123
385 0.0045181096010333014 0.012641168509715365 -0.001104931405336265
456 0.0032460686124665835 -0.0014303713146627253 0.005612368459642569
455 0.003910211893322689 0.002755473335148585 -0.0018855482123060904
462 0.005369157816875498 -0.014300726531946953 -0.004851770514183848
384 -0.00043982248069685085 -0.002796928991455769 0.00027518913255005916
394 0.02135844491898869 0.018427983092611074 -0.021566156023582625
386 0.004004600361468388 -0.0009411786323926124 0.003367511701215257
383 0.011082872470293834 0.0036786062653911145 0.004665734908637076
53 -0.0011967401674749503 0.002673974783968426 -0.0014743919152581208
461 0.005512051959072043 -0.019089683985517934 -0.006003168904718503
730 0.0035965691348605537 0.0019287051186321787 0.012148091679920349
390 0.005871025056650569 -0.0005916854690948889 0.030256745707406423
389 -0.011435482694664689 0.010238986167954506 -0.018332192887146482
60 -0.022245824872606214 -0.0054452476833224475 -0.01281383471465314
52 0.002879624463736821 -0.005714855241935087 -0.0028424046755740695
59 0.00038713606356634365 -0.0014281012958769904 -0.026107395548769313
54 -0.0011278181711015865 -0.0009346190912618213 0.0031421577552543448
724 -0.0006649803473502305 -0.0014382628594289358 -0.0029165584838893766
729 0.007346516666235439 0.005826697510405288 0.014769006909771216
722 0.0073187220533279 0.0030103274141694463 0.0027446619524038054
40 0.008201890560366212 0.036360999948299624 -0.0008100351672631212
51 -0.008667629932225423 -0.006338636127433029 0.0031280166355460086
56 -0.0017763783561374955 0.0008041971281080263 0.0047801722964414236
32 0.005091960916928673 0.0006197489790973509 0.00013163930645225877
58 0.019865808294881843 -0.004119717343843279 -0.004135372705169126
57 0.013704216706956008 -0.01660640837665285 0.006479684655214603
459 0.005797985812137348 0.002110512238673605 0.003191720971469997
391 0.002522421789515684 0.014853193297641357 -0.03404839139048583
723 0.0014690356632509397 -0.00012573067647846946 0.00649071903742971
34 0.0008694787917666742 -0.0028941271324652864 0.002750221537769057
728 0.002623693975699696 -0.011868511751648958 -0.003479878798941684
721 0.007060098940848288 -0.003134140434694507 0.001462918072182028
738 -0.020603695465658895 -0.013588209180787734 0.005940603354044462
460 -0.0032792040059476924 -0.005567446233970427 0.002475318121094536
466 -0.020100966845280392 -0.013104897156161324 0.05085820601451343
942 0.010428612165699678 0.01203413911388041 -0.023197569895259975
936 -0.0015388472637654742 0.0034506750482094332 0.0019030869063254698
937 0.006387152265606097 -0.004395115349680117 -0.003981079404090972
938 0.0021245057091543716 0.004172133650219545 -0.004873899637681064
935 8.469126969208257e-05 0.0008432566548319766 0.004854603947517891
61 -0.003460735744319518 -0.0011190027580515345 -0.002480252895978204
64 -4.245224446019817e-05 0.0015488516544294164 -0.0011183242447320536
66 0.009476313644461661 -0.0015178715934075105 0.0002587432735006617
67 0.021435575811558572 0.01585073211074922 0.015094202895673757
68 0.023299750205421924 -0.004240965004293401 -0.023824666616405192
602 -0.007489377902802109 -0.0012481065216103733 0.0004182677891405146
605 0.0056481706742319724 0.009876264053623334 -0.01047455747806294
943 0.021574427108692448 -0.020447729976017705 0.0025422120269914202
941 -0.0034858446377586793 0.0011763876188347015 -0.018815371412029786
399 0.006085500082332832 -0.0037210483215347106 0.0054878519773654206
400 0.009179025075139645 -0.002963252554838379 0.0008250817628607761
404 -0.03484524722415123 -0.006121677576384361 -0.010114488409081064
405 0.008046948407686869 -0.003984155144220859 -0.006261604033887721
601 -0.0009350123670725711 0.003465363169240492 0.005894629190937506
63 0.004882898702741713 -0.0014576107308913067 0.0001370481416626637
607 -0.01579384163030805 0.011039961522665467 0.0007252460869574141
599 0.001498065140549381 0.012734437820402126 0.011266262372253838
606 0.006090524153046286 0.01859684056990964 0.009897732768324874
600 -0.0007335106943766387 -0.0024629343770539045 0.006182962069071413
406 0.016990398009732528 0.00853653800289304 0.019799913945756316
397 -0.0014500547843138234 -0.009265532347007006 0.0008510467634190522
319 -0.006934238608900899 0.017581262355047846 0.0335772263188434
311 0.0015464153907478089 0.007335630242807568 -0.0009232002063135426
630 0.002384432119795347 -0.0008154605626581555 0.014272375859163522
318 -0.003693375154263456 -5.210251709047283e-05 -0.0215209952469631
39 0.018818810669054283 0.004404063154052431 -0.022179766656355456
317 -0.03217575707998048 0.0047480404624342465 -0.012950695368790724
623 0.0035132913698852036 -0.001129114137557221 -0.004807352662953049
629 0.0023200412912515694 -0.00020495517284672233 -0.004852639854007493
581 -0.021170602592545048 -0.019511768411355546 -0.003465329480991058
965 0.01906273073100653 -0.025978175206811102 -0.0010312014389743836
576 0.0038227230888709628 -0.00339349333348363 -0.00018689312079454856
582 -0.028577582287302946 -0.016184712858386532 0.015774086503057536
963 -0.0011672323200157054 -0.0029226120244317953 0.005979152724721005
964 -0.006011472360936507 0.005693299428119991 0.0025836553731074683
967 0.010280418906017712 0.010461766332915316 -0.009337880532106666
959 0.003014084646494805 -0.005550225016752976 4.088287666877897e-05
962 0.0034280165628580747 0.006592417605116895 0.0036263353874610416
960 -0.001620884009120756 -0.0022889818241730144 0.004723198944725746
846 -0.0058283247841974676 0.0035395531656411653 -0.014170104275845847
961 -0.00015086970612723132 0.005064061850780482 -0.004087404221285083
968 -0.017157509688306097 0.015316874976061903 0.00563833295841691
966 0.01110619948415485 0.025852602280348667 0.00897426097755753
839 -0.0005156349798608163 0.003363521692980242 0.00941301095977851
847 0.010209767771379726 -0.0013908829933060045 0.013077350715190849
845 -0.035780019075798364 0.0057106340615767585 0.007362868951854844
575 -0.000970479473583154 -0.005496356938335298 -0.0051630936645088495
583 0.007335978892101701 -0.011950803803230268 -0.004059174013816369
598 -0.0052895727724220935 0.00849393253233586 0.011603860997992281
596 -0.0056998301817137685 0.001976353887699261 -0.0024832924628807366
1046 -0.00243321432445255 0.0020930096638829693 0.001160539844468568
624 -4.841352611482824e-05 0.0024497846254369613 0.006667464496100577
578 -0.005103040574969994 -0.0027171983778548525 0.0031475530996079998
586 -0.0032597239594159885 0.03158585515902022 0.0006482624118309051
577 -0.00016829484950574836 -0.0010215415854143014 -0.00398239671118811
579 -0.0012090137855251706 -0.002337287898002227 0.006887503991121289
580 -0.0020665923774636336 -0.0010999416153673598 -0.0007156550082008752
584 0.039594676474977546 -0.004331191501224564 0.0036922202082170777
585 -0.013626010429487629 0.004365109179651483 0.002373076328940309
631 -0.030476079767251803 -0.028758361472122754 -0.008338538096993964
138 -0.009004643949337508 -0.011774029394452235 0.006650147299251608
137 0.0005039283693407208 0.01124006680539342 0.013939046623282091
463 0.022895997285829178 0.018633880780935492 -0.005604284613753517
281 0.00754998747747929 0.00432971461537473 -0.0011768034532424756
282 0.0018061605292006566 -0.00340934299783864 -0.0009840472561005434
287 -0.007094369625131799 0.01583641438990666 -0.017146607719321992
288 -0.016881033199492506 -0.003610020576588601 0.025579422453691148
289 -0.006931606528564981 -0.011297458273325255 -0.0029038694158554598
290 0.003338020920443267 0.035291011827974374 -0.02219620559695226
283 0.009095065940199511 0.0006241669381449059 -0.00759037096917845
284 0.006396511014247296 0.008083958476632715 -0.002735169075880014
286 0.005060070274203279 -0.0050778036405112045 -0.008119908442275782
442 -0.0028228595928920697 -0.004281795459566508 0.02799096832835644
285 0.004597285576660075 -0.001723734143865721 -0.003143340959845861
734 -0.0032406615186396787 0.004713415548381946 0.0037541662172152703
733 -0.007190284718896203 -0.0012672514396212557 0.007151591194656812
735 0.000687782772835509 -0.004367145627325219 -0.0011955711258398788
433 -0.005585298104329411 0.01016539336882658 -0.0010132171485128885
434 -0.0050911448513453784 0.0033082804572066673 -0.00013776071864803118
437 0.020863715913902545 -0.03418274181852852 0.024681897519974558
432 -0.003674303200790395 0.0010136963900595137 -0.005511378665207574
732 -0.0038550344437288595 -0.00743387221394314 -7.27583350015753e-05
315 -0.0015591939375329488 -0.0037104194717140796 -0.005973951846562667
320 0.0025829097586219803 0.03247255868153074 -0.01796475866046
939 0.002759124804952602 0.002714881057724369 -0.0030215318558568347
69 0.0014030350609355014 -0.021445795396187708 0.019340664932135192
944 0.0015324072571424635 -0.01863583882420058 0.0043115408220943926
995 -0.011855455479202808 -0.005720935979812587 -0.00661420392503754
431 -0.000472531810352418 -0.003282177750442564 0.00019061902519617596
438 0.026963005509442882 -0.000256810639027142 0.006178395624198169
439 -0.017690897816317136 -0.021095310242269762 -0.007156873144235065
62 0.002641242158762751 -0.003755653814461874 0.007927840417066396
940 0.01221144502313611 0.00467018980158771 0.0026600129352310656
946 0.017650615444142197 0.016631162081300558 0.006997839755581941
945 0.017235497639545735 0.02102386274598059 -0.020691883109338817
70 0.012440776170033706 0.023243595273853657 -0.02449052915289219
15 -0.00900204930172054 -0.00379787586560524 -0.001810850548188543
11 0.00440117500440147 -0.003964065700547542 -0.004070148571411001
13 0.00035917513135395656 -0.004004861729263379 4.9855058692818966e-05
14 -0.00284934165691297 -0.0011237068971025645 0.011417711010279497
16 -0.0022859609292809418 -0.007176033228673195 0.00029814820690069686
17 -0.010610820108015366 -0.010237384284285726 -0.0014496679751112693
18 -0.03828200991112206 -0.0480585542156785 -0.0013938481490576415
1038 -0.0036694704475292916 -0.00216293931709333 0.0018986327035586433
1039 -0.0018018242042363306 -0.0015422596553321388 0.0007444794348162554
610 0.017107494669373113 0.00980245852943143 -0.005835669196347322
1064 -0.005071244243310887 0.005059670655129782 0.0025615532574364236
970 0.0034873718095125477 -0.013370474457541973 -0.012502340680433311
312 -0.006639800443456538 0.001468543650781178 0.0012584577265264967
513 -0.002618732423383999 0.02055989742134735 -0.0004991811421727249
508 -0.005588062312747978 0.006703484517335617 0.00015709345515596651
514 -0.007963067610935626 -0.005385244359950188 -0.023742444946893693
507 0.0005924121708858289 -0.0020431054668320204 -0.0037382734505725366
512 -0.023454387681563837 0.016517014548241747 -0.011737253449283662
969 -0.019945811277261145 0.0065372160689812185 -0.017013805125395274
43 0.00022081388334596822 -0.00024023763089873175 0.002369819809193004
313 0.0010242451285262166 -0.01086749510190938 0.00022246007002438975
314 0.009174218015829063 0.0014597854224899028 0.00047304120027330526
50 0.013304355704219449 0.018276771300547185 0.003479396620320774
42 -0.007272526521627527 0.00034552489633962274 0.004138650096534583
49 0.021691012302383073 0.005594787708875873 0.017941676622701526
48 0.022603057344717407 0.0075214962234822665 0.009748282151468933
41 0.0024677673488090477 -0.005155855786754822 -0.0035520312700817506
505 -0.009100323373902288 0.006177141831328816 -0.002410750053680795
47 0.019729785456537845 -0.014736701461974665 -0.008378484693558825
46 0.009098205760832234 -0.0034175548747410497 0.0016933723801754491
35 0.004032482252227498 0.0023484402098199867 0.009510406254318418
693 -0.005079028506400096 0.0026696918728494412 -0.013396399784928481
594 -0.03029131319600776 -0.0016207313766124442 -0.026681934148741444
688 -0.013070076883049482 -4.855072126141805e-05 -0.004639148755378733
694 0.007064475220654203 0.0045795984362975726 0.003800084353059495
692 7.494483962014054e-05 0.0234338995059882 0.003858432281108567
687 0.00019995464410258072 -0.006825579518777097 -0.0092248883710641
983 -0.0058179200445443195 0.0008039956817491795 0.0010064497049198065
989 -0.024382772145215094 -0.004881037474562154 0.0497088463640319
990 0.03062619277277505 0.016455010782698794 0.0132288632753419
156 0.004937907269869329 0.001351637005893211 -0.0018648382127275272
103 -0.006555803529875467 0.0052919118370417595 0.0012950264868859418
105 -0.001185071492189527 -0.0028812812978892726 -0.0027051692890774294
104 -0.0063869489913983115 0.0030140539215308708 -0.004098511332687419
157 0.013517770095689177 0.0009634756717075149 -0.01230517736287605
151 0.002490985236047995 -0.002145081958330575 0.0018010764133218444
106 -0.0013125358036631895 -0.0019554434300210707 -0.0032825530475761944
685 -0.004081411972497213 0.0008058238812127056 0.002072066897457501
464 -0.004723451177886764 0.017048714331036448 -0.03112366402215567
465 -0.012840643846749634 -0.011776132811818598 0.0019722331702396283
158 -0.013757155679552003 -0.015090285195739404 0.0021314668982727086
396 -0.00215937867637877 -0.00044443075341675455 0.0026598936008461684
395 -0.005427601212795868 -0.0039275089366896014 0.0015712639193423321
398 -0.0017604703768347761 -0.002787351931528045 0.0019359867608115706
401 0.0026466710463943777 0.0012671056200523124 -0.012187757025443191
402 0.0194888801961189 -0.015486881772415972 0.017277765440737086
403 0.015452363233496287 0.009067517039295923 -0.010625772849667923
74 0.0003749911519159785 0.0012654684415422943 0.005077156139968257
75 -0.008085329497680357 0.00040239734124476045 -0.002715596349989478
73 -0.0006340672804540323 0.0007623573341316393 -0.0053536490049012715
843 -0.00881408333905674 0.010324870019637127 0.00250731293752249
825 -0.004292030594597734 0.014954644470045965 -0.006289484518802494
45 0.0013334696803602066 -0.005626368742447581 -0.0026049868621479387
592 0.0018003882929902828 -0.004033713385620483 -0.0035049897639816367
931 0.002063828147759453 -0.026928275523892965 0.002724587105953283
587 0.003269853837232496 0.003173692358929683 -0.0023767427722402243
840 -0.007230833763289278 -0.0020237343688928296 -0.008627228881480601
841 -0.0007812831683210813 -0.0022751526192236176 0.006540206598856782
595 -0.012361498330390823 -0.010213082227496026 -0.0006971210618436865
588 -0.005524615100525245 -0.002490888127235137 0.003471826092781611
882 0.0023846087354919402 0.013846235506082908 -0.0188185942942874
883 -0.003517263120767552 -0.00012221197806093126 -0.011275071064899181
875 -0.011962177473783553 0.004689449910474448 -0.000996917479443433
593 0.013133450988264721 0.012236862042920653 0.0018966381609132024
589 -0.001065013721569865 0.006647714806757117 0.0040047030545479895
590 0.00644506475238773 0.003564035946260844 -0.005643965527105546
842 0.0047489611599105626 -0.00042366954499906215 9.90364798879787e-06
996 0.0035245195977760455 -0.004100056994872287 0.005731826519387362
591 -0.0009498299270704306 0.00034249026695601294 4.6650046964151734e-05
597 -0.016531109075636128 0.008363691161462293 -0.023590357547870075
816 0.0004299220364458038 -0.005946839944728296 -0.008551001309218039
817 -0.005794207510584151 -0.0022152344539427184 -0.001390096681321239
819 -0.0017980057534165335 -0.0023736168656386387 0.0024108185029354896
820 -0.0025109702611245126 0.0005524056603623507 0.011185666294924164
824 0.00168332392002575 -0.021601816078629373 0.017893201189300767
155 -0.007408484722564992 -0.004059934904277822 -0.002513936402560004
686 -0.0013532965823468749 0.00011410887000498712 0.0006073420968330468
689 -0.019578936253662357 -0.0057068938876467775 0.017527794452653536
154 -0.004296887930551972 -0.003440186910640025 -3.358702285566512e-05
684 -0.001047220200288704 0.0023548934470128033 0.000838028335377152
683 -0.00021071390463804724 -0.0036145622265343954 0.0014644401997327477
690 0.028659285257251692 -0.010806988028845546 -0.004410930188236302
691 -0.00602480594951643 0.008848580675047318 0.007858024374252174
159 -0.007194126789920192 -0.015099652085652053 -0.022520766421414484
153 -0.0012906766483149514 0.0014560333257997889 -0.008616848413877852
152 0.004315806142418851 0.003430452783209939 -0.006269056629436392
78 0.003018097299694429 -0.011787299737985969 -0.002687366849152366
930 -0.010226675122357917 0.004481858801313385 -0.023444160759093037
76 -0.003207321221811812 0.0050420019374108425 -0.00705625012548534
80 -0.013678719204943445 -0.003610368451248234 0.0303114899717383
72 0.0011117788327604508 -0.0045444005659342574 0.008279331416412761
77 0.022738169953307005 0.004427162061859615 -0.014021130432270223
79 0.014644903677030257 -0.011624478120232195 0.006507180273909017
71 -0.004890096662615961 0.00046370182860814186 0.0013547587015211016
376 -0.00023228229208715405 0.010195740770444571 -0.00039965657023929147
381 0.015490899901604096 -0.01805296559254779 0.024110957228971573
380 0.017566736534010877 -0.023166653010379203 0.002491482947982019
929 -0.007666993398921437 -0.02945629917834859 -0.003892281483428303
44 -0.006740134381649308 0.0014597112608137348 -0.0014496292828005063
923 0.006854036327004202 0.006563740892589059 -0.0030494868372347075
926 -0.0037947504845846245 0.0008554777206037099 -0.0024229029092008953
924 0.011095877575766553 0.001393929514189641 0.0010701137826357521
925 -0.004513031497392716 0.011221658350876254 -0.00019385824052438336
932 0.0222776709368579 -0.018764709220385593 0.003218220754658725
1066 0.0029367936920348388 0.0033694839415664085 0.0028302194964410095
927 -0.005957469573490269 0.004611602824397864 0.0035511369761404748
641 -0.018282612431389737 0.03042234316794993 0.017798234108575752
642 -0.011276236109618728 -0.014609854995675645 -0.013301173166471423
635 0.0038881567091933905 -0.0035742420315186423 0.006601600059378274
643 0.03061270259392993 0.004902327449411818 0.008270612816706411
248 -0.014024651172755854 -0.006991837476671459 -0.005516232345941333
131 -0.0030559730008711734 0.0017007074823823056 0.003679141632140824
136 0.007743803815595235 0.0008776021634325006 0.003388789358700852
626 0.006177627219426748 -0.0014899199865498394 -0.0002914951218033742
731 3.1629297851052766e-05 -0.004545725077702048 0.004968682822280623
1063 -0.003327445692751007 -0.004947114155778978 0.003665251343277343
504 -0.0022387188007942215 0.0002223121047741771 0.0067609634143243206
393 -0.0014454547381999806 0.034316493121464876 0.013781629374698243
737 0.0053749317064612665 -0.008598592888604845 -0.018935928157407945
93 -0.0041859315390920596 0.0009984064160598002 0.0016223138361203056
861 -0.0036588108485708327 0.004319588101615958 0.005783397611479226
856 -0.005789802423338415 -0.007801651255358026 0.0015413202201377595
984 0.0046210085958466535 0.0025962831476690922 0.001999371631351907
985 -0.002595118728058269 0.004748323996127453 -0.00540998168467661
986 -0.002796092439443345 0.004329357009870748 0.0012845557035662445
987 0.005913997815933538 0.0030111505923362844 -0.0015217272435370452
988 0.005161516522663678 -0.000649024683567737 0.0006427708464207706
992 0.01115269094407264 -0.01167194149830269 -0.0005669793580907036
994 0.017095182628612843 -0.008462665070062672 0.002465488777393107
991 -0.00468659495718525 0.0167558833753571 0.01945886090138269
110 0.0044371176146303 -0.0206531753672848 -0.011083017202087615
108 0.008523803849801549 -0.028194670370508452 -0.024423062363580026
102 -0.005756020189824533 0.008688660999338975 -0.009221268911495523
101 -0.00443109463767887 -0.0015557334266084442 0.0017406147327028514
814 -0.0016098936747683148 0.016718420564987346 -0.011400381972567587
993 -0.015074639686150552 -0.00864081097298969 0.01096489377713264
470 -0.0010664332278888858 -0.0024480378877316782 -0.005845482697192509
473 -0.010649449519615226 -0.000666587539493513 0.008965934663471552
467 -0.0038492020160147624 -0.0021564655100524284 -0.0001823741165773783
474 0.009257958000706433 0.020371082572859852 -0.02025665997358631
107 0.00557892336826138 0.004911151022025819 0.017982959885592273
109 -0.03296781868930264 -0.02024488582637003 0.00794650932171962
225 0.0021788307829398667 0.0008239736510340098 -0.003851229783828165
224 0.004502129087472189 -0.0016442108712829136 0.003816339562723413
226 -0.002920338504937913 -0.0033752895838563388 -0.00019456542012525845
221 -0.00034982114720918765 0.001711420328513007 -0.010719775058195945
180 0.02096620721303482 0.016602370716175242 -0.00518927862485666
172 -0.0002403826183809213 -0.006180520196233258 -0.0018912221694850977
179 0.02025032934413875 0.04497661679734148 -0.04698912378164504
176 -0.0005105510169303778 -0.0005311226756048934 0.0012966764374483858
171 -0.003291133277890407 -0.000572607498829483 -0.0060047194738972
178 0.01702557802127299 -0.004807037527241322 -0.007568024680759766
227 -0.015212684190108967 -0.0141819004446169 0.001040359323329191
849 -0.02087802205247915 0.012837051717607023 -0.00671067076454527
223 -0.0024579262318991106 -0.007142115074711332 0.004913306665767912
222 0.0053811856732792875 -0.0003457735716853277 0.005348612279843345
844 0.003342312122184609 0.00483823711869873 0.0043624364499553715
848 -0.018433079632417523 -0.002464226491856971 -0.00284506683637063
850 0.0009072346289642408 -0.010756482361838364 -0.013684528876469598
881 -0.0021639235572053586 -0.007005622252382898 -0.006849102638411562
878 0.001021090798585207 -0.004585867336427009 0.0015346184666254275
303 -0.0059659200927093805 -0.006403889164881005 -0.0024249481300616348
876 0.001943516127673914 -0.001320046112117606 0.005339276429800133
877 -0.0006612824729382749 0.004848657963399033 9.394335789971176e-05
304 0.0019340971125895218 -0.0007010868467333607 0.0023332253505241947
305 0.008423766334271708 -0.006154385198181995 0.0009627778105531433
306 0.005949255415173021 -0.0015220587267003145 -0.0012103519971228382
309 0.0024847238875947233 0.011455275627158099 0.010802571831924497
301 0.001046127918098641 -0.0008050643319276271 0.00042197884225832796
302 -0.002520651291730746 -0.0038721097644258706 -0.008679561012046795
310 -0.009624397130653639 -0.004117299567444664 -0.02026941765968733
477 0.010064146067168626 0.002306348216379743 -0.005697106579540129
550 0.014942281134707669 -0.021796268576893933 0.0031367852047561938
119 0.01115824689605103 0.0191009847319637 0.011035421082728073
1076 0.009772402426492978 0.00012284084059222797 0.0019150255201439814
1075 0.0020605597124029075 -0.006459258509836768 -0.0044398459257344106
1069 -0.0015109856550791214 0.00427827170227919 -0.003641782552590425
1073 0.008787047281240076 -0.005006767556902562 0.001772253007375939
1074 -0.004617515335737998 -0.004902179396053309 -0.006485717168015218
1078 0.0015526069486854542 0.007284482405338893 -0.004336888066914951
1068 0.0017657434010035532 0.0003041301242496868 0.005541739499921023
160 -0.009763386200839528 -0.0012409569716352574 0.02593935763017365
805 0.004573154567535293 0.0022890327174594515 -0.0021285889176349674
228 0.008421594428819155 0.025365838220470685 0.015596083786670385
806 0.007442290996246301 0.0049164817250809175 0.001968929818016227
230 -0.0021540172018553083 0.023539201532335005 -0.0023401925062199874
229 -0.00136809378295162 0.015771864900508414 0.0028988850192935593
382 0.028556144572346502 0.01774777956611792 0.00360401880154189
375 -0.003047463662826614 -0.005396042617551118 -0.0025969122958897765
307 0.012843631422530258 0.008040253275276564 0.01692757479650152
378 0.00010294030160110718 -0.016138441778150617 0.010536727948145011
372 -0.003966998530055147 -0.0005571335203606445 -0.0033696569135318972
377 0.010142045366488828 0.016260083031959065 0.0004176092659066956
374 -0.002650126980118055 0.002709792371066451 -0.002728386162674609
373 -0.0038212480778061176 0.013795990572597559 0.0030675833602737753
379 0.02210350367030784 0.034203175924363984 0.0022053439467539246
371 -0.0012480474299356246 -0.0010995564157381486 0.0008258377211729747
308 -0.004017021934229047 -0.0006721050182853911 0.012887774007148438
934 -0.0071794664947290275 -0.0059166691676877485 -0.002540881515272242
1067 0.004329942406002094 0.001315445539618571 0.007262178278120658
933 0.008094828181220445 0.0003726348080117043 0.010996587470727228
928 0.0029037580623477895 -0.004778372814594391 0.0043625874313305245
173 0.005352548252928041 0.002419863136428119 0.004558437087583965
618 0.006125040651191453 0.002623429128089225 -0.0013542978856134957
888 -0.00290749506126431 -0.003795888015147669 0.0018772481088722242
5 0.0016907268523115306 -0.0038094016206437244 -3.164702743618388e-05
472 -0.001234591940264475 -0.002325871605675168 -0.008868530022275733
469 0.00826947718315007 0.0013672386140547404 -0.0005939934402453939
468 -0.0009389444306395483 -0.002063933672061135 0.00271771789647764
3 -0.00024240752613457505 0.0015715985848448908 -0.009809727775612715
471 -0.002428190492241672 0.005518846281913339 0.0002274624130786702
890 0.0006797229203803103 -0.0008432269937348235 -0.0004212872934281395
889 0.004843769061247877 0.0061124823775160625 0.000490950837899893
891 -0.004423202867381695 0.0022163949292392086 0.003501421044624943
892 0.002165145994259356 4.3260003253232084e-05 -0.009169640172357605
896 0.021351605252430038 0.012608921967775327 -0.014748510514431832
898 -0.009794900497999328 -0.006937872152371271 -0.009868288798488958
55 0.0035979102023261686 -0.0008995215412761513 0.0012392825596427418
897 0.008074524381146482 -0.002243871957906535 0.021152786005060698
9 0.0013218048776510837 0.04450768716415075 0.009719405328472758
2 0.0016043849527619006 -0.0006601582674572506 -0.0004291379425832618
10 -0.012177396709922888 0.02211694750461418 -0.0010027686500244343
574 -0.020413529720375426 -0.0019047520091147335 -0.003515141179009222
573 -0.019761794066004656 0.016595583206501535 -0.0005958652088587327
568 -0.004080355289448741 -0.0015730326830697425 -0.00015598798563823673
572 0.021075156328211126 0.018454107699635566 -0.011997627092775114
567 -0.0009053074098725887 0.00120341477698892 -0.0012340913493597617
566 0.004775706392943027 0.0007825256646253353 0.0019075724872236713
95 0.0038712580065920696 0.0021249502040789196 0.012063236887759005
565 -0.000916470108225225 -0.006453263342265176 0.0022837486021521558
887 0.0054351833516376085 0.000996312311766664 0.004959863262211098
813 0.024758589728043415 -0.02375248057835558 0.0006109385382721362
999 -0.0021757282542668632 0.008455888896588562 -0.0029682302846266296
4 -0.003288151887002286 0.004929409360312784 0.003082643277041376
1 -0.001997061578302732 -0.0014261269737163003 0.007973102211926769
893 -0.024367185800296495 -0.008924973258750324 0.023192327499698625
812 0.006576215663539992 -0.014407869471989708 0.001103027129340452
8 0.008191056751845083 -0.019442511903250248 0.030933458905915073
6 -0.0017145226700207934 -0.00017875249030539103 0.002532200232492919
7 0.0065404835077927 -0.010329135596629957 0.017575307674320716
808 0.006564075802958877 -0.002082354829924404 -0.005187765737472444
571 0.002941894230669273 0.030145507087517464 -0.002541529018979408
247 0.017948101721177594 0.0008595158000060542 0.010483404129238112
603 0.0029907186217159086 -0.004210198317031321 0.006503757556269728
177 -0.004758707119761609 -0.002045383195166892 -0.0025755708136345193
187 -0.012673418259933325 0.017370704763829424 0.009818836257617739
185 0.0018335156513065315 -0.0009671582643462264 0.0007766619685260822
186 -0.00426451761521658 0.0022161537751330717 -0.002500353260223122
188 0.017567003872403213 -0.002173678486764765 -0.020782173752859078
65 -0.0062988194674269615 -0.005927700541326519 -0.000394358979142191
245 -0.0009307577026714013 0.001285341624839344 -0.005873962396441318
181 0.004859669480873214 0.004695154123877702 -0.002944514989861369
246 0.0025422777070299297 0.005588269833022166 0.0014696248814608302
241 0.00477982031323529 6.703167403594052e-05 0.002716349793931046
242 0.005295974375978405 0.0024307468876392153 0.0012927552819468374
243 0.0007320260518235147 0.00041215916538469346 0.005235906809394386
244 0.0004456033370512964 6.488710173070673e-05 -0.006211209027367924
250 -0.014549230420885515 -0.013851085243198604 -0.008106089062980812
249 0.0010056813876519735 -0.010598688832654529 0.01885203984777026
182 -0.0007787100523936201 0.007817288679732784 -0.004510891474975336
183 -0.00482891318084994 -0.004666253938292243 0.0023985435909358904
184 -0.008017495826384263 -0.00938814136820583 -0.00679534676962534
1053 -0.0025551159037066253 0.0010247431246264247 -0.0040956382026909035
1054 0.004857509538348209 0.0032263939342390127 0.002105079608650019
752 -0.00321374442917387 0.007828943474337652 0.007505651960814698
754 0.0313332846998256 -0.011979996155125454 -0.00774646877986385
1059 0.0019044971921125542 -0.001546275108067253 -0.009334862149864747
1058 -0.0018725246286964167 -0.0010245870375313413 0.001191334946476022
190 -0.007605182561265229 -0.0024657850123921974 0.017090542693697683
189 0.011592738671596577 0.00016166389052294026 -0.001967543366275566
715 0.01852615076081101 0.015444377180322034 0.0009222737581007051
562 -0.003740290174317551 0.010049916590598252 -0.00016432804137591042
714 0.0014300739881934884 0.011296156045425854 -0.0010231042777870743
476 0.02213176623739429 -0.002179138342353938 0.003771040547812081
858 -0.004326152885312838 0.017589118958427276 -0.02009043848887757
608 0.01474575999141706 -0.001397892835806566 -0.031225794746159267
746 0.0036737880039003135 0.003136812062868535 -6.5703250911898e-05
748 0.010791618840215511 -0.001398951191283808 -0.0016807505713608032
753 -0.004360271221538184 0.012455958968224696 0.010470706847315188
745 -0.0076278379920016485 -0.0031583892046291467 -0.003049635650982277
747 0.0026874993874437345 0.0010535043377956784 0.0003842836487461497
751 -0.01852066044551743 -0.005042746088760566 -0.011396170357478558
743 -0.002694595002069893 -1.0144410494123048e-05 0.006303657427098498
750 -0.0038855235027789705 0.021745301611680222 0.0007862279809689885
894 0.02856367537152117 -0.006128121006715764 -0.02432004195953896
478 0.002619676169047408 0.0010732447569964435 -0.0029047738418925126
895 -0.004835024000396643 -0.014211714210311867 0.013148567854168899
549 -0.016233767580955346 0.003670424686657466 -0.013653742581990931
544 0.005541601366281827 0.0006561177654435615 -0.00437142311354895
548 -0.018928671774297613 -0.035539140094621384 0.018266726072608975
117 0.016063384674096765 0.005880165294575112 -0.001202522851374521
111 -0.006691201100617805 -0.003704345869199552 0.0005223861018581023
116 -0.0012500813370569283 -0.0024943765483085886 -0.0025729211992581687
543 0.0075146309009675285 0.00037300734741729476 0.006616233182529706
749 0.008859859478237557 0.017592616627267507 -0.020244118422518602
744 -0.002621846884739612 -0.006214940816953006 -0.0015879367814672094
540 -0.001800215007783884 0.0004229556874991252 0.0037655625948182364
113 -0.0027732275342299355 0.0024107125637741504 0.004910276633837521
120 0.014399588627623534 0.009879101833350014 0.01568753566840438
114 -0.0001100092121307189 -0.004736373476545309 -0.0007744668843560132
132 -0.002323013392525069 -0.009760471491146075 0.002537322136039152
140 0.009798367172571425 -0.0012593727771595517 -0.017909780911658586
133 -0.0035004130128423712 0.002751133059039741 -0.004595425506759209
139 0.012888545533366687 -0.0022294709258069835 -0.012820684203755445
112 0.00795009838136909 -0.000615328236793967 0.0040585732076005064
135 -0.001976735470243226 0.004101681643926391 0.0030068784691012684
134 -0.007108764804508834 0.0028169542540487386 0.007891450343114087
118 0.012221946916221296 0.013136069417403584 -0.005830970435454223
541 0.00303612966162295 0.0031263599956964424 0.001861357618449309
1077 -0.007230267011741278 0.004069549783146479 -0.0006076518824131091
739 0.010025122097426148 -0.005433300734262923 0.017498322243921727
807 -0.005146274728180186 0.0008928105465841866 -0.002319271935513498
408 0.00336553677875537 -0.0008846423695298153 -0.0021708454791536254
409 -0.012257294634966597 -0.0029990885329346894 0.001471980168994572
410 -0.006583116577131559 -0.0017227756835493876 0.0002320162342777016
411 -0.007451981903217072 0.0018336711488900989 -0.0014213260470767608
412 -0.0021010318233528253 0.0003867933976055569 -0.005334160916275271
417 -0.015248176972594816 0.0021104363169786393 -0.0015864799398018043
564 5.222392945459572e-05 -0.0019270466617691926 -0.0002878383086052174
418 -0.008282675595129378 -0.00028047223164319674 0.002883256977019625
416 -0.0009178105924591857 -0.0016998116966965 -0.01069829177173004
804 0.0016347442003415017 -0.0030156464741831358 -0.001813385711927598
563 -0.004330862538411128 -0.0004154689260085215 -0.0016150880871590822
775 0.021759261687290372 0.03007580953387712 0.00451054716519942
570 -0.000824085214967478 0.00831674698738788 0.00025085737703176974
569 0.009599892394109785 0.00024812184163394203 0.0036578514723792665
413 -0.004040744148223187 -0.02566137573551542 -0.0021606698664997795
407 -0.0008554417448898405 -0.0030733663262142814 -0.004965572390634866
768 -0.0004461546007809766 -0.0022129062064993772 -0.004158815185852471
774 0.020679269165593157 -0.020813870962780156 0.0012776040186791315
767 -0.004681830320684611 0.0032906350625376995 0.0005803164386851403
415 0.03151988960303737 -0.011016048017096769 -0.017073232258034324
713 0.012763814206150277 0.00029276975749445666 -0.015633913126981598
604 2.7914971199714655e-05 0.0057462377664825115 -0.004311843947109411
609 -0.02346280468252418 0.006987957637405147 0.012319120418781802
707 0.0006375962661298732 -0.00013529256987717994 0.0030203305035548956
1055 -0.005962173489944988 -0.0011920873288574884 0.006948687943543207
1065 0.006561260026495821 0.0005646816135607774 0.006740146094779154
168 0.011474177781862228 0.01254154669436951 -0.0014439659786443725
161 -6.914658071294765e-05 -0.00040810498123448804 -0.0033316792309867494
162 0.0014944097702526485 -0.00835533479178262 0.006827775233708081
163 0.0018715998604766804 0.002759317240126406 -0.00695260321171163
164 0.0015722182195802709 0.00027569620133886385 -0.008290098341642165
165 0.0074970629788251265 0.0005355775745340219 -0.00021654923307551415
166 -0.0011835888317372025 0.005763938673056593 0.004747686165024056
1056 0.004570284580967874 -0.007532109786849548 0.008375725053509805
1057 -0.0013532522979302491 -0.0029234678824092597 0.0011888606010144916
1060 -0.002500711861377767 0.0012078387407537792 -0.0003707788400944303
167 0.011091539831026632 -0.023218673024458004 0.011139073411238584
1061 -0.004793197952136867 -0.0013694835790706485 -0.001108884366491815
1062 0.0023287678584934077 -0.002173394929454052 0.005942829698172433
454 0.011772319241424566 0.003926448322910342 0.022790125328310443
453 -0.02528889064742073 0.01722910810735396 0.000787948411697973
448 -0.004470792995736688 0.006063594025974319 -0.007328118831717327
452 -0.02317465431233526 0.016307598605023205 0.01983174200197965
269 0.0020061041751305345 0.011871539801681359 0.004430035051979473
761 0.025906713383383684 -0.03386512170405952 0.03863955460255663
115 -0.0031916991242366115 -0.0035300483713046373 -0.009085210734012493
710 -0.004299705268514807 0.0038494544369253878 0.0014571444059007844
857 0.004794702853735774 0.009332860542783756 -0.025896834006286302
852 0.0020834457513101944 -0.0009449090234419028 -0.003421453162830308
267 0.04019099394519093 -0.0014682911626040258 -0.0027716981204516946
708 -0.00031382112388681215 -0.003196621740139581 -3.0576137233503146e-05
859 0.006357456625692038 0.009284565616190465 0.014961022727876975
851 0.00145000170606471 -0.005149098566197971 0.0009621195035319675
855 0.0031205971882980587 0.0012599290384860912 -0.006661990993539611
853 0.002535567889620052 0.002761913577374127 -0.000996053709891253
711 -0.0010263126978641457 -0.002945315020786186 0.0033067826506872045
717 -0.014521176713981945 0.001155154252560465 -0.0033804288545167052
709 0.00829683034339741 0.0005806564816565098 0.012260499569792367
270 0.03254680914100613 0.01284431813443225 -0.023087782133909485
262 -0.00029464868869888606 0.010601878897460629 0.008791224856887853
268 0.023450170013280987 0.01680982407360997 -0.016259703080128023
261 -0.002197221921594619 -0.002443436235394774 -0.003133358707551287
854 -0.00393599782614967 -0.001591983796431424 0.0021158788531009296
712 0.006579948348340103 -0.007167740241239328 -0.0018489068203974006
716 -0.02229638345631595 -0.01171829423739072 -0.012451733157515148
860 0.006765276713949412 -0.0029790405789425095 0.02926563639068777
718 0.020518238251454983 -0.021599759467321553 -0.004311365018648038
94 0.004945638920983731 0.004842444603811991 3.4515184473692985e-05
560 0.0030833902507496035 -0.014879402935885829 -0.009633081876632952
554 -0.004444736245370597 0.001235662717565674 -0.0018415981425133209
561 0.01666096744289536 -0.01847099472742944 -0.015194729049515174
556 -0.0004971196530613147 0.0042034950500323244 -0.00308579575167204
886 -0.012879613240335536 0.015341161812640437 -0.027176399328210872
557 0.014786453762241013 0.018155964483380187 0.03311146336473406
703 0.006641872581622795 -0.012753699086448002 -0.004658845765363149
625 0.00019123288479221527 0.003047325836944313 0.0032013086842436166
740 -0.015381523207080338 -0.0037840741157117753 -0.0041766743505639225
427 -0.018435944157168906 -0.005645276982440879 -0.012976157957197424
736 -0.0007523236899084899 0.0010114875643785826 0.005782339747069446
741 0.011393288472754084 0.01230169907152323 0.0020482941905446486
1013 -0.0016285222642401945 0.005735091473547944 0.004018383337688328
1011 -0.004070019531427255 0.0027471932049073465 -0.00309112111029681
1012 0.0011173940237746965 -0.0005933446433406006 -0.0011070340410628957
435 0.003091189881434616 0.001395750862466492 0.0006250789946464708
200 -0.005367947776112857 0.003735486562707604 0.0014193340407185047
742 -0.004684462635675631 0.021178900946135417 0.007412619660327128
426 -0.013024717337671412 0.020989040589242308 0.008574954227519761
321 -0.002143064236307171 0.012020327498400566 0.006066429467062602
332 -0.012699037385528154 0.004236078312742687 0.024875132745019023
436 -0.009332938730075974 -0.0006444319514202246 0.0017274677320618162
440 -0.01634056209250419 0.0029867298524758213 0.006528890817505487
441 0.022147261151483768 0.012554621787682812 0.0010843337079151423
12 0.006301455169752173 -0.007509650988870493 0.0012705390171955141
19 -0.0036103796939915087 -0.020795011300982272 0.028375049423653587
20 0.016907107316455762 -0.015825879499785558 0.008729876238429685
777 -0.004768531520984046 0.01579573063465129 -0.00586238384262223
1037 -0.005007004311583295 0.003946442670266537 0.004075155233163764
530 0.0051848386027673115 0.0050756711021588885 0.0006976750104584192
772 -0.006190917591626714 0.00020014172991906882 -0.0042733008914205345
538 -0.01163258725769279 0.00903727723788211 -0.00477704625233818
536 0.01843310919385601 -0.025300719896826127 0.0026416914272443834
532 0.0009481213507639083 -0.004132875500313634 0.004149202488199897
351 -0.008265793875411792 -0.0015959657654808267 -0.0033414319419648236
358 0.021769444238803035 0.00447630125380788 0.00844868725135062
346 0.016938401365762225 0.01728761786716244 0.0023418166373796456
486 0.0028742146445985862 0.024257584743871335 -0.015743373994311763
352 -0.0002203557957841838 -0.0017335585160696233 0.006225573430150928
511 0.017317325672993437 0.004323148408679752 -0.03411983922669153
778 0.006690000277021628 -0.01674370166488334 0.0028404170424817265
506 -0.00875130921992445 0.005289632613932706 -0.0007518317025568936
537 0.00950361047866738 0.008217644739343234 0.011089503999024024
220 0.0034108048314294907 0.011312383590509125 0.011840184888819662
215 0.0024143617724191094 -0.004439379885900764 -0.00022213544968199237
216 -0.00410262503944662 -0.007309968396963045 0.0011988544165790463
213 -0.0002375652560405209 -0.003060561539588095 -0.0015502647134324201
214 -0.00297502835253077 0.004148196534519827 0.010836265132942984
1034 -0.00010196974494037966 0.002175194343873341 -0.0023864420407008935
1029 0.001729007736816367 0.0035502242888229606 -0.00027949646797345
1030 -0.007221554621611388 -0.002642385774198513 0.0033704382501873213
1027 -0.0023294842318481875 0.005856063662324445 -0.001001285886514211
212 -0.0009482065864504708 0.006515581451473634 0.006457338051705501
219 0.015099084640667667 0.006608724370934028 -0.003955422110669689
1031 0.003193322396571115 0.001640702409714216 -0.005157321236071557
1032 -0.0027107456570147986 0.0017576518086446862 -0.002614549435351194
1033 -0.0025725024598717773 0.0004600525816844075 -0.005340988414343836
1028 0.0024733344728237643 0.0021019203776195343 0.0025733684844605888
316 0.004810830238647982 -0.002078799629885809 -0.005906401452657139
322 0.024757690407386776 0.009140534113870254 -0.0012087837979043357
972 0.0026964423982074742 -0.0027479762612084733 -0.0004597285000802874
509 -0.015494401905654655 -0.014663448515962635 0.024040687514257603
871 0.015613467561758899 0.009703542634823993 -0.020917425056020927
863 -0.005800667951193733 -0.004242333677960892 0.0021934150430484474
870 -0.019223296839362986 0.010209741764583556 -0.006250424717251802
866 0.0031955915660035698 -0.001031005852189524 -0.0023688319422485262
419 0.003829684922445867 0.0031871063609353236 -0.004348771100452676
1003 -0.00011632317107043424 0.002042106348060782 0.0027820887203653926
1005 -0.0003604402248858412 0.005621732863907472 0.00022023442894341863
1004 -0.001438618828832549 -0.001507750590251439 -0.00020085813762219906
1002 -0.005140521293813717 0.003215647533888667 0.004046586606229119
1006 -0.00047966103092704395 -0.00046518144801691594 0.0018311648666642386
420 -0.0038715346623889864 0.013191678859822116 -0.001047150027022272
31 0.005409995691107591 -0.00254283482133266 -0.003368384491733711
36 -0.00195472114154088 -0.009415421965083116 -0.002932315886127156
428 0.018137719122920094 -0.0165927502545122 -0.0053531962565594084
1008 0.0006434965324535625 0.002788414005018458 -0.00377896136264993
1009 -0.0033284766150150445 -0.003841926165349953 -0.0018880018497369239
421 0.010491629244678889 0.003896919367642348 -0.0074311089051236675
423 -0.005810630797809839 -0.0008711383119839479 -0.002532476708182206
424 0.0013462000709858935 -0.005961940816937639 -0.0007869911281563569
429 -0.027245986897608442 0.013211291177384461 0.00475840481062403
430 -0.011796753879567592 0.026553387469488772 0.004315392828200083
1010 -0.006018366968829574 0.003254886484688188 -0.004753156113105847
368 0.005651134529505748 0.01718713030911221 -0.03210290920496527
369 -0.011309038876636621 -0.0007711941309039173 -0.024920306010778954
364 0.0028967120308934164 -0.0009100075096895329 -0.0019770441467974313
422 0.002765453295994388 0.006973363514252273 0.0034806928837131774
81 0.0020137697994070795 0.0030271849160487963 -0.0024639456208540023
88 0.012515153842873354 -0.02105067105258363 -0.018300915937041744
38 -0.022240867013790407 0.009384629341031963 0.001729911705522434
328 -0.005563936464856693 -0.00017403471839934505 -0.0028307711184811513
87 -0.0120566145322685 0.00814217045899459 0.01971822137776203
86 0.002241788208746294 0.004177669207576568 -0.0036697480147742205
333 0.011234021540527826 0.0018834865077344022 0.023423344726153872
334 -0.0014969752716753797 -0.027241012573072862 0.001591385762995116
327 0.001341832096867517 0.006266147457005171 -0.0010399905290001906
89 -0.016305241195345592 -0.024592322932867308 0.019341325900006017
82 0.0010813169947619515 -0.012486021718531007 -0.0025934191933762647
370 -0.003757900469450113 0.037532855284051925 -0.003962848197067481
363 0.0015862427219999662 0.0004752559504063441 -0.0028637120299088432
218 0.01515197464055262 0.003923583728161298 -0.00465286150332358
84 -0.006267013354431188 -0.003883263588701733 0.006565764106153259
83 0.0070709982282430705 -0.004187135804509472 0.0012683258265476151
85 0.0023411065293803164 0.0007273539182343226 7.329009140288729e-05
425 0.015040078490530975 0.0012555961352575707 -0.018006665739896805
701 0.003664878523418665 -0.01248217360133869 -0.02449316028640494
702 -0.012849932913418518 0.005645345190687239 -0.007871854121472625
695 -0.001566045423849966 0.007597769644816751 -0.0007425545555866426
725 0.008869549968270602 -0.022348759033560664 -0.009351014187506817
1007 -0.0022023067156744652 -0.0038529246426389904 -0.005129964247066792
1001 -0.001890356032593199 -0.0038108639268151522 0.0008294687838528124
344 -0.0015497877641933728 -0.01574821130058647 0.03864369927182683
340 0.001643679549699976 -0.014245316637884906 0.01109263802932584
529 0.006723825322619314 -0.0061260376201778015 0.007447250246297202
531 0.00133207777691803 0.0034638743218178432 0.0038287254008624104
100 -0.006582099578906935 -0.014581187157716237 -0.015453102837116464
533 -0.021583367357552254 -0.014265994872527882 -0.022645624250961838
535 -0.0156845373979123 0.022484914439619162 -0.004923322653904043
362 -0.002731178214548656 0.0004018540801762078 -0.0016907603681393629
361 0.0017760657288900757 -0.0035083795931214632 -0.001876256515757128
727 0.013172754072009286 -0.001260109740167347 -0.018774922276130607
349 0.0008952801037189142 0.00018009831789613472 0.002231167151140195
528 0.0014842329353583826 0.004067740805284377 -2.5580798508374405e-05
527 -0.004433003607094219 0.00904289608905118 -0.006512020621274611
719 -0.0015013425327610177 0.004530486000596972 -0.012213931593671547
726 0.006568460223818306 0.003274001540290474 -0.015025628453548599
720 -0.0004212618179330807 0.006627521540148618 0.0009216033119613187
534 0.00915582624941383 0.00031263831868177136 -0.022557668989240096
366 0.0010009501975412074 0.013276099894091663 0.0094704459942357
360 0.002133619302115999 -0.0009772635213101846 -0.0031635951291378683
257 -0.00787369074296524 -0.007164463649438916 -0.0030412453480328557
252 0.003806155024247305 0.005549345886398162 -0.004820194332535029
260 0.002007227792081139 -0.009879102591806558 -0.003226596314547937
365 0.010400337141615206 0.0027542637670862112 0.0038653508784721466
256 0.0015138866353813093 0.006318564405331776 0.0017296500787271033
359 -0.0023928204329879284 0.002804443907767111 0.0012497819902066861
367 0.031102242738550615 0.009294079232574222 -0.01639571482183778
251 0.0003506011536564772 -0.011752302168933592 -0.004470820281614501
258 -0.012038324357263173 -0.01603284321748442 0.019626252654943575
254 -0.0098678660654881 -0.0020386930796497085 -0.00510172492310469
353 -0.00516918648258602 -0.006118166367222883 0.022483607187823586
347 0.0007238944748281519 -0.006895671760634148 0.0010164002471852592
259 0.024773045657786718 0.023239311385115733 -0.02464767019350933
253 -0.0065335178668033 -0.002432714802756657 -0.0030160392123614386
644 -0.004633069636521402 0.01011294823194319 0.03530294546758104
350 -0.003585060474904525 0.0035478929737334285 -0.001022249698774703
255 0.0025259033395300654 0.005674793598102527 6.120626109111769e-05
348 -0.00430209866687829 -0.0067783682063291 0.008865222559309379
678 0.011063001561769314 -0.0054246673651741515 0.01914182806788249
356 -0.012595843501698031 0.0032976008423720162 0.016362876313105065
211 0.00479578877649648 -0.005545955845141647 0.0003770363288990096
37 0.007020207447797716 0.0024958449477303257 -0.0066860575589874245
345 -0.008705401769816016 -0.01162939942279786 -0.016275000824532686
217 -0.005692623712380314 -0.0180000499491068 0.022266474052887612
975 -0.002501883107802121 -0.004850832875837866 -0.0007860695201830301
627 0.0042485622851158745 0.005395679612464905 -0.00016793104584258856
982 0.022468285693225648 -0.007935237570955149 -0.001102864666086429
981 0.018860396031768457 0.006072751616519112 0.011575320138732898
976 0.0013588221991247538 -0.003944682093129676 -0.00711091495709257
980 0.0002616330186618665 -0.019999963620003006 0.00185080353154315
780 0.005896786649600381 -0.005497016188714378 0.0028551782078107906
781 0.005274241430689369 -0.0018973842474635583 0.008105790723772719
782 -0.00441383788013269 0.0010527213798318912 -0.0005017379770583155
787 -0.014795549845703583 -0.008399210817199953 -0.01742525258009461
785 0.0022131549263987144 0.01558463059667968 0.0037438049925416885
1040 0.005217731078038128 0.0032507033839374215 0.0026031253286393154
1041 -0.0008853076719808787 0.002701239687549266 -0.0029254666454512595
1042 0.003839749866667 -0.0005180704686124374 0.0016573056926094205
779 0.003854147729238107 -0.0006884024939368142 0.007665540572202079
786 -0.01492123733335913 -0.00034622753818456284 0.017457871749674378
1043 0.008538504925143752 -0.00018444823222237732 0.0018744447189705537
1045 0.002860739687177269 -0.0007544269169765982 -0.0035947789040757954
1052 0.00023202308894125086 -0.0006894144363783362 0.0028309584995658645
354 0.004952552557586137 -0.0047630451205596495 0.0452733810222814
1044 0.00399700530295506 -0.004800560683238702 0.0015530736000201198
633 0.0163926520436854 0.026321372066666068 0.010172594987458386
869 -0.011436501259711317 0.004856833659549615 0.007086596552424708
826 -0.004492456875209256 0.007850025603114492 0.009549095444050911
822 0.013263409949390076 -0.01984560936806032 0.009433957731647194
815 0.01061300427624563 0.0022014212044465663 -0.00789547154937543
823 0.016583768951562047 0.038325695739730256 -0.0010441703051706315
818 0.004294777145094705 0.0003216912004473365 0.0013786613980430408
199 -0.002058669945078756 0.01898250629589381 0.006037351541908369
955 0.007641841729640356 -0.03454912116346914 -0.008421000386452767
950 0.0001771731143628894 -0.004485774944972685 0.0008020774826828963
949 -0.0024597362737123376 0.005988149969843244 0.0010765981763209463
198 -0.0067836928636626865 -0.0010910300645509173 -0.0025371396254204267
197 -0.020092440374813374 0.012061374282603525 -0.01202728790769739
191 0.004367412506381088 -0.0028819460334725856 0.0044086827642130545
192 -0.005391406108620217 0.0023606181234504323 0.0004297252851941416
958 0.030104555612732578 0.02299496867563191 0.014700960417273487
951 0.0035982245356330884 0.0005633302125955324 0.0005802116437283235
952 0.0012991928452569168 -7.966536070059213e-05 -0.009068054735454963
956 0.007039693671375069 -0.028088865056803917 -0.002248313858917348
1035 0.0008184241923003719 0.004847460049703541 0.0017582408273938885
957 0.012454895009719795 0.0029111944329634704 0.0011452918335047974
483 0.006649196814723423 0.001316724310385839 0.00044657314678616034
482 -0.004591165270698936 0.002321969064596723 0.008416868974955425
481 -0.0036625211867000363 -0.0066288877899394125 0.004646397060946807
479 0.004450153347055139 0.005419721806005023 -0.0028820945163759576
480 -0.0007633030780213006 -0.002517348253121481 8.117940223348569e-05
485 0.006669992334360324 -0.0013417921072942933 0.0375115325803015
487 -0.023918745591994407 0.02286838943806688 0.014764682332852103
1036 0.00365767195573303 0.007536032191565204 0.0006700781791367324
973 -0.0019109952628018159 -0.0017156975690705311 -0.0011067300408153834
971 -0.002152084966212226 -0.005239025782561182 -0.0017384054387309964
978 0.00943056418140646 0.009962463651890938 -0.0053264318499773745
210 0.008587291084671263 0.0073602932294600356 0.02085332450152589
977 -0.02847246807054647 0.0023855323590120238 0.025800264136997878
204 0.013995954850847037 -0.005080130886744708 -0.00883048550327228
979 -0.0013701170969201504 -0.0018253178156580779 0.004622995823644652
525 0.021429997994255424 0.0013086180105507115 -0.024275099941028788
526 0.003620388563875602 0.018161766202476233 -0.007489475327019284
646 0.000877177841372628 0.00880752331689077 0.0040597472414670875
640 -0.002216510935739846 -0.0022992700770371683 -0.011217971154030794
638 0.0026929691646848304 -0.0002077316137968494 -0.001833443886899794
196 -0.0044928100555519 0.0016618474899192767 0.0028848894319609786
193 -0.006291369862101196 0.003311810648810769 0.005288555757481697
90 0.011894789490000108 -0.024896909149382997 -0.023540158574595016
645 0.0001791292485901179 0.0007235641978548404 -0.001857409485212766
194 0.005118978482706029 0.0026074653520399152 -0.001183631440053735
195 0.0011447482522110863 0.009242008679788792 0.0024993067766694603
908 -0.007065887806890987 0.021307038746024694 0.0024538047089908495
909 -0.030176262157160353 0.02088353270332929 -0.016033613313579623
904 -0.004827131825294038 0.00024405417692348073 -0.01065923296062047
910 0.008065104139994237 -0.015238290030151688 0.0047333396216275424
903 0.0010078596373291877 0.004242262634910033 0.0023183910767819176
639 -0.004799563141092481 -0.0013340762150945633 -0.0024350838202799887
636 0.0035332592213540254 -0.0009229833899506141 0.005015115584849816
637 0.0014273485983761194 -0.0007023025363423498 0.00912344829198922
679 -0.00843127437615973 0.0017972482908353608 -0.0034226479951380818
671 0.0015767157181138562 -0.004933185369593777 0.0029451743119956824
672 -0.00732145664305554 -0.0027424602077623012 0.0015827849854119491
677 -0.007456082022203643 0.02651164216796929 0.012502848183032147
673 -0.00384889816891363 -0.0007979132469099192 -0.006133887630236267
674 -0.004905235949285537 -0.0014686165245543499 -0.00020142776149208714
675 -0.00032288673866929884 0.0022427885154579137 -0.0022901730699305023
682 0.017990312855714508 0.001077587584858637 -2.1699375634687462e-05
339 -0.005365927348936207 -0.000635902910742539 6.612839640333195e-05
676 -0.0022572033282555835 -0.005124780047106069 0.0024919762109814015
680 -0.005513124436722995 0.012860437102803107 0.024094901000079435
681 0.027738818058728413 0.0016218099605960219 0.001800424727030511
336 0.001340478955990498 0.003981536987833896 -0.0022491724506094
337 -0.0006911485520431141 0.0004728087732890931 -0.004932921379596604
335 -0.008049649218276592 0.00801348501044811 0.0021479572746731196
783 0.0032217812164911726 -0.0032847445848195734 0.0076395896801118406
1047 0.002234996259607582 0.0039284535273937235 0.0020674200888881797
784 0.0012866233477727006 0.0029770841388438185 -0.0066607755100074936
341 -0.007796073320115513 0.026983024635250145 -0.0016058053085095249
974 0.0018496466214254403 -0.0015642283549979876 -0.0009476971266036973
205 -0.0009125379881074312 0.004868022806622959 0.0023533333921938564
788 -0.004489983840178684 -0.0047851680240368075 0.003975515281885449
789 0.00810069591487216 0.015792124040369004 -0.013006098201895662
524 0.002691476212862814 -0.02256110575691941 -0.025763626059960253
520 -0.003749421192253387 0.004067548423268721 -0.001265296608317123
790 0.025271825839063195 -0.007216143093896464 0.005661999666543049
1048 0.0005240482168576905 -0.0004924419465506912 -0.0022941367573835335
1049 0.005922053849216343 -0.002386413716815753 0.0011329913375606134
1051 0.003114113883805803 0.00021823552459361705 -0.002755050681168614
1050 -0.004159379189464095 0.0005970783321258838 0.004525599480430456
997 0.001363391941542627 -0.003929331684233936 -0.0015358133315984974
519 0.002380143197403082 -0.0036154760238441587 -0.0018910549717779928
821 0.01243789484261442 -0.001033938765880183 0.04035779695138679
518 -0.0016402393739511714 0.0005296269198495388 -0.00140848567200274
338 -0.005653274475101723 0.002460220934977889 0.0024854938650781732
357 -0.017020265870268666 -0.0036210475482320076 0.00584017084887306
503 0.006745300744152689 -0.002596207904736553 0.004054905608047561
654 0.00043681481321469973 0.006481608016759559 -0.013639373780944632
653 -0.02209833281506339 0.007719492981530119 0.02101661378248695
647 0.004537311733303375 -0.0012296232453282447 -0.008759195919768372
655 -0.0027481546030674407 0.03327255279752774 -0.003776642659251078
634 0.01704347870240558 0.01036107969182363 0.0013064644890882447
628 0.004951722275897396 0.0072223198411224725 -0.006496795342619502
776 0.02360321271534641 -0.014129312153798217 -0.009805296691507672
771 -0.0013169990515483345 0.00970504161730556 -0.007607556767870301
864 0.004075555749493485 0.002983415600214938 0.004088289698940211
865 0.0036175313753367896 0.005181116427907378 0.002982746062643949
99 -0.014736839330186111 0.0009366002416548535 -0.0035168296187772356
92 -0.008421546209809857 -0.00881974565155301 -0.004690284233622143
97 0.022444189316265045 0.005182775498695132 -0.011053033987444767
696 -0.0019436747162622286 -0.0029404927442265266 -0.006849793997315783
697 0.0016807124431498614 0.0005075881755999504 0.0009646978673853778
698 -0.002599578588109978 0.0012549341209365766 0.002943540818381352
355 -0.0011722031092958503 0.006187554682185534 -0.0011649168239911394
98 0.0067765300264322524 -0.01476826221437753 0.017360159446641918
91 0.005525017509298082 0.0008680901568826639 -0.001085046608694526
954 -0.0036504419016000845 -0.004335044561026943 0.006476995585025239
947 0.004109944278884358 0.003587496457200575 0.009116638412741882
948 -0.0004479263718723553 0.005514853930411795 0.0014541012701354918
953 0.018884684652458718 0.012413006565435144 0.003938803516956246
1070 -0.009811472894028759 0.0036007800741850787 -0.007891921003183474
1071 0.0068466740395514095 -0.004071048380254862 0.00012395630957356474
913 -0.0074419593162885385 0.002923481811387444 -0.00440102986611274
915 0.005620970869036412 -0.005134476143359674 0.000711658171890897
1072 0.004971896701127929 -0.005876003517309153 0.00973518403159483
809 0.003746356122875316 -0.017194136530779856 0.00935197064548462
803 -0.0027431647702449613 0.001446149369312199 -0.007174603032159197
810 0.013341302465916962 0.022904807930248287 0.0012060684263038815
484 -0.0014060211694801336 -0.004380169517625843 -0.003080749266817031
488 0.00027405555401906613 -0.01636681132944191 0.0028862350812831976
489 -0.00989471416601318 0.0006099306507694111 0.0032112915249442667
490 0.029114549789592832 -0.006955883088211702 0.008253782783101786
208 0.012654778916849874 0.008631467391752775 0.026456854165918933
1015 -0.0055892277953785265 0.00299629015783304 0.0009486303892320314
1014 0.0015304288292820713 0.0015861206806619791 0.0018315222318530022
1026 0.00043454918321059915 -0.005611097257249689 0.0067383061580811
1016 8.116865886386685e-06 0.001085601295385959 -0.001996464729122871
811 0.014550802550484953 -0.01753564120854842 0.009124392221026232
207 -0.016428559352531392 0.02166905921298822 0.01754295711407457
201 0.0019602519487509932 -0.0004659271232618814 0.0024487553170743966
206 0.003682140983643631 0.0029361753802028953 -0.00018203199024266535
202 0.00899071036290908 -0.0019720407116912476 0.008754196912028894
203 -0.004228535829311378 -0.0003704633809733128 0.0014299034360410045
209 0.006190024736936869 0.004195796197159041 -0.011026685294568
757 -0.0007874429229205929 -0.012698846691845069 -0.008492192580246178
759 0.0021951267102441555 -0.00041099386414102747 -0.004487041581848864
760 -0.0010781412716447554 0.00117977804825702 -0.0016148326541444524
764 -0.03401356401649464 0.008793426974875314 -0.0027470108032558596
765 -0.009588776754005733 -0.011875871168815225 0.023372599031978976
766 0.0024921737387280014 -0.006994116664747607 -0.009371025146155969
758 0.006056461261579398 -0.004142607844037527 0.0008462833875983975
500 0.03755424752830643 -0.025478537995063714 0.0019108382205840727
914 -0.001545930557079252 0.005071796626841871 -0.00311673139206974
912 -0.0066819331489539335 0.0030898529905880536 0.00606910752653004
911 0.0008153929959737865 0.001982039371777073 -0.0035219626428583447
919 0.006582972116613365 0.006894726216091647 0.0003503608106063612
918 -0.04093351613845494 -0.005132659983279524 -0.005802558391026642
917 0.019435144386698886 -0.021943953658169226 -0.01842951803286314
501 0.017728368993417294 0.009792082391575217 -0.008388487096010125
278 0.036253171234333914 -0.006357657944176411 -0.017420634018529647
280 0.004930288030441158 -0.00940723756974735 -0.026043546306294064
279 -0.00863136207237661 -0.018112075540230647 0.006254767561108867
272 -0.0029240301966615622 -0.000289775377793087 -0.0007107519737720143
271 0.00299543487362366 -0.0010857343978792834 0.002166092811703964
277 -0.030350331969569027 -0.010861523792393342 0.008571756584144958
502 0.0046129966892845715 0.021660415288879485 -0.007607050911615155
496 0.0020580321238736405 0.005013785225910364 0.0029129537226007386
902 0.004620787801995294 0.0036768361164737657 0.0036685949163497507
901 -0.008684578481014735 -0.0005142196502017698 0.0037074446446835395
900 0.0033747317821743493 0.002740543201132792 -0.0015103476578928667
899 -0.002139955945116887 -0.01450127973050261 -0.0025460465092017465
905 0.009596668922257849 -0.01765407172539856 0.006639001270859832
906 -0.005561096269431776 -0.012515297847571384 -0.037295640992697686
667 -0.010618727812445394 -0.016002918063547287 0.001811411391082797
907 -0.007118836585325115 -0.006786974305404702 0.0012585421371614153
475 0.007827279526622008 -0.01597799047776128 0.008988265559665759
174 -0.006878054273443449 0.0055325495281174026 0.0001693022084474146
273 -0.007948128082419266 -0.0005616862950473726 -0.00032646542103460184
276 -0.0007718004877776528 0.003464350342554229 -0.003951568823130111
175 -0.005343789811365922 -0.0003198142945691209 -0.0010867657274727762
274 -0.00372100330814026 -0.00480566243345247 -0.0025050871245981127
1019 -0.005946327292793636 -0.0024616221231456114 0.005021080104626992
1020 0.000447742577458371 0.0031186842475717977 0.0017947955124696822
275 -0.004432150271121475 0.003690106697491773 -0.00979553201154092
1018 0.004790142411210072 -0.001482752241179714 0.00023811744505010558
611 0.0032377485222724557 0.0017193854046246052 0.005352499511265605
612 -0.0015114581768278627 0.0009829284364081517 0.0055491495540276594
613 -0.005149239846372664 0.0017050088514404163 -0.0036017144284097653
614 -0.004845019622076591 0.0027020822840157746 0.0011414385632684096
617 -0.0023962385876057724 0.009550796709617466 0.029924358361554687
619 -0.0022797555781252695 0.02004369921227935 0.0069930134828562794
1000 0.00096274589498938 -0.00156514955290558 -0.00289615323728751
342 -0.0034070588531449402 -0.003366117860111093 -0.005252249977411679
1017 0.0047589737005089075 0.0037485487789338497 -0.0040329284570524955
343 -0.0233705563491439 0.013782408353120683 -0.019364246402705308
620 0.007459156486798086 0.01242550176121896 0.0033890835853297133
834 0.009413407429440758 0.014159629274513006 0.00465747694241331
833 -0.016750377033247294 -0.020603929712455327 -0.00448408105006285
615 -0.0011742472399010374 -0.00039563863165185676 -0.005596717318387865
622 -0.0017829313750095089 0.00587468447974643 0.0012864547868935582
884 -0.007222398365192531 0.02055655025802911 0.0011521260674925303
879 -0.0028579329459515186 -4.0126304751826397e-05 0.0026469300314319265
665 0.0015948903490918998 0.0058867988331975435 0.004090301036133955
659 0.0057228375488420635 -0.008638104438992215 -0.001052377506460304
666 0.017314553971529582 -0.01066649950769698 0.0023405512201254484
521 0.005680985537420566 -0.0036667101980884507 -0.01961219239498012
516 0.00040613760031506403 -0.00550724260012462 0.0025193224080967227
517 -0.0005704325701637317 0.006323695857379056 -0.00717073060211429
522 -0.031710352884281465 0.0030762599975343624 0.0014918158106474043
515 0.00482739992915775 -0.0007883003123021154 0.003650208237708956
523 0.0002459374650889439 -0.006971003054997826 0.023592214587826357
827 0.001602091849666052 0.0069818708587198785 -0.005472336404941234
828 -0.0006167421704350955 -0.0008576160980911992 0.0018676399889077145
838 -0.01745271566972208 -0.024434664104918007 0.017976101914909715
836 0.018521491017503923 -0.027320634122099497 0.005386987970383114
831 -0.001635879857844915 0.0017464134514412835 -0.0008458074581113752
837 0.01137156786639621 -0.003960634258135331 0.0016922291384976348
832 -0.0011679387746707803 -0.0036756423346656054 -0.006028367393353567
835 0.007377894588065133 0.00706138360720775 -0.015447858077754506
829 0.002437206162344269 0.0027781750549991935 0.0006359072610659431
885 0.013968304898890836 -0.0008063042161364835 0.007002482812777925
880 -0.001870519672343334 -0.00014987605966977063 -0.007416261221001092
798 7.614302604145852e-05 0.02524780512669801 0.006920149331283493
546 0.00477525369552155 -0.008713936353628405 -0.02257101116205044
547 0.004770613058120335 -0.012664756824270327 0.015430748720202626
539 -0.0016946497060864034 0.0047734530275004424 0.005737735066508193
542 -0.006321649399857226 -0.0018698368812736425 0.005177379981786175
545 -0.001380586836708283 0.006511004042984343 -0.005100898705240478
920 0.008360712912887874 0.01033916773379872 -0.016060649566670016
916 -0.0078275912379747 -0.0012935651740162344 -0.001727668310694524
921 -0.007084486166238938 -0.0075142123016002085 0.013539135199985739
922 -0.013431615714227402 0.009627417394110355 0.0018583224913921086
295 -0.0007458165527462547 0.0010943583762662169 -0.002560244622271831
294 -0.00343132237456751 0.01097900967155067 0.009227991925375035
293 -0.0007812509926311622 -0.0028421983940668254 0.003591032142370873
300 0.018117998958043658 -0.03190195654717943 -0.012087499596956331
292 -0.0016464268352811202 0.0026811393614878266 0.005747085072273077
298 -0.005766221497442964 -0.012626735722991408 -0.0066069364611446085
291 -0.004029306687181184 0.005049388232200393 -0.0025199842234494797
299 0.000519497636143897 0.012542987837243218 0.007868857576572423
770 0.006181926531440318 0.006505436636010687 -0.005657484226267015
414 -0.02628677559644643 0.006789883861381704 0.0074144195051108
296 0.0010690322524536744 -0.000879125738771845 0.0010737535025313492
773 0.004292241672965686 -0.00707307819947593 -0.0011115613402079376
769 0.005758131219234007 -0.0011549056767280559 -0.0132615136518554
1025 -0.0002214566488956252 0.0006802262823124661 -0.006420171303964857
998 -0.004942289762401224 -0.005031162283865652 0.01162417009551771
170 0.010733862648354912 0.026268977077211382 0.022685484282042295
449 0.00944076901101147 -0.0013024392672254127 0.0011961469997546098
169 -0.0067087342391260974 0.004401284273231017 -0.01679539769789509
445 -0.004071836159709459 -0.00045193507499672675 -0.0028450051365827463
447 0.0005604871287747764 -0.005199613826359236 -0.0012544212684047749
444 0.001289864538917365 0.00011589936045914191 -0.009063048090366432
30 0.0067376240467830134 -0.00207068450523676 -0.028252517206157388
29 -0.01655453978822832 0.0024761962022179004 -0.02287380819805277
446 -0.0010773322897853189 0.0003432747320834216 -0.003967862117314345
27 0.00013859203746851477 0.016104495292585064 -0.005052465990064454
443 -0.0017622573207642948 0.0029217921933380273 0.005307253147157195
451 0.020497908330608803 0.016583717897175863 -0.0062773688782187835
510 -0.009605150835984283 -0.011244443145650323 -0.0069242778411015855
450 -0.02423687891008794 -0.012564347580095562 -0.029044723218106368
28 0.004831072401371745 -0.006629118308593149 0.030846628323384678
21 -0.0017121727260587412 0.002673112371504921 -0.003845815113284626
22 -0.000579407268438042 -0.009486883855457174 -0.01039318690761728
862 -0.0073024660456454775 -0.009825636324679204 -0.006090261316162373
756 0.009039929850660886 -0.007016724249788675 0.00330454824696235
755 -0.002084128448051879 0.00037551593935721624 -0.0006480773470462544
762 0.008481709872764127 -0.010103916847528656 -0.0042213931346021145
265 0.001929595237165774 0.0015807144585440521 0.0007139516856615793
763 0.0015333259090003722 0.02025175825421249 -0.009104007100934784
263 -0.00437149694329917 0.005102537371844797 -0.00083219539452468
266 0.002605746198922769 -0.0010066625863915178 0.002286150481148221
264 -0.005747379871535971 0.001735503382559563 -0.009899055392667526
873 0.0029953170108651807 -0.012986183836565352 -0.017669110862665816
867 0.0028153304415663863 0.0003995244380665377 0.004417227835599907
872 0.0208082748881136 0.020597829868518387 -0.005809674747237221
868 0.0016980773826494034 -0.002389187531959629 0.0027413039261000613
669 0.012353601732441781 -0.004212973983032754 -0.021050430055401977
874 0.014548304080740574 0.022423741327098175 -0.0044340320104899085
125 0.00020904203166865958 0.006322243342640529 0.005549138268264081
240 0.008852472767684002 0.005668584042598995 0.002120065264673275
495 -0.0043343013216389096 0.009038415879816863 -0.00013466057839197414
494 -0.0018635815247377383 -0.0039492420417034085 0.002601617046158824
150 -0.010999204232845134 0.023596327658937245 -0.026052505113218282
149 0.015601576867983686 -0.0043225777133318495 0.005297727500079594
791 0.005191610468554538 0.003214993063989374 -0.004209356625377378
143 -0.0002448301692068601 -0.009538906028856563 0.001511854728979709
239 -0.03587082695144961 -0.0013149252142519736 0.010023027327262277
238 0.03266576484082887 -0.01596075361966133 0.002823313209918511
237 0.0029005837280665116 -0.0014897431117801836 -5.84061022937055e-05
231 0.004366446678078715 -0.005185747749833307 0.0037250228282576362
236 7.546608092978681e-05 -0.004565764887944609 0.003083668215385445
148 0.004417340666528556 -0.004565893764669521 0.0034087096824103233
141 -0.003048960976241014 0.006302226836440697 -0.0019767914454661218
146 0.008674716222310993 -0.005234553814282823 -0.0018477295548003831
142 0.0037122582032405793 0.000872884623484831 0.004817390004899712
144 0.0009246470020546924 -0.0072305457700791624 -0.004094911856940253
145 -0.0006993723414129358 -0.010081164605803243 -0.008090697220439607
147 0.017668564577793096 0.00012878516915252613 -0.03655071356516271
232 -0.006876599010848593 -0.0005850154869592683 -0.0003792039151701682
233 0.010635911571583482 -0.004044388186801241 0.003926501215961068
234 -0.0033918094016932364 0.0033069860857815104 0.003492176718218568
235 -0.004987272201209657 0.0009451121024781832 0.0025155934287034096
326 0.0021995838660909305 -0.00474993388493415 -0.0005735314574431525
297 -0.006469096383213136 0.0023038551262956597 -0.015617608035999127
325 0.009576609440268965 -0.0006415752740365093 0.002633939642116898
1024 -0.00528969755552388 -0.0007231568904919241 -0.007996689200020321
329 -0.019190564746000924 -0.006480961097288151 -0.007829985496389193
323 0.004681462191349436 0.004660718137437326 0.00018579960089739911
331 0.011426916287617427 0.004432663136809494 -0.020621221904418677
799 -0.01951318526952071 -0.0299211667079024 -0.0034763983251786096
800 -0.039800635493012604 0.019169996651398534 -0.0038294829460351993
794 -0.007581887961701402 -0.007675659833858834 0.0021639238282258164
706 0.00871549879776378 0.018919660246117045 0.0011412175273858272
699 0.002980414901829727 -0.0006623841039597298 0.003790622214902565
493 -0.003508951983881005 0.005133591906263193 -0.008685959388446659
492 -0.0017667451640834462 0.002274030068678239 -0.007349280714058407
499 -0.006171212612292028 0.008153453136151657 -0.007108452205676134
324 0.0018198911048979444 0.0012711568745469096 -0.0019575441788595668
330 0.01917616587392376 0.0065939882076419855 -0.012440437493572792
704 -0.02144063283491789 0.0026012953473716926 0.0003915796197373629
700 -0.007312496552044561 -0.0027670404915839716 0.008807813650228579
705 -0.004731023599977146 0.006477706437928119 -1.8992046133195365e-05
497 0.0174463234372047 -0.010650251747306909 0.01932473884700044
1023 -0.0011388896158301884 0.0014178874444088958 -0.0011160108520997427
491 -0.0029508942446863115 -0.0006473163396194042 -0.005895089495279619
498 -0.009265860232027844 -0.019683223913032868 -0.005638042301651122
616 0.006921778068428745 0.007011593493952736 0.0077636136204123326
96 0.004201024020511654 -0.000404980287591651 0.0011827810740198462
25 0.0018259776528187167 -0.00023150057418131986 -7.050294166432877e-05
621 0.0023752602861517916 -0.0058251084160368 0.0027067697775328904
1021 -0.008431342511779674 0.0008293697155014972 -0.0045552571405161005
1022 -0.00196525087427213 0.004525205916218004 0.0016331247472877656
26 0.0012688059053269172 0.005037085429930372 -0.010134658417597062
23 0.0008287930563770655 -0.005170641603938025 0.003077592431837832
24 -0.003194677420761175 -0.004136169840447147 -0.002924404311458086
553 0.006507959700514015 -0.003293544136463743 -0.0018117173419339124
555 0.00042492830180562567 0.001395095798154075 -0.005844994106638145
552 -0.0021248718482520853 -0.002744129931638113 -0.004476065599089309
130 0.004132254439398109 -0.020368694030910517 0.010810663230136519
122 -0.0015404411483768096 0.00015062700591025438 0.0015325354801987469
128 0.016793105415745458 -0.01098673957316551 -0.011375523863864492
121 0.0056815508445879435 -0.011060531261180576 -0.00025962734307921777
660 0.005942599816681889 -0.0022041140694959746 0.003446664572713587
830 -0.0007514611892173314 -0.0017370961867606434 0.005880121683321526
792 0.0029623522656450716 0.00014509631963373183 0.0009125275299159912
795 -0.002914214997811782 -0.003746343011895042 -0.005831341127760941
801 0.01002482036022351 -0.004410561897045494 -0.0007073757627776534
551 -0.004978195991887642 0.0039816922740948 -0.004694281440998548
129 -0.0011347354020053066 -0.006992819132015738 -0.004238388905308802
127 0.006906468439573047 -0.015148009306826077 -0.007984841096055429
559 -0.024843074589694255 -0.0051683813792252 -0.0034026563004563247
558 0.006399566469587389 0.008093356749200004 0.007228536552105944
668 0.024289876658500815 -0.008128821830543042 -0.015018764081074602
664 -0.0036545148064981944 0.003756758540910308 0.005761681659959058
670 0.009406987045056537 -0.007822562425248423 -0.009505468302407678
663 0.0006192448277453144 0.0013008326551604598 0.001259668767685078
648 -0.0026984526417640287 -0.0017991393707539184 0.002079438261906449
797 -9.570994178757593e-05 -0.021830746298418104 0.011515150879884965
796 -0.0006678199423104169 -0.0021911311810737864 0.00483752854373832
793 -0.00041795196416901525 0.0031447254234948496 -0.0008339014903193391
802 0.008310660405414217 -0.004786433191879696 -0.0084933679649704
123 0.002397347427805584 -0.0016087892982709477 0.0022075714712904435
661 0.004678004223126349 -0.0006365412359419672 -0.005114475193085618
656 -0.02849510739019107 0.01019038591954093 0.006076865526473965
662 -0.001135784716592193 -0.005067998473878204 0.001201485997913476
658 -0.015307591483990872 -0.003760613971410883 -0.006409488634949214
649 -0.00019418764931845723 -0.0004044160510411746 0.004857918347526917
632 -0.024924381083603554 0.01576071504309129 -0.009622825408877433
651 -0.005936091134889272 -0.0052011116850662585 0.00038790375348162056
652 0.0007330023996243877 -0.0008093071508775771 -0.0021951450758433723
657 -0.011772143209867738 0.00521213655525142 -0.007323737384585024
650 -0.002262945142652421 -0.002280973015551473 0.006211831990437579
126 0.0006234100569362317 2.5718332890359172e-05 0.0058034156590364375
124 -0.004727011008985348 -0.005030370552424364 0.0014698283950037665

Bonds

1 4 33 34
2 5 457 458
3 4 457 459
4 2 387 388
5 3 388 392
6 3 388 393
7 3 388 394
8 5 385 386
9 4 385 387
10 4 456 457
11 2 455 456
12 3 455 461
13 3 455 462
14 3 455 463
15 4 384 385
16 2 383 384
17 3 383 389
18 3 383 390
19 3 383 391
20 4 53 54
21 2 52 53
22 3 52 59
23 3 52 60
24 5 54 55
25 4 54 56
26 3 724 728
27 3 724 729
28 3 724 730
29 1 51 52
30 2 51 56
31 3 51 57
32 3 51 58
33 2 32 33
34 3 32 39
35 3 32 40
36 2 459 460
37 2 723 724
38 5 34 35
39 4 34 36
40 5 721 722
41 4 721 723
42 3 460 464
43 3 460 465
44 3 460 466
45 4 936 937
46 5 937 938
47 4 937 939
48 2 935 936
49 3 935 941
50 3 935 942
51 3 935 943
52 1 61 62
53 2 61 66
54 3 61 67
55 3 61 68
56 5 64 65
57 4 64 66
58 2 399 400
59 3 400 404
60 3 400 405
61 3 400 406
62 5 601 602
63 4 601 603
64 4 63 64
65 2 599 600
66 3 599 605
67 3 599 606
68 3 599 607
69 4 600 601
70 5 397 398
71 4 397 399
72 2 311 312
73 3 311 317
74 3 311 318
75 3 311 319
76 2 623 624
77 3 623 629
78 3 623 630
79 3 623 631
80 4 576 577
81 2 963 964
82 3 964 968
83 3 964 969
84 3 964 970
85 2 959 960
86 3 959 965
87 3 959 966
88 3 959 967
89 4 960 961
90 5 961 962
91 4 961 963
92 2 839 840
93 3 839 845
94 3 839 846
95 3 839 847
96 2 575 576
97 3 575 581
98 3 575 582
99 3 575 583
100 4 624 625
101 5 577 578
102 4 577 579
103 2 579 580
104 3 580 584
105 3 580 585
106 3 580 586
107 1 281 282
108 2 281 286
109 3 281 287
110 3 281 288
111 2 282 283
112 3 282 289
113 3 282 290
114 4 283 284
115 5 284 285
116 4 284 286
117 5 733 734
118 4 733 735
119 2 735 736
120 5 433 434
121 4 433 435
122 4 432 433
123 4 732 733
124 2 315 316
125 2 939 940
126 2 431 432
127 3 431 437
128 3 431 438
129 3 431 439
130 2 62 63
131 3 62 69
132 3 62 70
133 3 940 944
134 3 940 945
135 3 940 946
136 1 11 12
137 2 11 16
138 3 11 17
139 3 11 18
140 4 13 14
141 5 14 15
142 4 14 16
143 4 312 313
144 3 508 512
145 3 508 513
146 3 508 514
147 2 507 508
148 4 43 44
149 5 313 314
150 4 313 315
151 2 42 43
152 3 42 49
153 3 42 50
154 1 41 42
155 2 41 46
156 3 41 47
157 3 41 48
158 5 505 506
159 4 505 507
160 3 688 692
161 3 688 693
162 3 688 694
163 2 687 688
164 2 983 984
165 3 983 989
166 3 983 990
167 3 983 991
168 4 103 104
169 5 104 105
170 4 104 106
171 1 151 152
172 2 151 156
173 3 151 157
174 3 151 158
175 5 685 686
176 4 685 687
177 4 396 397
178 2 395 396
179 3 395 401
180 3 395 402
181 3 395 403
182 5 74 75
183 4 74 76
184 4 73 74
185 2 843 844
186 3 592 596
187 3 592 597
188 3 592 598
189 2 587 588
190 3 587 593
191 3 587 594
192 3 587 595
193 4 840 841
194 5 841 842
195 4 841 843
196 4 588 589
197 2 875 876
198 3 875 881
199 3 875 882
200 3 875 883
201 5 589 590
202 4 589 591
203 2 591 592
204 4 816 817
205 5 817 818
206 4 817 819
207 2 819 820
208 3 820 824
209 3 820 825
210 3 820 826
211 5 154 155
212 4 154 156
213 4 684 685
214 2 683 684
215 3 683 689
216 3 683 690
217 3 683 691
218 4 153 154
219 2 152 153
220 3 152 159
221 3 152 160
222 2 72 73
223 3 72 79
224 3 72 80
225 1 71 72
226 2 71 76
227 3 71 77
228 3 71 78
229 3 376 380
230 3 376 381
231 3 376 382
232 5 44 45
233 4 44 46
234 2 923 924
235 3 923 929
236 3 923 930
237 3 923 931
238 4 924 925
239 5 925 926
240 4 925 927
241 5 1066 1067
242 2 927 928
243 2 635 636
244 3 635 641
245 3 635 642
246 3 635 643
247 1 131 132
248 2 131 136
249 3 131 137
250 3 131 138
251 2 731 732
252 3 731 737
253 3 731 738
254 3 731 739
255 5 1063 1064
256 4 1063 1065
257 4 504 505
258 4 93 94
259 3 856 860
260 3 856 861
261 3 856 862
262 4 984 985
263 5 985 986
264 4 985 987
265 2 987 988
266 3 988 992
267 3 988 993
268 3 988 994
269 2 102 103
270 3 102 109
271 3 102 110
272 1 101 102
273 2 101 106
274 3 101 107
275 3 101 108
276 2 467 468
277 3 467 473
278 3 467 474
279 3 467 475
280 5 224 225
281 4 224 226
282 1 221 222
283 2 221 226
284 3 221 227
285 3 221 228
286 2 172 173
287 3 172 179
288 3 172 180
289 1 171 172
290 2 171 176
291 3 171 177
292 3 171 178
293 4 223 224
294 2 222 223
295 3 222 229
296 3 222 230
297 3 844 848
298 3 844 849
299 3 844 850
300 4 303 304
301 4 876 877
302 5 877 878
303 4 877 879
304 5 304 305
305 4 304 306
306 1 301 302
307 2 301 306
308 3 301 307
309 3 301 308
310 2 302 303
311 3 302 309
312 3 302 310
313 5 1076 1077
314 4 1076 1078
315 7 1069 1070
316 7 1069 1073
317 7 1069 1078
318 4 1073 1074
319 5 1074 1075
320 6 1074 1076
321 7 1068 1069
322 5 805 806
323 4 805 807
324 2 375 376
325 4 372 373
326 5 373 374
327 4 373 375
328 2 371 372
329 3 371 377
330 3 371 378
331 3 371 379
332 4 1067 1068
333 6 1067 1071
334 3 928 932
335 3 928 933
336 3 928 934
337 4 173 174
338 4 888 889
339 3 472 476
340 3 472 477
341 3 472 478
342 5 469 470
343 4 469 471
344 4 468 469
345 4 3 4
346 2 471 472
347 5 889 890
348 4 889 891
349 2 891 892
350 3 892 896
351 3 892 897
352 3 892 898
353 2 2 3
354 3 2 9
355 3 2 10
356 3 568 572
357 3 568 573
358 3 568 574
359 2 567 568
360 5 565 566
361 4 565 567
362 2 887 888
363 3 887 893
364 3 887 894
365 3 887 895
366 5 4 5
367 4 4 6
368 1 1 2
369 2 1 6
370 3 1 7
371 3 1 8
372 3 808 812
373 3 808 813
374 3 808 814
375 2 603 604
376 1 181 182
377 2 181 186
378 3 181 187
379 3 181 188
380 1 241 242
381 2 241 246
382 3 241 247
383 3 241 248
384 2 242 243
385 3 242 249
386 3 242 250
387 4 243 244
388 5 244 245
389 4 244 246
390 2 182 183
391 3 182 189
392 3 182 190
393 4 183 184
394 5 184 185
395 4 184 186
396 5 1053 1054
397 4 1054 1055
398 6 1054 1058
399 5 1058 1059
400 3 748 752
401 3 748 753
402 3 748 754
403 5 745 746
404 4 745 747
405 2 747 748
406 2 743 744
407 3 743 749
408 3 743 750
409 3 743 751
410 3 544 548
411 3 544 549
412 3 544 550
413 1 111 112
414 2 111 116
415 3 111 117
416 3 111 118
417 2 543 544
418 4 744 745
419 4 540 541
420 4 113 114
421 5 114 115
422 4 114 116
423 2 132 133
424 3 132 139
425 3 132 140
426 4 133 134
427 2 112 113
428 3 112 119
429 3 112 120
430 5 134 135
431 4 134 136
432 5 541 542
433 4 541 543
434 2 807 808
435 4 408 409
436 5 409 410
437 4 409 411
438 2 411 412
439 3 412 416
440 3 412 417
441 3 412 418
442 4 564 565
443 4 804 805
444 2 563 564
445 3 563 569
446 3 563 570
447 3 563 571
448 2 407 408
449 3 407 413
450 3 407 414
451 3 407 415
452 4 768 769
453 2 767 768
454 3 767 773
455 3 767 774
456 3 767 775
457 3 604 608
458 3 604 609
459 3 604 610
460 2 707 708
461 3 707 713
462 3 707 714
463 3 707 715
464 7 1055 1056
465 1 161 162
466 2 161 166
467 3 161 167
468 3 161 168
469 2 162 163
470 3 162 169
471 3 162 170
472 4 163 164
473 5 164 165
474 4 164 166
475 7 1056 1057
476 7 1056 1060
477 7 1056 1065
478 4 1057 1058
479 4 1060 1061
480 5 1061 1062
481 6 1061 1063
482 3 448 452
483 3 448 453
484 3 448 454
485 4 852 853
486 4 708 709
487 2 851 852
488 3 851 857
489 3 851 858
490 3 851 859
491 2 855 856
492 5 853 854
493 4 853 855
494 2 711 712
495 5 709 710
496 4 709 711
497 2 262 263
498 3 262 269
499 3 262 270
500 1 261 262
501 2 261 266
502 3 261 267
503 3 261 268
504 3 712 716
505 3 712 717
506 3 712 718
507 5 94 95
508 4 94 96
509 3 556 560
510 3 556 561
511 3 556 562
512 5 625 626
513 4 625 627
514 3 736 740
515 3 736 741
516 3 736 742
517 5 1011 1012
518 4 1011 1013
519 2 435 436
520 3 436 440
521 3 436 441
522 3 436 442
523 2 12 13
524 3 12 19
525 3 12 20
526 5 1037 1038
527 4 1037 1039
528 3 772 776
529 3 772 777
530 3 772 778
531 3 532 536
532 3 532 537
533 3 532 538
534 2 351 352
535 3 352 356
536 3 352 357
537 3 352 358
538 4 213 214
539 5 214 215
540 4 214 216
541 4 1034 1035
542 7 1029 1030
543 7 1030 1031
544 7 1030 1034
545 7 1030 1039
546 5 1027 1028
547 2 212 213
548 3 212 219
549 3 212 220
550 4 1031 1032
551 5 1032 1033
552 4 1028 1029
553 6 1028 1032
554 3 316 320
555 3 316 321
556 3 316 322
557 4 972 973
558 2 863 864
559 3 863 869
560 3 863 870
561 3 863 871
562 2 419 420
563 3 419 425
564 3 419 426
565 3 419 427
566 7 1003 1004
567 4 1005 1006
568 7 1004 1005
569 7 1004 1008
570 7 1004 1013
571 4 1002 1003
572 6 1002 1006
573 5 1006 1007
574 4 420 421
575 1 31 32
576 2 31 36
577 3 31 37
578 3 31 38
579 4 1008 1009
580 5 1009 1010
581 6 1009 1011
582 5 421 422
583 4 421 423
584 2 423 424
585 3 424 428
586 3 424 429
587 3 424 430
588 3 364 368
589 3 364 369
590 3 364 370
591 1 81 82
592 2 81 86
593 3 81 87
594 3 81 88
595 3 328 332
596 3 328 333
597 3 328 334
598 2 327 328
599 2 82 83
600 3 82 89
601 3 82 90
602 2 363 364
603 5 84 85
604 4 84 86
605 4 83 84
606 2 695 696
607 3 695 701
608 3 695 702
609 3 695 703
610 5 1001 1002
611 3 340 344
612 3 340 345
613 3 340 346
614 5 529 530
615 4 529 531
616 2 531 532
617 5 361 362
618 4 361 363
619 5 349 350
620 4 349 351
621 4 528 529
622 2 527 528
623 3 527 533
624 3 527 534
625 3 527 535
626 2 719 720
627 3 719 725
628 3 719 726
629 3 719 727
630 4 720 721
631 4 360 361
632 2 252 253
633 3 252 259
634 3 252 260
635 2 359 360
636 3 359 365
637 3 359 366
638 3 359 367
639 1 251 252
640 2 251 256
641 3 251 257
642 3 251 258
643 5 254 255
644 4 254 256
645 2 347 348
646 3 347 353
647 3 347 354
648 3 347 355
649 4 253 254
650 4 348 349
651 1 211 212
652 2 211 216
653 3 211 217
654 3 211 218
655 2 975 976
656 2 627 628
657 3 976 980
658 3 976 981
659 3 976 982
660 4 780 781
661 5 781 782
662 4 781 783
663 5 1040 1041
664 4 1041 1042
665 6 1041 1045
666 7 1042 1043
667 2 779 780
668 3 779 785
669 3 779 786
670 3 779 787
671 7 1043 1044
672 7 1043 1047
673 7 1043 1052
674 5 1045 1046
675 4 1044 1045
676 2 815 816
677 3 815 821
678 3 815 822
679 3 815 823
680 5 949 950
681 4 949 951
682 1 191 192
683 2 191 196
684 3 191 197
685 3 191 198
686 2 192 193
687 3 192 199
688 3 192 200
689 2 951 952
690 3 952 956
691 3 952 957
692 3 952 958
693 5 1035 1036
694 6 1035 1037
695 2 483 484
696 5 481 482
697 4 481 483
698 2 479 480
699 3 479 485
700 3 479 486
701 3 479 487
702 4 480 481
703 5 973 974
704 4 973 975
705 2 971 972
706 3 971 977
707 3 971 978
708 3 971 979
709 5 204 205
710 4 204 206
711 3 640 644
712 3 640 645
713 3 640 646
714 4 193 194
715 5 194 195
716 4 194 196
717 3 904 908
718 3 904 909
719 3 904 910
720 2 903 904
721 2 639 640
722 4 636 637
723 5 637 638
724 4 637 639
725 2 671 672
726 3 671 677
727 3 671 678
728 3 671 679
729 4 672 673
730 5 673 674
731 4 673 675
732 2 675 676
733 2 339 340
734 3 676 680
735 3 676 681
736 3 676 682
737 4 336 337
738 5 337 338
739 4 337 339
740 2 335 336
741 3 335 341
742 3 335 342
743 3 335 343
744 2 783 784
745 4 1047 1048
746 3 784 788
747 3 784 789
748 3 784 790
749 3 520 524
750 3 520 525
751 3 520 526
752 5 1048 1049
753 6 1048 1050
754 5 1050 1051
755 4 1050 1052
756 2 519 520
757 2 503 504
758 3 503 509
759 3 503 510
760 3 503 511
761 2 647 648
762 3 647 653
763 3 647 654
764 3 647 655
765 3 628 632
766 3 628 633
767 3 628 634
768 2 771 772
769 4 864 865
770 5 865 866
771 4 865 867
772 2 92 93
773 3 92 99
774 3 92 100
775 4 696 697
776 5 697 698
777 4 697 699
778 1 91 92
779 2 91 96
780 3 91 97
781 3 91 98
782 2 947 948
783 3 947 953
784 3 947 954
785 3 947 955
786 4 948 949
787 4 1070 1071
788 5 1071 1072
789 5 913 914
790 4 913 915
791 2 915 916
792 2 803 804
793 3 803 809
794 3 803 810
795 3 803 811
796 3 484 488
797 3 484 489
798 3 484 490
799 4 1015 1016
800 6 1015 1019
801 5 1014 1015
802 7 1016 1017
803 1 201 202
804 2 201 206
805 3 201 207
806 3 201 208
807 2 202 203
808 3 202 209
809 3 202 210
810 4 203 204
811 5 757 758
812 4 757 759
813 2 759 760
814 3 760 764
815 3 760 765
816 3 760 766
817 4 912 913
818 2 911 912
819 3 911 917
820 3 911 918
821 3 911 919
822 2 272 273
823 3 272 279
824 3 272 280
825 1 271 272
826 2 271 276
827 3 271 277
828 3 271 278
829 3 496 500
830 3 496 501
831 3 496 502
832 5 901 902
833 4 901 903
834 4 900 901
835 2 899 900
836 3 899 905
837 3 899 906
838 3 899 907
839 5 174 175
840 4 174 176
841 4 273 274
842 5 274 275
843 4 274 276
844 5 1019 1020
845 4 1018 1019
846 2 611 612
847 3 611 617
848 3 611 618
849 3 611 619
850 4 612 613
851 5 613 614
852 4 613 615
853 7 1017 1018
854 7 1017 1021
855 7 1017 1026
856 2 615 616
857 2 879 880
858 2 659 660
859 3 659 665
860 3 659 666
861 3 659 667
862 4 516 517
863 5 517 518
864 4 517 519
865 2 515 516
866 3 515 521
867 3 515 522
868 3 515 523
869 2 827 828
870 3 827 833
871 3 827 834
872 3 827 835
873 4 828 829
874 2 831 832
875 3 832 836
876 3 832 837
877 3 832 838
878 5 829 830
879 4 829 831
880 3 880 884
881 3 880 885
882 3 880 886
883 2 539 540
884 3 539 545
885 3 539 546
886 3 539 547
887 3 916 920
888 3 916 921
889 3 916 922
890 5 294 295
891 4 294 296
892 4 293 294
893 2 292 293
894 3 292 299
895 3 292 300
896 1 291 292
897 2 291 296
898 3 291 297
899 3 291 298
900 5 769 770
901 4 769 771
902 5 445 446
903 4 445 447
904 2 447 448
905 4 444 445
906 2 443 444
907 3 443 449
908 3 443 450
909 3 443 451
910 1 21 22
911 2 21 26
912 3 21 27
913 3 21 28
914 2 22 23
915 3 22 29
916 3 22 30
917 4 756 757
918 2 755 756
919 3 755 761
920 3 755 762
921 3 755 763
922 4 263 264
923 5 264 265
924 4 264 266
925 2 867 868
926 3 868 872
927 3 868 873
928 3 868 874
929 2 495 496
930 2 791 792
931 3 791 797
932 3 791 798
933 3 791 799
934 4 143 144
935 1 231 232
936 2 231 236
937 3 231 237
938 3 231 238
939 1 141 142
940 2 141 146
941 3 141 147
942 3 141 148
943 2 142 143
944 3 142 149
945 3 142 150
946 5 144 145
947 4 144 146
948 2 232 233
949 3 232 239
950 3 232 240
951 4 233 234
952 5 234 235
953 4 234 236
954 5 325 326
955 4 325 327
956 5 1024 1025
957 4 1024 1026
958 2 323 324
959 3 323 329
960 3 323 330
961 3 323 331
962 2 699 700
963 5 493 494
964 4 493 495
965 4 492 493
966 4 324 325
967 3 700 704
968 3 700 705
969 3 700 706
970 2 491 492
971 3 491 497
972 3 491 498
973 3 491 499
974 3 616 620
975 3 616 621
976 3 616 622
977 4 1021 1022
978 5 1022 1023
979 6 1022 1024
980 4 23 24
981 5 24 25
982 4 24 26
983 5 553 554
984 4 553 555
985 2 555 556
986 4 552 553
987 2 122 123
988 3 122 129
989 3 122 130
990 1 121 122
991 2 121 126
992 3 121 127
993 3 121 128
994 4 660 661
995 4 792 793
996 2 795 796
997 2 551 552
998 3 551 557
999 3 551 558
1000 3 551 559
1001 3 664 668
1002 3 664 669
1003 3 664 670
1004 2 663 664
1005 4 648 649
1006 3 796 800
1007 3 796 801
1008 3 796 802
1009 5 793 794
1010 4 793 795
1011 4 123 124
1012 5 661 662
1013 4 661 663
1014 5 649 650
1015 4 649 651
1016 2 651 652
1017 3 652 656
1018 3 652 657
1019 3 652 658
1020 5 124 125
1021 4 124 126

Angles

1 1 32 33 34
2 3 456 457 458
3 6 456 457 459
4 3 458 457 459
5 5 385 387 388
6 2 387 388 392
7 2 387 388 393
8 2 387 388 394
9 4 392 388 393
10 4 392 388 394
11 4 393 388 394
12 3 384 385 386
13 6 384 385 387
14 3 386 385 387
15 5 455 456 457
16 2 456 455 461
17 2 456 455 462
18 2 456 455 463
19 4 461 455 462
20 4 461 455 463
21 4 462 455 463
22 5 383 384 385
23 2 384 383 389
24 2 384 383 390
25 2 384 383 391
26 4 389 383 390
27 4 389 383 391
28 4 390 383 391
29 1 52 53 54
30 1 51 52 53
31 2 51 52 59
32 2 51 52 60
33 2 53 52 59
34 2 53 52 60
35 4 59 52 60
36 3 53 54 55
37 1 53 54 56
38 3 55 54 56
39 2 723 724 728
40 2 723 724 729
41 2 723 724 730
42 4 728 724 729
43 4 728 724 730
44 4 729 724 730
45 1 52 51 56
46 2 52 51 57
47 2 52 51 58
48 2 56 51 57
49 2 56 51 58
50 4 57 51 58
51 1 51 56 54
52 1 31 32 33
53 2 31 32 39
54 2 31 32 40
55 2 33 32 39
56 2 33 32 40
57 4 39 32 40
58 5 457 459 460
59 5 721 723 724
60 3 33 34 35
61 1 33 34 36
62 3 35 34 36
63 3 720 721 722
64 6 720 721 723
65 3 722 721 723
66 2 459 460 464
67 2 459 460 465
68 2 459 460 466
69 4 464 460 465
70 4 464 460 466
71 4 465 460 466
72 5 935 936 937
73 3 936 937 938
74 6 936 937 939
75 3 938 937 939
76 2 936 935 941
77 2 936 935 942
78 2 936 935 943
79 4 941 935 942
80 4 941 935 943
81 4 942 935 943
82 1 62 61 66
83 2 62 61 67
84 2 62 61 68
85 2 66 61 67
86 2 66 61 68
87 4 67 61 68
88 3 63 64 65
89 1 63 64 66
90 3 65 64 66
91 1 61 66 64
92 5 397 399 400
93 2 399 400 404
94 2 399 400 405
95 2 399 400 406
96 4 404 400 405
97 4 404 400 406
98 4 405 400 406
99 3 600 601 602
100 6 600 601 603
101 3 602 601 603
102 1 62 63 64
103 2 600 599 605
104 2 600 599 606
105 2 600 599 607
106 4 605 599 606
107 4 605 599 607
108 4 606 599 607
109 5 599 600 601
110 3 396 397 398
111 6 396 397 399
112 3 398 397 399
113 2 312 311 317
114 2 312 311 318
115 2 312 311 319
116 4 317 311 318
117 4 317 311 319
118 4 318 311 319
119 2 624 623 629
120 2 624 623 630
121 2 624 623 631
122 4 629 623 630
123 4 629 623 631
124 4 630 623 631
125 5 575 576 577
126 5 961 963 964
127 2 963 964 968
128 2 963 964 969
129 2 963 964 970
130 4 968 964 969
131 4 968 964 970
132 4 969 964 970
133 2 960 959 965
134 2 960 959 966
135 2 960 959 967
136 4 965 959 966
137 4 965 959 967
138 4 966 959 967
139 5 959 960 961
140 3 960 961 962
141 6 960 961 963
142 3 962 961 963
143 2 840 839 845
144 2 840 839 846
145 2 840 839 847
146 4 845 839 846
147 4 845 839 847
148 4 846 839 847
149 2 576 575 581
150 2 576 575 582
151 2 576 575 583
152 4 581 575 582
153 4 581 575 583
154 4 582 575 583
155 5 623 624 625
156 3 576 577 578
157 6 576 577 579
158 3 578 577 579
159 5 577 579 580
160 2 579 580 584
161 2 579 580 585
162 2 579 580 586
163 4 584 580 585
164 4 584 580 586
165 4 585 580 586
166 1 282 281 286
167 2 282 281 287
168 2 282 281 288
169 2 286 281 287
170 2 286 281 288
171 4 287 281 288
172 1 281 282 283
173 2 281 282 289
174 2 281 282 290
175 2 283 282 289
176 2 283 282 290
177 4 289 282 290
178 1 282 283 284
179 3 283 284 285
180 1 283 284 286
181 3 285 284 286
182 1 281 286 284
183 3 732 733 734
184 6 732 733 735
185 3 734 733 735
186 5 733 735 736
187 3 432 433 434
188 6 432 433 435
189 3 434 433 435
190 5 431 432 433
191 5 731 732 733
192 5 313 315 316
193 5 937 939 940
194 2 432 431 437
195 2 432 431 438
196 2 432 431 439
197 4 437 431 438
198 4 437 431 439
199 4 438 431 439
200 1 61 62 63
201 2 61 62 69
202 2 61 62 70
203 2 63 62 69
204 2 63 62 70
205 4 69 62 70
206 2 939 940 944
207 2 939 940 945
208 2 939 940 946
209 4 944 940 945
210 4 944 940 946
211 4 945 940 946
212 1 12 11 16
213 2 12 11 17
214 2 12 11 18
215 2 16 11 17
216 2 16 11 18
217 4 17 11 18
218 1 12 13 14
219 3 13 14 15
220 1 13 14 16
221 3 15 14 16
222 1 11 16 14
223 8 1030 1039 1037
224 5 311 312 313
225 2 507 508 512
226 2 507 508 513
227 2 507 508 514
228 4 512 508 513
229 4 512 508 514
230 4 513 508 514
231 5 505 507 508
232 1 42 43 44
233 3 312 313 314
234 6 312 313 315
235 3 314 313 315
236 1 41 42 43
237 2 41 42 49
238 2 41 42 50
239 2 43 42 49
240 2 43 42 50
241 4 49 42 50
242 1 42 41 46
243 2 42 41 47
244 2 42 41 48
245 2 46 41 47
246 2 46 41 48
247 4 47 41 48
248 3 504 505 506
249 6 504 505 507
250 3 506 505 507
251 1 41 46 44
252 2 687 688 692
253 2 687 688 693
254 2 687 688 694
255 4 692 688 693
256 4 692 688 694
257 4 693 688 694
258 5 685 687 688
259 2 984 983 989
260 2 984 983 990
261 2 984 983 991
262 4 989 983 990
263 4 989 983 991
264 4 990 983 991
265 1 151 156 154
266 1 102 103 104
267 3 103 104 105
268 1 103 104 106
269 3 105 104 106
270 1 152 151 156
271 2 152 151 157
272 2 152 151 158
273 2 156 151 157
274 2 156 151 158
275 4 157 151 158
276 1 101 106 104
277 3 684 685 686
278 6 684 685 687
279 3 686 685 687
280 5 395 396 397
281 2 396 395 401
282 2 396 395 402
283 2 396 395 403
284 4 401 395 402
285 4 401 395 403
286 4 402 395 403
287 3 73 74 75
288 1 73 74 76
289 3 75 74 76
290 1 72 73 74
291 5 841 843 844
292 2 591 592 596
293 2 591 592 597
294 2 591 592 598
295 4 596 592 597
296 4 596 592 598
297 4 597 592 598
298 2 588 587 593
299 2 588 587 594
300 2 588 587 595
301 4 593 587 594
302 4 593 587 595
303 4 594 587 595
304 5 839 840 841
305 3 840 841 842
306 6 840 841 843
307 3 842 841 843
308 5 587 588 589
309 2 876 875 881
310 2 876 875 882
311 2 876 875 883
312 4 881 875 882
313 4 881 875 883
314 4 882 875 883
315 3 588 589 590
316 6 588 589 591
317 3 590 589 591
318 5 589 591 592
319 5 815 816 817
320 3 816 817 818
321 6 816 817 819
322 3 818 817 819
323 5 817 819 820
324 2 819 820 824
325 2 819 820 825
326 2 819 820 826
327 4 824 820 825
328 4 824 820 826
329 4 825 820 826
330 3 153 154 155
331 1 153 154 156
332 3 155 154 156
333 5 683 684 685
334 2 684 683 689
335 2 684 683 690
336 2 684 683 691
337 4 689 683 690
338 4 689 683 691
339 4 690 683 691
340 1 152 153 154
341 1 151 152 153
342 2 151 152 159
343 2 151 152 160
344 2 153 152 159
345 2 153 152 160
346 4 159 152 160
347 1 71 76 74
348 1 71 72 73
349 2 71 72 79
350 2 71 72 80
351 2 73 72 79
352 2 73 72 80
353 4 79 72 80
354 1 72 71 76
355 2 72 71 77
356 2 72 71 78
357 2 76 71 77
358 2 76 71 78
359 4 77 71 78
360 2 375 376 380
361 2 375 376 381
362 2 375 376 382
363 4 380 376 381
364 4 380 376 382
365 4 381 376 382
366 3 43 44 45
367 1 43 44 46
368 3 45 44 46
369 2 924 923 929
370 2 924 923 930
371 2 924 923 931
372 4 929 923 930
373 4 929 923 931
374 4 930 923 931
375 5 923 924 925
376 3 924 925 926
377 6 924 925 927
378 3 926 925 927
379 5 925 927 928
380 2 636 635 641
381 2 636 635 642
382 2 636 635 643
383 4 641 635 642
384 4 641 635 643
385 4 642 635 643
386 1 132 131 136
387 2 132 131 137
388 2 132 131 138
389 2 136 131 137
390 2 136 131 138
391 4 137 131 138
392 1 131 136 134
393 2 732 731 737
394 2 732 731 738
395 2 732 731 739
396 4 737 731 738
397 4 737 731 739
398 4 738 731 739
399 7 1061 1063 1064
400 1 1061 1063 1065
401 3 1064 1063 1065
402 5 503 504 505
403 1 92 93 94
404 2 855 856 860
405 2 855 856 861
406 2 855 856 862
407 4 860 856 861
408 4 860 856 862
409 4 861 856 862
410 5 983 984 985
411 3 984 985 986
412 6 984 985 987
413 3 986 985 987
414 5 985 987 988
415 2 987 988 992
416 2 987 988 993
417 2 987 988 994
418 4 992 988 993
419 4 992 988 994
420 4 993 988 994
421 1 101 102 103
422 2 101 102 109
423 2 101 102 110
424 2 103 102 109
425 2 103 102 110
426 4 109 102 110
427 1 102 101 106
428 2 102 101 107
429 2 102 101 108
430 2 106 101 107
431 2 106 101 108
432 4 107 101 108
433 2 468 467 473
434 2 468 467 474
435 2 468 467 475
436 4 473 467 474
437 4 473 467 475
438 4 474 467 475
439 3 223 224 225
440 1 223 224 226
441 3 225 224 226
442 1 221 226 224
443 1 222 221 226
444 2 222 221 227
445 2 222 221 228
446 2 226 221 227
447 2 226 221 228
448 4 227 221 228
449 1 171 172 173
450 2 171 172 179
451 2 171 172 180
452 2 173 172 179
453 2 173 172 180
454 4 179 172 180
455 1 171 176 174
456 1 172 171 176
457 2 172 171 177
458 2 172 171 178
459 2 176 171 177
460 2 176 171 178
461 4 177 171 178
462 1 222 223 224
463 1 221 222 223
464 2 221 222 229
465 2 221 222 230
466 2 223 222 229
467 2 223 222 230
468 4 229 222 230
469 2 843 844 848
470 2 843 844 849
471 2 843 844 850
472 4 848 844 849
473 4 848 844 850
474 4 849 844 850
475 1 302 303 304
476 5 875 876 877
477 3 876 877 878
478 6 876 877 879
479 3 878 877 879
480 3 303 304 305
481 1 303 304 306
482 3 305 304 306
483 1 301 306 304
484 1 302 301 306
485 2 302 301 307
486 2 302 301 308
487 2 306 301 307
488 2 306 301 308
489 4 307 301 308
490 1 301 302 303
491 2 301 302 309
492 2 301 302 310
493 2 303 302 309
494 2 303 302 310
495 4 309 302 310
496 7 1074 1076 1077
497 1 1074 1076 1078
498 3 1077 1076 1078
499 9 1068 1069 1070
500 9 1068 1069 1073
501 9 1068 1069 1078
502 9 1070 1069 1073
503 9 1070 1069 1078
504 9 1073 1069 1078
505 8 1069 1073 1074
506 3 1073 1074 1075
507 1 1073 1074 1076
508 7 1075 1074 1076
509 8 1069 1078 1076
510 8 1067 1068 1069
511 3 804 805 806
512 6 804 805 807
513 3 806 805 807
514 5 373 375 376
515 5 371 372 373
516 3 372 373 374
517 6 372 373 375
518 3 374 373 375
519 2 372 371 377
520 2 372 371 378
521 2 372 371 379
522 4 377 371 378
523 4 377 371 379
524 4 378 371 379
525 3 1066 1067 1068
526 7 1066 1067 1071
527 1 1068 1067 1071
528 2 927 928 932
529 2 927 928 933
530 2 927 928 934
531 4 932 928 933
532 4 932 928 934
533 4 933 928 934
534 1 172 173 174
535 5 887 888 889
536 2 471 472 476
537 2 471 472 477
538 2 471 472 478
539 4 476 472 477
540 4 476 472 478
541 4 477 472 478
542 3 468 469 470
543 6 468 469 471
544 3 470 469 471
545 5 467 468 469
546 1 2 3 4
547 5 469 471 472
548 3 888 889 890
549 6 888 889 891
550 3 890 889 891
551 5 889 891 892
552 2 891 892 896
553 2 891 892 897
554 2 891 892 898
555 4 896 892 897
556 4 896 892 898
557 4 897 892 898
558 1 1 2 3
559 2 1 2 9
560 2 1 2 10
561 2 3 2 9
562 2 3 2 10
563 4 9 2 10
564 2 567 568 572
565 2 567 568 573
566 2 567 568 574
567 4 572 568 573
568 4 572 568 574
569 4 573 568 574
570 5 565 567 568
571 3 564 565 566
572 6 564 565 567
573 3 566 565 567
574 2 888 887 893
575 2 888 887 894
576 2 888 887 895
577 4 893 887 894
578 4 893 887 895
579 4 894 887 895
580 3 3 4 5
581 1 3 4 6
582 3 5 4 6
583 1 2 1 6
584 2 2 1 7
585 2 2 1 8
586 2 6 1 7
587 2 6 1 8
588 4 7 1 8
589 1 1 6 4
590 2 807 808 812
591 2 807 808 813
592 2 807 808 814
593 4 812 808 813
594 4 812 808 814
595 4 813 808 814
596 5 601 603 604
597 1 181 186 184
598 1 182 181 186
599 2 182 181 187
600 2 182 181 188
601 2 186 181 187
602 2 186 181 188
603 4 187 181 188
604 1 241 246 244
605 1 242 241 246
606 2 242 241 247
607 2 242 241 248
608 2 246 241 247
609 2 246 241 248
610 4 247 241 248
611 1 241 242 243
612 2 241 242 249
613 2 241 242 250
614 2 243 242 249
615 2 243 242 250
616 4 249 242 250
617 1 242 243 244
618 3 243 244 245
619 1 243 244 246
620 3 245 244 246
621 1 181 182 183
622 2 181 182 189
623 2 181 182 190
624 2 183 182 189
625 2 183 182 190
626 4 189 182 190
627 1 182 183 184
628 3 183 184 185
629 1 183 184 186
630 3 185 184 186
631 3 1053 1054 1055
632 7 1053 1054 1058
633 1 1055 1054 1058
634 1 1054 1058 1057
635 7 1054 1058 1059
636 3 1057 1058 1059
637 2 747 748 752
638 2 747 748 753
639 2 747 748 754
640 4 752 748 753
641 4 752 748 754
642 4 753 748 754
643 3 744 745 746
644 6 744 745 747
645 3 746 745 747
646 5 745 747 748
647 2 744 743 749
648 2 744 743 750
649 2 744 743 751
650 4 749 743 750
651 4 749 743 751
652 4 750 743 751
653 2 543 544 548
654 2 543 544 549
655 2 543 544 550
656 4 548 544 549
657 4 548 544 550
658 4 549 544 550
659 1 112 111 116
660 2 112 111 117
661 2 112 111 118
662 2 116 111 117
663 2 116 111 118
664 4 117 111 118
665 1 111 116 114
666 5 541 543 544
667 5 743 744 745
668 5 539 540 541
669 1 112 113 114
670 3 113 114 115
671 1 113 114 116
672 3 115 114 116
673 1 131 132 133
674 2 131 132 139
675 2 131 132 140
676 2 133 132 139
677 2 133 132 140
678 4 139 132 140
679 1 132 133 134
680 1 111 112 113
681 2 111 112 119
682 2 111 112 120
683 2 113 112 119
684 2 113 112 120
685 4 119 112 120
686 3 133 134 135
687 1 133 134 136
688 3 135 134 136
689 3 540 541 542
690 6 540 541 543
691 3 542 541 543
692 5 805 807 808
693 5 407 408 409
694 3 408 409 410
695 6 408 409 411
696 3 410 409 411
697 5 409 411 412
698 2 411 412 416
699 2 411 412 417
700 2 411 412 418
701 4 416 412 417
702 4 416 412 418
703 4 417 412 418
704 5 563 564 565
705 5 803 804 805
706 2 564 563 569
707 2 564 563 570
708 2 564 563 571
709 4 569 563 570
710 4 569 563 571
711 4 570 563 571
712 2 408 407 413
713 2 408 407 414
714 2 408 407 415
715 4 413 407 414
716 4 413 407 415
717 4 414 407 415
718 5 767 768 769
719 2 768 767 773
720 2 768 767 774
721 2 768 767 775
722 4 773 767 774
723 4 773 767 775
724 4 774 767 775
725 2 603 604 608
726 2 603 604 609
727 2 603 604 610
728 4 608 604 609
729 4 608 604 610
730 4 609 604 610
731 2 708 707 713
732 2 708 707 714
733 2 708 707 715
734 4 713 707 714
735 4 713 707 715
736 4 714 707 715
737 8 1054 1055 1056
738 8 1056 1065 1063
739 1 162 161 166
740 2 162 161 167
741 2 162 161 168
742 2 166 161 167
743 2 166 161 168
744 4 167 161 168
745 1 161 162 163
746 2 161 162 169
747 2 161 162 170
748 2 163 162 169
749 2 163 162 170
750 4 169 162 170
751 1 162 163 164
752 3 163 164 165
753 1 163 164 166
754 3 165 164 166
755 1 161 166 164
756 9 1055 1056 1057
757 9 1055 1056 1060
758 9 1055 1056 1065
759 9 1057 1056 1060
760 9 1057 1056 1065
761 9 1060 1056 1065
762 8 1056 1057 1058
763 8 1056 1060 1061
764 3 1060 1061 1062
765 1 1060 1061 1063
766 7 1062 1061 1063
767 2 447 448 452
768 2 447 448 453
769 2 447 448 454
770 4 452 448 453
771 4 452 448 454
772 4 453 448 454
773 5 851 852 853
774 5 707 708 709
775 2 852 851 857
776 2 852 851 858
777 2 852 851 859
778 4 857 851 858
779 4 857 851 859
780 4 858 851 859
781 5 853 855 856
782 3 852 853 854
783 6 852 853 855
784 3 854 853 855
785 5 709 711 712
786 3 708 709 710
787 6 708 709 711
788 3 710 709 711
789 1 261 262 263
790 2 261 262 269
791 2 261 262 270
792 2 263 262 269
793 2 263 262 270
794 4 269 262 270
795 1 262 261 266
796 2 262 261 267
797 2 262 261 268
798 2 266 261 267
799 2 266 261 268
800 4 267 261 268
801 2 711 712 716
802 2 711 712 717
803 2 711 712 718
804 4 716 712 717
805 4 716 712 718
806 4 717 712 718
807 3 93 94 95
808 1 93 94 96
809 3 95 94 96
810 2 555 556 560
811 2 555 556 561
812 2 555 556 562
813 4 560 556 561
814 4 560 556 562
815 4 561 556 562
816 3 624 625 626
817 6 624 625 627
818 3 626 625 627
819 2 735 736 740
820 2 735 736 741
821 2 735 736 742
822 4 740 736 741
823 4 740 736 742
824 4 741 736 742
825 8 1004 1013 1011
826 7 1009 1011 1012
827 1 1009 1011 1013
828 3 1012 1011 1013
829 5 433 435 436
830 2 435 436 440
831 2 435 436 441
832 2 435 436 442
833 4 440 436 441
834 4 440 436 442
835 4 441 436 442
836 1 11 12 13
837 2 11 12 19
838 2 11 12 20
839 2 13 12 19
840 2 13 12 20
841 4 19 12 20
842 7 1035 1037 1038
843 1 1035 1037 1039
844 3 1038 1037 1039
845 2 771 772 776
846 2 771 772 777
847 2 771 772 778
848 4 776 772 777
849 4 776 772 778
850 4 777 772 778
851 2 531 532 536
852 2 531 532 537
853 2 531 532 538
854 4 536 532 537
855 4 536 532 538
856 4 537 532 538
857 5 349 351 352
858 2 351 352 356
859 2 351 352 357
860 2 351 352 358
861 4 356 352 357
862 4 356 352 358
863 4 357 352 358
864 1 211 216 214
865 1 212 213 214
866 3 213 214 215
867 1 213 214 216
868 3 215 214 216
869 8 1030 1034 1035
870 8 1028 1029 1030
871 9 1029 1030 1031
872 9 1029 1030 1034
873 9 1029 1030 1039
874 9 1031 1030 1034
875 9 1031 1030 1039
876 9 1034 1030 1039
877 1 211 212 213
878 2 211 212 219
879 2 211 212 220
880 2 213 212 219
881 2 213 212 220
882 4 219 212 220
883 8 1030 1031 1032
884 1 1028 1032 1031
885 7 1028 1032 1033
886 3 1031 1032 1033
887 3 1027 1028 1029
888 7 1027 1028 1032
889 1 1029 1028 1032
890 2 315 316 320
891 2 315 316 321
892 2 315 316 322
893 4 320 316 321
894 4 320 316 322
895 4 321 316 322
896 5 971 972 973
897 2 864 863 869
898 2 864 863 870
899 2 864 863 871
900 4 869 863 870
901 4 869 863 871
902 4 870 863 871
903 2 420 419 425
904 2 420 419 426
905 2 420 419 427
906 4 425 419 426
907 4 425 419 427
908 4 426 419 427
909 8 1002 1003 1004
910 8 1004 1005 1006
911 9 1003 1004 1005
912 9 1003 1004 1008
913 9 1003 1004 1013
914 9 1005 1004 1008
915 9 1005 1004 1013
916 9 1008 1004 1013
917 3 1001 1002 1003
918 7 1001 1002 1006
919 1 1003 1002 1006
920 1 1002 1006 1005
921 7 1002 1006 1007
922 3 1005 1006 1007
923 5 419 420 421
924 1 32 31 36
925 2 32 31 37
926 2 32 31 38
927 2 36 31 37
928 2 36 31 38
929 4 37 31 38
930 1 31 36 34
931 8 1004 1008 1009
932 3 1008 1009 1010
933 1 1008 1009 1011
934 7 1010 1009 1011
935 3 420 421 422
936 6 420 421 423
937 3 422 421 423
938 5 421 423 424
939 2 423 424 428
940 2 423 424 429
941 2 423 424 430
942 4 428 424 429
943 4 428 424 430
944 4 429 424 430
945 2 363 364 368
946 2 363 364 369
947 2 363 364 370
948 4 368 364 369
949 4 368 364 370
950 4 369 364 370
951 1 82 81 86
952 2 82 81 87
953 2 82 81 88
954 2 86 81 87
955 2 86 81 88
956 4 87 81 88
957 2 327 328 332
958 2 327 328 333
959 2 327 328 334
960 4 332 328 333
961 4 332 328 334
962 4 333 328 334
963 1 81 86 84
964 5 325 327 328
965 1 81 82 83
966 2 81 82 89
967 2 81 82 90
968 2 83 82 89
969 2 83 82 90
970 4 89 82 90
971 5 361 363 364
972 3 83 84 85
973 1 83 84 86
974 3 85 84 86
975 1 82 83 84
976 2 696 695 701
977 2 696 695 702
978 2 696 695 703
979 4 701 695 702
980 4 701 695 703
981 4 702 695 703
982 2 339 340 344
983 2 339 340 345
984 2 339 340 346
985 4 344 340 345
986 4 344 340 346
987 4 345 340 346
988 3 528 529 530
989 6 528 529 531
990 3 530 529 531
991 5 529 531 532
992 3 360 361 362
993 6 360 361 363
994 3 362 361 363
995 3 348 349 350
996 6 348 349 351
997 3 350 349 351
998 5 527 528 529
999 2 528 527 533
1000 2 528 527 534
1001 2 528 527 535
1002 4 533 527 534
1003 4 533 527 535
1004 4 534 527 535
1005 2 720 719 725
1006 2 720 719 726
1007 2 720 719 727
1008 4 725 719 726
1009 4 725 719 727
1010 4 726 719 727
1011 5 719 720 721
1012 5 359 360 361
1013 1 251 252 253
1014 2 251 252 259
1015 2 251 252 260
1016 2 253 252 259
1017 2 253 252 260
1018 4 259 252 260
1019 1 251 256 254
1020 2 360 359 365
1021 2 360 359 366
1022 2 360 359 367
1023 4 365 359 366
1024 4 365 359 367
1025 4 366 359 367
1026 1 252 251 256
1027 2 252 251 257
1028 2 252 251 258
1029 2 256 251 257
1030 2 256 251 258
1031 4 257 251 258
1032 3 253 254 255
1033 1 253 254 256
1034 3 255 254 256
1035 2 348 347 353
1036 2 348 347 354
1037 2 348 347 355
1038 4 353 347 354
1039 4 353 347 355
1040 4 354 347 355
1041 1 252 253 254
1042 5 347 348 349
1043 1 212 211 216
1044 2 212 211 217
1045 2 212 211 218
1046 2 216 211 217
1047 2 216 211 218
1048 4 217 211 218
1049 5 973 975 976
1050 5 625 627 628
1051 2 975 976 980
1052 2 975 976 981
1053 2 975 976 982
1054 4 980 976 981
1055 4 980 976 982
1056 4 981 976 982
1057 5 779 780 781
1058 3 780 781 782
1059 6 780 781 783
1060 3 782 781 783
1061 3 1040 1041 1042
1062 7 1040 1041 1045
1063 1 1042 1041 1045
1064 8 1041 1042 1043
1065 2 780 779 785
1066 2 780 779 786
1067 2 780 779 787
1068 4 785 779 786
1069 4 785 779 787
1070 4 786 779 787
1071 9 1042 1043 1044
1072 9 1042 1043 1047
1073 9 1042 1043 1052
1074 9 1044 1043 1047
1075 9 1044 1043 1052
1076 9 1047 1043 1052
1077 1 1041 1045 1044
1078 7 1041 1045 1046
1079 3 1044 1045 1046
1080 8 1043 1052 1050
1081 8 1043 1044 1045
1082 2 816 815 821
1083 2 816 815 822
1084 2 816 815 823
1085 4 821 815 822
1086 4 821 815 823
1087 4 822 815 823
1088 3 948 949 950
1089 6 948 949 951
1090 3 950 949 951
1091 1 192 191 196
1092 2 192 191 197
1093 2 192 191 198
1094 2 196 191 197
1095 2 196 191 198
1096 4 197 191 198
1097 1 191 192 193
1098 2 191 192 199
1099 2 191 192 200
1100 2 193 192 199
1101 2 193 192 200
1102 4 199 192 200
1103 5 949 951 952
1104 2 951 952 956
1105 2 951 952 957
1106 2 951 952 958
1107 4 956 952 957
1108 4 956 952 958
1109 4 957 952 958
1110 3 1034 1035 1036
1111 1 1034 1035 1037
1112 7 1036 1035 1037
1113 5 481 483 484
1114 3 480 481 482
1115 6 480 481 483
1116 3 482 481 483
1117 2 480 479 485
1118 2 480 479 486
1119 2 480 479 487
1120 4 485 479 486
1121 4 485 479 487
1122 4 486 479 487
1123 5 479 480 481
1124 3 972 973 974
1125 6 972 973 975
1126 3 974 973 975
1127 2 972 971 977
1128 2 972 971 978
1129 2 972 971 979
1130 4 977 971 978
1131 4 977 971 979
1132 4 978 971 979
1133 3 203 204 205
1134 1 203 204 206
1135 3 205 204 206
1136 2 639 640 644
1137 2 639 640 645
1138 2 639 640 646
1139 4 644 640 645
1140 4 644 640 646
1141 4 645 640 646
1142 1 191 196 194
1143 1 192 193 194
1144 3 193 194 195
1145 1 193 194 196
1146 3 195 194 196
1147 2 903 904 908
1148 2 903 904 909
1149 2 903 904 910
1150 4 908 904 909
1151 4 908 904 910
1152 4 909 904 910
1153 5 901 903 904
1154 5 637 639 640
1155 5 635 636 637
1156 3 636 637 638
1157 6 636 637 639
1158 3 638 637 639
1159 2 672 671 677
1160 2 672 671 678
1161 2 672 671 679
1162 4 677 671 678
1163 4 677 671 679
1164 4 678 671 679
1165 5 671 672 673
1166 3 672 673 674
1167 6 672 673 675
1168 3 674 673 675
1169 5 673 675 676
1170 5 337 339 340
1171 2 675 676 680
1172 2 675 676 681
1173 2 675 676 682
1174 4 680 676 681
1175 4 680 676 682
1176 4 681 676 682
1177 5 335 336 337
1178 3 336 337 338
1179 6 336 337 339
1180 3 338 337 339
1181 2 336 335 341
1182 2 336 335 342
1183 2 336 335 343
1184 4 341 335 342
1185 4 341 335 343
1186 4 342 335 343
1187 5 781 783 784
1188 8 1043 1047 1048
1189 2 783 784 788
1190 2 783 784 789
1191 2 783 784 790
1192 4 788 784 789
1193 4 788 784 790
1194 4 789 784 790
1195 2 519 520 524
1196 2 519 520 525
1197 2 519 520 526
1198 4 524 520 525
1199 4 524 520 526
1200 4 525 520 526
1201 3 1047 1048 1049
1202 1 1047 1048 1050
1203 7 1049 1048 1050
1204 7 1048 1050 1051
1205 1 1048 1050 1052
1206 3 1051 1050 1052
1207 5 517 519 520
1208 2 504 503 509
1209 2 504 503 510
1210 2 504 503 511
1211 4 509 503 510
1212 4 509 503 511
1213 4 510 503 511
1214 2 648 647 653
1215 2 648 647 654
1216 2 648 647 655
1217 4 653 647 654
1218 4 653 647 655
1219 4 654 647 655
1220 2 627 628 632
1221 2 627 628 633
1222 2 627 628 634
1223 4 632 628 633
1224 4 632 628 634
1225 4 633 628 634
1226 5 769 771 772
1227 5 863 864 865
1228 3 864 865 866
1229 6 864 865 867
1230 3 866 865 867
1231 1 91 92 93
1232 2 91 92 99
1233 2 91 92 100
1234 2 93 92 99
1235 2 93 92 100
1236 4 99 92 100
1237 5 695 696 697
1238 3 696 697 698
1239 6 696 697 699
1240 3 698 697 699
1241 1 92 91 96
1242 2 92 91 97
1243 2 92 91 98
1244 2 96 91 97
1245 2 96 91 98
1246 4 97 91 98
1247 2 948 947 953
1248 2 948 947 954
1249 2 948 947 955
1250 4 953 947 954
1251 4 953 947 955
1252 4 954 947 955
1253 5 947 948 949
1254 8 1069 1070 1071
1255 1 1067 1071 1070
1256 7 1067 1071 1072
1257 3 1070 1071 1072
1258 3 912 913 914
1259 6 912 913 915
1260 3 914 913 915
1261 5 913 915 916
1262 2 804 803 809
1263 2 804 803 810
1264 2 804 803 811
1265 4 809 803 810
1266 4 809 803 811
1267 4 810 803 811
1268 2 483 484 488
1269 2 483 484 489
1270 2 483 484 490
1271 4 488 484 489
1272 4 488 484 490
1273 4 489 484 490
1274 3 1014 1015 1016
1275 7 1014 1015 1019
1276 1 1016 1015 1019
1277 8 1017 1026 1024
1278 8 1015 1016 1017
1279 1 202 201 206
1280 2 202 201 207
1281 2 202 201 208
1282 2 206 201 207
1283 2 206 201 208
1284 4 207 201 208
1285 1 201 206 204
1286 1 201 202 203
1287 2 201 202 209
1288 2 201 202 210
1289 2 203 202 209
1290 2 203 202 210
1291 4 209 202 210
1292 1 202 203 204
1293 3 756 757 758
1294 6 756 757 759
1295 3 758 757 759
1296 5 757 759 760
1297 2 759 760 764
1298 2 759 760 765
1299 2 759 760 766
1300 4 764 760 765
1301 4 764 760 766
1302 4 765 760 766
1303 5 911 912 913
1304 2 912 911 917
1305 2 912 911 918
1306 2 912 911 919
1307 4 917 911 918
1308 4 917 911 919
1309 4 918 911 919
1310 1 271 272 273
1311 2 271 272 279
1312 2 271 272 280
1313 2 273 272 279
1314 2 273 272 280
1315 4 279 272 280
1316 1 272 271 276
1317 2 272 271 277
1318 2 272 271 278
1319 2 276 271 277
1320 2 276 271 278
1321 4 277 271 278
1322 2 495 496 500
1323 2 495 496 501
1324 2 495 496 502
1325 4 500 496 501
1326 4 500 496 502
1327 4 501 496 502
1328 3 900 901 902
1329 6 900 901 903
1330 3 902 901 903
1331 5 899 900 901
1332 2 900 899 905
1333 2 900 899 906
1334 2 900 899 907
1335 4 905 899 906
1336 4 905 899 907
1337 4 906 899 907
1338 3 173 174 175
1339 1 173 174 176
1340 3 175 174 176
1341 1 272 273 274
1342 1 271 276 274
1343 3 273 274 275
1344 1 273 274 276
1345 3 275 274 276
1346 1 1015 1019 1018
1347 7 1015 1019 1020
1348 3 1018 1019 1020
1349 8 1017 1018 1019
1350 2 612 611 617
1351 2 612 611 618
1352 2 612 611 619
1353 4 617 611 618
1354 4 617 611 619
1355 4 618 611 619
1356 5 611 612 613
1357 3 612 613 614
1358 6 612 613 615
1359 3 614 613 615
1360 9 1016 1017 1018
1361 9 1016 1017 1021
1362 9 1016 1017 1026
1363 9 1018 1017 1021
1364 9 1018 1017 1026
1365 9 1021 1017 1026
1366 5 613 615 616
1367 5 877 879 880
1368 2 660 659 665
1369 2 660 659 666
1370 2 660 659 667
1371 4 665 659 666
1372 4 665 659 667
1373 4 666 659 667
1374 5 515 516 517
1375 3 516 517 518
1376 6 516 517 519
1377 3 518 517 519
1378 2 516 515 521
1379 2 516 515 522
1380 2 516 515 523
1381 4 521 515 522
1382 4 521 515 523
1383 4 522 515 523
1384 2 828 827 833
1385 2 828 827 834
1386 2 828 827 835
1387 4 833 827 834
1388 4 833 827 835
1389 4 834 827 835
1390 5 827 828 829
1391 5 829 831 832
1392 2 831 832 836
1393 2 831 832 837
1394 2 831 832 838
1395 4 836 832 837
1396 4 836 832 838
1397 4 837 832 838
1398 3 828 829 830
1399 6 828 829 831
1400 3 830 829 831
1401 2 879 880 884
1402 2 879 880 885
1403 2 879 880 886
1404 4 884 880 885
1405 4 884 880 886
1406 4 885 880 886
1407 2 540 539 545
1408 2 540 539 546
1409 2 540 539 547
1410 4 545 539 546
1411 4 545 539 547
1412 4 546 539 547
1413 2 915 916 920
1414 2 915 916 921
1415 2 915 916 922
1416 4 920 916 921
1417 4 920 916 922
1418 4 921 916 922
1419 3 293 294 295
1420 1 293 294 296
1421 3 295 294 296
1422 1 292 293 294
1423 1 291 292 293
1424 2 291 292 299
1425 2 291 292 300
1426 2 293 292 299
1427 2 293 292 300
1428 4 299 292 300
1429 1 292 291 296
1430 2 292 291 297
1431 2 292 291 298
1432 2 296 291 297
1433 2 296 291 298
1434 4 297 291 298
1435 1 291 296 294
1436 3 768 769 770
1437 6 768 769 771
1438 3 770 769 771
1439 3 444 445 446
1440 6 444 445 447
1441 3 446 445 447
1442 5 445 447 448
1443 5 443 444 445
1444 2 444 443 449
1445 2 444 443 450
1446 2 444 443 451
1447 4 449 443 450
1448 4 449 443 451
1449 4 450 443 451
1450 1 22 21 26
1451 2 22 21 27
1452 2 22 21 28
1453 2 26 21 27
1454 2 26 21 28
1455 4 27 21 28
1456 1 21 22 23
1457 2 21 22 29
1458 2 21 22 30
1459 2 23 22 29
1460 2 23 22 30
1461 4 29 22 30
1462 5 755 756 757
1463 2 756 755 761
1464 2 756 755 762
1465 2 756 755 763
1466 4 761 755 762
1467 4 761 755 763
1468 4 762 755 763
1469 1 262 263 264
1470 1 261 266 264
1471 3 263 264 265
1472 1 263 264 266
1473 3 265 264 266
1474 5 865 867 868
1475 2 867 868 872
1476 2 867 868 873
1477 2 867 868 874
1478 4 872 868 873
1479 4 872 868 874
1480 4 873 868 874
1481 5 493 495 496
1482 2 792 791 797
1483 2 792 791 798
1484 2 792 791 799
1485 4 797 791 798
1486 4 797 791 799
1487 4 798 791 799
1488 1 142 143 144
1489 1 232 231 236
1490 2 232 231 237
1491 2 232 231 238
1492 2 236 231 237
1493 2 236 231 238
1494 4 237 231 238
1495 1 231 236 234
1496 1 142 141 146
1497 2 142 141 147
1498 2 142 141 148
1499 2 146 141 147
1500 2 146 141 148
1501 4 147 141 148
1502 1 141 146 144
1503 1 141 142 143
1504 2 141 142 149
1505 2 141 142 150
1506 2 143 142 149
1507 2 143 142 150
1508 4 149 142 150
1509 3 143 144 145
1510 1 143 144 146
1511 3 145 144 146
1512 1 231 232 233
1513 2 231 232 239
1514 2 231 232 240
1515 2 233 232 239
1516 2 233 232 240
1517 4 239 232 240
1518 1 232 233 234
1519 3 233 234 235
1520 1 233 234 236
1521 3 235 234 236
1522 3 324 325 326
1523 6 324 325 327
1524 3 326 325 327
1525 7 1022 1024 1025
1526 1 1022 1024 1026
1527 3 1025 1024 1026
1528 2 324 323 329
1529 2 324 323 330
1530 2 324 323 331
1531 4 329 323 330
1532 4 329 323 331
1533 4 330 323 331
1534 5 697 699 700
1535 3 492 493 494
1536 6 492 493 495
1537 3 494 493 495
1538 5 491 492 493
1539 5 323 324 325
1540 2 699 700 704
1541 2 699 700 705
1542 2 699 700 706
1543 4 704 700 705
1544 4 704 700 706
1545 4 705 700 706
1546 2 492 491 497
1547 2 492 491 498
1548 2 492 491 499
1549 4 497 491 498
1550 4 497 491 499
1551 4 498 491 499
1552 2 615 616 620
1553 2 615 616 621
1554 2 615 616 622
1555 4 620 616 621
1556 4 620 616 622
1557 4 621 616 622
1558 1 91 96 94
1559 8 1017 1021 1022
1560 3 1021 1022 1023
1561 1 1021 1022 1024
1562 7 1023 1022 1024
1563 1 21 26 24
1564 1 22 23 24
1565 3 23 24 25
1566 1 23 24 26
1567 3 25 24 26
1568 3 552 553 554
1569 6 552 553 555
1570 3 554 553 555
1571 5 553 555 556
1572 5 551 552 553
1573 1 121 122 123
1574 2 121 122 129
1575 2 121 122 130
1576 2 123 122 129
1577 2 123 122 130
1578 4 129 122 130
1579 1 122 121 126
1580 2 122 121 127
1581 2 122 121 128
1582 2 126 121 127
1583 2 126 121 128
1584 4 127 121 128
1585 5 659 660 661
1586 5 791 792 793
1587 5 793 795 796
1588 2 552 551 557
1589 2 552 551 558
1590 2 552 551 559
1591 4 557 551 558
1592 4 557 551 559
1593 4 558 551 559
1594 2 663 664 668
1595 2 663 664 669
1596 2 663 664 670
1597 4 668 664 669
1598 4 668 664 670
1599 4 669 664 670
1600 5 661 663 664
1601 5 647 648 649
1602 2 795 796 800
1603 2 795 796 801
1604 2 795 796 802
1605 4 800 796 801
1606 4 800 796 802
1607 4 801 796 802
1608 3 792 793 794
1609 6 792 793 795
1610 3 794 793 795
1611 1 122 123 124
1612 3 660 661 662
1613 6 660 661 663
1614 3 662 661 663
1615 3 648 649 650
1616 6 648 649 651
1617 3 650 649 651
1618 5 649 651 652
1619 2 651 652 656
1620 2 651 652 657
1621 2 651 652 658
1622 4 656 652 657
1623 4 656 652 658
1624 4 657 652 658
1625 1 121 126 124
1626 3 123 124 125
1627 1 123 124 126
1628 3 125 124 126

Dihedrals

1 3 32 33 34 35
2 3 32 33 34 36
3 8 34 33 32 39
4 8 34 33 32 40
5 12 456 457 459 460
6 10 458 457 459 460
7 11 458 457 459 460
8 8 385 387 388 392
9 8 385 387 388 393
10 8 385 387 388 394
11 12 384 385 387 388
12 10 386 385 387 388
13 11 386 385 387 388
14 10 455 456 457 458
15 11 455 456 457 458
16 12 455 456 457 459
17 8 457 456 455 461
18 8 457 456 455 462
19 8 457 456 455 463
20 10 383 384 385 386
21 11 383 384 385 386
22 12 383 384 385 387
23 8 385 384 383 389
24 8 385 384 383 390
25 8 385 384 383 391
26 3 52 53 54 55
27 3 52 53 54 56
28 8 54 53 52 59
29 8 54 53 52 60
30 1 51 52 53 54
31 2 51 52 53 54
32 4 53 52 51 56
33 5 53 52 51 56
34 6 53 52 51 57
35 7 53 52 51 57
36 6 53 52 51 58
37 7 53 52 51 58
38 1 52 51 56 54
39 2 52 51 56 54
40 6 56 51 52 59
41 7 56 51 52 59
42 6 56 51 52 60
43 7 56 51 52 60
44 9 57 51 52 59
45 9 57 51 52 60
46 9 58 51 52 59
47 9 58 51 52 60
48 3 51 56 54 53
49 3 51 56 54 55
50 8 54 56 51 57
51 8 54 56 51 58
52 1 31 32 33 34
53 2 31 32 33 34
54 4 33 32 31 36
55 5 33 32 31 36
56 6 33 32 31 37
57 7 33 32 31 37
58 6 33 32 31 38
59 7 33 32 31 38
60 8 457 459 460 464
61 8 457 459 460 465
62 8 457 459 460 466
63 8 721 723 724 728
64 8 721 723 724 729
65 8 721 723 724 730
66 12 720 721 723 724
67 10 722 721 723 724
68 11 722 721 723 724
69 10 935 936 937 938
70 11 935 936 937 938
71 12 935 936 937 939
72 8 937 936 935 941
73 8 937 936 935 942
74 8 937 936 935 943
75 12 936 937 939 940
76 10 938 937 939 940
77 11 938 937 939 940
78 1 62 61 66 64
79 2 62 61 66 64
80 6 66 61 62 69
81 7 66 61 62 69
82 6 66 61 62 70
83 7 66 61 62 70
84 9 67 61 62 69
85 9 67 61 62 70
86 9 68 61 62 69
87 9 68 61 62 70
88 3 61 66 64 63
89 3 61 66 64 65
90 8 64 66 61 67
91 8 64 66 61 68
92 8 397 399 400 404
93 8 397 399 400 405
94 8 397 399 400 406
95 12 600 601 603 604
96 10 602 601 603 604
97 11 602 601 603 604
98 3 62 63 64 65
99 3 62 63 64 66
100 8 64 63 62 69
101 8 64 63 62 70
102 10 599 600 601 602
103 11 599 600 601 602
104 12 599 600 601 603
105 8 601 600 599 605
106 8 601 600 599 606
107 8 601 600 599 607
108 12 396 397 399 400
109 10 398 397 399 400
110 11 398 397 399 400
111 10 575 576 577 578
112 11 575 576 577 578
113 12 575 576 577 579
114 8 577 576 575 581
115 8 577 576 575 582
116 8 577 576 575 583
117 8 961 963 964 968
118 8 961 963 964 969
119 8 961 963 964 970
120 10 959 960 961 962
121 11 959 960 961 962
122 12 959 960 961 963
123 8 961 960 959 965
124 8 961 960 959 966
125 8 961 960 959 967
126 12 960 961 963 964
127 10 962 961 963 964
128 11 962 961 963 964
129 10 623 624 625 626
130 11 623 624 625 626
131 12 623 624 625 627
132 8 625 624 623 629
133 8 625 624 623 630
134 8 625 624 623 631
135 12 576 577 579 580
136 10 578 577 579 580
137 11 578 577 579 580
138 8 577 579 580 584
139 8 577 579 580 585
140 8 577 579 580 586
141 1 282 281 286 284
142 2 282 281 286 284
143 6 286 281 282 289
144 7 286 281 282 289
145 6 286 281 282 290
146 7 286 281 282 290
147 9 287 281 282 289
148 9 287 281 282 290
149 9 288 281 282 289
150 9 288 281 282 290
151 1 281 282 283 284
152 2 281 282 283 284
153 4 283 282 281 286
154 5 283 282 281 286
155 6 283 282 281 287
156 7 283 282 281 287
157 6 283 282 281 288
158 7 283 282 281 288
159 3 282 283 284 285
160 3 282 283 284 286
161 8 284 283 282 289
162 8 284 283 282 290
163 3 281 286 284 283
164 3 281 286 284 285
165 8 284 286 281 287
166 8 284 286 281 288
167 12 732 733 735 736
168 10 734 733 735 736
169 11 734 733 735 736
170 8 733 735 736 740
171 8 733 735 736 741
172 8 733 735 736 742
173 12 432 433 435 436
174 10 434 433 435 436
175 11 434 433 435 436
176 10 431 432 433 434
177 11 431 432 433 434
178 12 431 432 433 435
179 8 433 432 431 437
180 8 433 432 431 438
181 8 433 432 431 439
182 10 731 732 733 734
183 11 731 732 733 734
184 12 731 732 733 735
185 8 733 732 731 737
186 8 733 732 731 738
187 8 733 732 731 739
188 8 313 315 316 320
189 8 313 315 316 321
190 8 313 315 316 322
191 8 937 939 940 944
192 8 937 939 940 945
193 8 937 939 940 946
194 1 61 62 63 64
195 2 61 62 63 64
196 4 63 62 61 66
197 5 63 62 61 66
198 6 63 62 61 67
199 7 63 62 61 67
200 6 63 62 61 68
201 7 63 62 61 68
202 1 12 11 16 14
203 2 12 11 16 14
204 6 16 11 12 19
205 7 16 11 12 19
206 6 16 11 12 20
207 7 16 11 12 20
208 9 17 11 12 19
209 9 17 11 12 20
210 9 18 11 12 19
211 9 18 11 12 20
212 3 12 13 14 15
213 3 12 13 14 16
214 8 14 13 12 19
215 8 14 13 12 20
216 3 11 16 14 13
217 3 11 16 14 15
218 8 14 16 11 17
219 8 14 16 11 18
220 15 1030 1039 1037 1035
221 3 1030 1039 1037 1038
222 10 311 312 313 314
223 11 311 312 313 314
224 12 311 312 313 315
225 8 313 312 311 317
226 8 313 312 311 318
227 8 313 312 311 319
228 8 505 507 508 512
229 8 505 507 508 513
230 8 505 507 508 514
231 3 42 43 44 45
232 3 42 43 44 46
233 8 44 43 42 49
234 8 44 43 42 50
235 12 312 313 315 316
236 10 314 313 315 316
237 11 314 313 315 316
238 1 41 42 43 44
239 2 41 42 43 44
240 4 43 42 41 46
241 5 43 42 41 46
242 6 43 42 41 47
243 7 43 42 41 47
244 6 43 42 41 48
245 7 43 42 41 48
246 1 42 41 46 44
247 2 42 41 46 44
248 6 46 41 42 49
249 7 46 41 42 49
250 6 46 41 42 50
251 7 46 41 42 50
252 9 47 41 42 49
253 9 47 41 42 50
254 9 48 41 42 49
255 9 48 41 42 50
256 12 504 505 507 508
257 10 506 505 507 508
258 11 506 505 507 508
259 3 41 46 44 43
260 3 41 46 44 45
261 8 44 46 41 47
262 8 44 46 41 48
263 8 685 687 688 692
264 8 685 687 688 693
265 8 685 687 688 694
266 3 151 156 154 153
267 3 151 156 154 155
268 8 154 156 151 157
269 8 154 156 151 158
270 3 102 103 104 105
271 3 102 103 104 106
272 8 104 103 102 109
273 8 104 103 102 110
274 1 152 151 156 154
275 2 152 151 156 154
276 6 156 151 152 159
277 7 156 151 152 159
278 6 156 151 152 160
279 7 156 151 152 160
280 9 157 151 152 159
281 9 157 151 152 160
282 9 158 151 152 159
283 9 158 151 152 160
284 3 101 106 104 103
285 3 101 106 104 105
286 8 104 106 101 107
287 8 104 106 101 108
288 12 684 685 687 688
289 10 686 685 687 688
290 11 686 685 687 688
291 10 395 396 397 398
292 11 395 396 397 398
293 12 395 396 397 399
294 8 397 396 395 401
295 8 397 396 395 402
296 8 397 396 395 403
297 3 72 73 74 75
298 3 72 73 74 76
299 8 74 73 72 79
300 8 74 73 72 80
301 8 841 843 844 848
302 8 841 843 844 849
303 8 841 843 844 850
304 10 839 840 841 842
305 11 839 840 841 842
306 12 839 840 841 843
307 8 841 840 839 845
308 8 841 840 839 846
309 8 841 840 839 847
310 12 840 841 843 844
311 10 842 841 843 844
312 11 842 841 843 844
313 10 587 588 589 590
314 11 587 588 589 590
315 12 587 588 589 591
316 8 589 588 587 593
317 8 589 588 587 594
318 8 589 588 587 595
319 12 588 589 591 592
320 10 590 589 591 592
321 11 590 589 591 592
322 8 589 591 592 596
323 8 589 591 592 597
324 8 589 591 592 598
325 10 815 816 817 818
326 11 815 816 817 818
327 12 815 816 817 819
328 8 817 816 815 821
329 8 817 816 815 822
330 8 817 816 815 823
331 12 816 817 819 820
332 10 818 817 819 820
333 11 818 817 819 820
334 8 817 819 820 824
335 8 817 819 820 825
336 8 817 819 820 826
337 10 683 684 685 686
338 11 683 684 685 686
339 12 683 684 685 687
340 8 685 684 683 689
341 8 685 684 683 690
342 8 685 684 683 691
343 3 152 153 154 155
344 3 152 153 154 156
345 8 154 153 152 159
346 8 154 153 152 160
347 1 151 152 153 154
348 2 151 152 153 154
349 4 153 152 151 156
350 5 153 152 151 156
351 6 153 152 151 157
352 7 153 152 151 157
353 6 153 152 151 158
354 7 153 152 151 158
355 3 71 76 74 73
356 3 71 76 74 75
357 8 74 76 71 77
358 8 74 76 71 78
359 1 71 72 73 74
360 2 71 72 73 74
361 4 73 72 71 76
362 5 73 72 71 76
363 6 73 72 71 77
364 7 73 72 71 77
365 6 73 72 71 78
366 7 73 72 71 78
367 1 72 71 76 74
368 2 72 71 76 74
369 6 76 71 72 79
370 7 76 71 72 79
371 6 76 71 72 80
372 7 76 71 72 80
373 9 77 71 72 79
374 9 77 71 72 80
375 9 78 71 72 79
376 9 78 71 72 80
377 10 923 924 925 926
378 11 923 924 925 926
379 12 923 924 925 927
380 8 925 924 923 929
381 8 925 924 923 930
382 8 925 924 923 931
383 12 924 925 927 928
384 10 926 925 927 928
385 11 926 925 927 928
386 8 925 927 928 932
387 8 925 927 928 933
388 8 925 927 928 934
389 1 132 131 136 134
390 2 132 131 136 134
391 6 136 131 132 139
392 7 136 131 132 139
393 6 136 131 132 140
394 7 136 131 132 140
395 9 137 131 132 139
396 9 137 131 132 140
397 9 138 131 132 139
398 9 138 131 132 140
399 3 131 136 134 133
400 3 131 136 134 135
401 8 134 136 131 137
402 8 134 136 131 138
403 10 503 504 505 506
404 11 503 504 505 506
405 12 503 504 505 507
406 8 505 504 503 509
407 8 505 504 503 510
408 8 505 504 503 511
409 3 92 93 94 95
410 3 92 93 94 96
411 8 94 93 92 99
412 8 94 93 92 100
413 10 983 984 985 986
414 11 983 984 985 986
415 12 983 984 985 987
416 8 985 984 983 989
417 8 985 984 983 990
418 8 985 984 983 991
419 12 984 985 987 988
420 10 986 985 987 988
421 11 986 985 987 988
422 8 985 987 988 992
423 8 985 987 988 993
424 8 985 987 988 994
425 1 101 102 103 104
426 2 101 102 103 104
427 4 103 102 101 106
428 5 103 102 101 106
429 6 103 102 101 107
430 7 103 102 101 107
431 6 103 102 101 108
432 7 103 102 101 108
433 1 102 101 106 104
434 2 102 101 106 104
435 6 106 101 102 109
436 7 106 101 102 109
437 6 106 101 102 110
438 7 106 101 102 110
439 9 107 101 102 109
440 9 107 101 102 110
441 9 108 101 102 109
442 9 108 101 102 110
443 3 221 226 224 223
444 3 221 226 224 225
445 8 224 226 221 227
446 8 224 226 221 228
447 1 222 221 226 224
448 2 222 221 226 224
449 6 226 221 222 229
450 7 226 221 222 229
451 6 226 221 222 230
452 7 226 221 222 230
453 9 227 221 222 229
454 9 227 221 222 230
455 9 228 221 222 229
456 9 228 221 222 230
457 1 171 172 173 174
458 2 171 172 173 174
459 4 173 172 171 176
460 5 173 172 171 176
461 6 173 172 171 177
462 7 173 172 171 177
463 6 173 172 171 178
464 7 173 172 171 178
465 3 171 176 174 173
466 3 171 176 174 175
467 8 174 176 171 177
468 8 174 176 171 178
469 1 172 171 176 174
470 2 172 171 176 174
471 6 176 171 172 179
472 7 176 171 172 179
473 6 176 171 172 180
474 7 176 171 172 180
475 9 177 171 172 179
476 9 177 171 172 180
477 9 178 171 172 179
478 9 178 171 172 180
479 3 222 223 224 225
480 3 222 223 224 226
481 8 224 223 222 229
482 8 224 223 222 230
483 1 221 222 223 224
484 2 221 222 223 224
485 4 223 222 221 226
486 5 223 222 221 226
487 6 223 222 221 227
488 7 223 222 221 227
489 6 223 222 221 228
490 7 223 222 221 228
491 3 302 303 304 305
492 3 302 303 304 306
493 8 304 303 302 309
494 8 304 303 302 310
495 10 875 876 877 878
496 11 875 876 877 878
497 12 875 876 877 879
498 8 877 876 875 881
499 8 877 876 875 882
500 8 877 876 875 883
501 12 876 877 879 880
502 10 878 877 879 880
503 11 878 877 879 880
504 3 301 306 304 303
505 3 301 306 304 305
506 8 304 306 301 307
507 8 304 306 301 308
508 1 302 301 306 304
509 2 302 301 306 304
510 6 306 301 302 309
511 7 306 301 302 309
512 6 306 301 302 310
513 7 306 301 302 310
514 9 307 301 302 309
515 9 307 301 302 310
516 9 308 301 302 309
517 9 308 301 302 310
518 1 301 302 303 304
519 2 301 302 303 304
520 4 303 302 301 306
521 5 303 302 301 306
522 6 303 302 301 307
523 7 303 302 301 307
524 6 303 302 301 308
525 7 303 302 301 308
526 14 1068 1069 1070 1071
527 14 1068 1069 1073 1074
528 14 1068 1069 1078 1076
529 14 1070 1069 1073 1074
530 14 1070 1069 1078 1076
531 14 1073 1069 1078 1076
532 3 1069 1073 1074 1075
533 15 1069 1073 1074 1076
534 14 1074 1073 1069 1078
535 13 1073 1074 1076 1077
536 13 1073 1074 1076 1078
537 13 1075 1074 1076 1077
538 13 1075 1074 1076 1078
539 15 1069 1078 1076 1074
540 3 1069 1078 1076 1077
541 14 1067 1068 1069 1070
542 14 1067 1068 1069 1073
543 14 1067 1068 1069 1078
544 15 1069 1068 1067 1071
545 12 804 805 807 808
546 10 806 805 807 808
547 11 806 805 807 808
548 8 373 375 376 380
549 8 373 375 376 381
550 8 373 375 376 382
551 10 371 372 373 374
552 11 371 372 373 374
553 12 371 372 373 375
554 8 373 372 371 377
555 8 373 372 371 378
556 8 373 372 371 379
557 12 372 373 375 376
558 10 374 373 375 376
559 11 374 373 375 376
560 3 1066 1067 1068 1069
561 13 1066 1067 1071 1070
562 13 1066 1067 1071 1072
563 13 1068 1067 1071 1070
564 13 1068 1067 1071 1072
565 3 172 173 174 175
566 3 172 173 174 176
567 8 174 173 172 179
568 8 174 173 172 180
569 10 887 888 889 890
570 11 887 888 889 890
571 12 887 888 889 891
572 8 889 888 887 893
573 8 889 888 887 894
574 8 889 888 887 895
575 12 468 469 471 472
576 10 470 469 471 472
577 11 470 469 471 472
578 10 467 468 469 470
579 11 467 468 469 470
580 12 467 468 469 471
581 8 469 468 467 473
582 8 469 468 467 474
583 8 469 468 467 475
584 3 2 3 4 5
585 3 2 3 4 6
586 8 4 3 2 9
587 8 4 3 2 10
588 8 469 471 472 476
589 8 469 471 472 477
590 8 469 471 472 478
591 12 888 889 891 892
592 10 890 889 891 892
593 11 890 889 891 892
594 8 889 891 892 896
595 8 889 891 892 897
596 8 889 891 892 898
597 1 1 2 3 4
598 2 1 2 3 4
599 4 3 2 1 6
600 5 3 2 1 6
601 6 3 2 1 7
602 7 3 2 1 7
603 6 3 2 1 8
604 7 3 2 1 8
605 8 565 567 568 572
606 8 565 567 568 573
607 8 565 567 568 574
608 12 564 565 567 568
609 10 566 565 567 568
610 11 566 565 567 568
611 1 2 1 6 4
612 2 2 1 6 4
613 6 6 1 2 9
614 7 6 1 2 9
615 6 6 1 2 10
616 7 6 1 2 10
617 9 7 1 2 9
618 9 7 1 2 10
619 9 8 1 2 9
620 9 8 1 2 10
621 3 1 6 4 3
622 3 1 6 4 5
623 8 4 6 1 7
624 8 4 6 1 8
625 8 601 603 604 608
626 8 601 603 604 609
627 8 601 603 604 610
628 3 181 186 184 183
629 3 181 186 184 185
630 8 184 186 181 187
631 8 184 186 181 188
632 1 182 181 186 184
633 2 182 181 186 184
634 6 186 181 182 189
635 7 186 181 182 189
636 6 186 181 182 190
637 7 186 181 182 190
638 9 187 181 182 189
639 9 187 181 182 190
640 9 188 181 182 189
641 9 188 181 182 190
642 3 241 246 244 243
643 3 241 246 244 245
644 8 244 246 241 247
645 8 244 246 241 248
646 1 242 241 246 244
647 2 242 241 246 244
648 6 246 241 242 249
649 7 246 241 242 249
650 6 246 241 242 250
651 7 246 241 242 250
652 9 247 241 242 249
653 9 247 241 242 250
654 9 248 241 242 249
655 9 248 241 242 250
656 1 241 242 243 244
657 2 241 242 243 244
658 4 243 242 241 246
659 5 243 242 241 246
660 6 243 242 241 247
661 7 243 242 241 247
662 6 243 242 241 248
663 7 243 242 241 248
664 3 242 243 244 245
665 3 242 243 244 246
666 8 244 243 242 249
667 8 244 243 242 250
668 1 181 182 183 184
669 2 181 182 183 184
670 4 183 182 181 186
671 5 183 182 181 186
672 6 183 182 181 187
673 7 183 182 181 187
674 6 183 182 181 188
675 7 183 182 181 188
676 3 182 183 184 185
677 3 182 183 184 186
678 8 184 183 182 189
679 8 184 183 182 190
680 3 1053 1054 1055 1056
681 13 1053 1054 1058 1057
682 13 1053 1054 1058 1059
683 13 1055 1054 1058 1057
684 13 1055 1054 1058 1059
685 15 1054 1058 1057 1056
686 12 744 745 747 748
687 10 746 745 747 748
688 11 746 745 747 748
689 8 745 747 748 752
690 8 745 747 748 753
691 8 745 747 748 754
692 1 112 111 116 114
693 2 112 111 116 114
694 6 116 111 112 119
695 7 116 111 112 119
696 6 116 111 112 120
697 7 116 111 112 120
698 9 117 111 112 119
699 9 117 111 112 120
700 9 118 111 112 119
701 9 118 111 112 120
702 3 111 116 114 113
703 3 111 116 114 115
704 8 114 116 111 117
705 8 114 116 111 118
706 8 541 543 544 548
707 8 541 543 544 549
708 8 541 543 544 550
709 10 743 744 745 746
710 11 743 744 745 746
711 12 743 744 745 747
712 8 745 744 743 749
713 8 745 744 743 750
714 8 745 744 743 751
715 10 539 540 541 542
716 11 539 540 541 542
717 12 539 540 541 543
718 8 541 540 539 545
719 8 541 540 539 546
720 8 541 540 539 547
721 3 112 113 114 115
722 3 112 113 114 116
723 8 114 113 112 119
724 8 114 113 112 120
725 1 131 132 133 134
726 2 131 132 133 134
727 4 133 132 131 136
728 5 133 132 131 136
729 6 133 132 131 137
730 7 133 132 131 137
731 6 133 132 131 138
732 7 133 132 131 138
733 3 132 133 134 135
734 3 132 133 134 136
735 8 134 133 132 139
736 8 134 133 132 140
737 1 111 112 113 114
738 2 111 112 113 114
739 4 113 112 111 116
740 5 113 112 111 116
741 6 113 112 111 117
742 7 113 112 111 117
743 6 113 112 111 118
744 7 113 112 111 118
745 12 540 541 543 544
746 10 542 541 543 544
747 11 542 541 543 544
748 8 805 807 808 812
749 8 805 807 808 813
750 8 805 807 808 814
751 10 407 408 409 410
752 11 407 408 409 410
753 12 407 408 409 411
754 8 409 408 407 413
755 8 409 408 407 414
756 8 409 408 407 415
757 12 408 409 411 412
758 10 410 409 411 412
759 11 410 409 411 412
760 8 409 411 412 416
761 8 409 411 412 417
762 8 409 411 412 418
763 10 563 564 565 566
764 11 563 564 565 566
765 12 563 564 565 567
766 8 565 564 563 569
767 8 565 564 563 570
768 8 565 564 563 571
769 10 803 804 805 806
770 11 803 804 805 806
771 12 803 804 805 807
772 8 805 804 803 809
773 8 805 804 803 810
774 8 805 804 803 811
775 10 767 768 769 770
776 11 767 768 769 770
777 12 767 768 769 771
778 8 769 768 767 773
779 8 769 768 767 774
780 8 769 768 767 775
781 14 1054 1055 1056 1057
782 14 1054 1055 1056 1060
783 14 1054 1055 1056 1065
784 15 1056 1055 1054 1058
785 15 1056 1065 1063 1061
786 3 1056 1065 1063 1064
787 1 162 161 166 164
788 2 162 161 166 164
789 6 166 161 162 169
790 7 166 161 162 169
791 6 166 161 162 170
792 7 166 161 162 170
793 9 167 161 162 169
794 9 167 161 162 170
795 9 168 161 162 169
796 9 168 161 162 170
797 1 161 162 163 164
798 2 161 162 163 164
799 4 163 162 161 166
800 5 163 162 161 166
801 6 163 162 161 167
802 7 163 162 161 167
803 6 163 162 161 168
804 7 163 162 161 168
805 3 162 163 164 165
806 3 162 163 164 166
807 8 164 163 162 169
808 8 164 163 162 170
809 3 161 166 164 163
810 3 161 166 164 165
811 8 164 166 161 167
812 8 164 166 161 168
813 14 1055 1056 1057 1058
814 14 1055 1056 1060 1061
815 14 1055 1056 1065 1063
816 14 1057 1056 1060 1061
817 14 1057 1056 1065 1063
818 14 1060 1056 1065 1063
819 3 1056 1057 1058 1059
820 14 1058 1057 1056 1060
821 14 1058 1057 1056 1065
822 3 1056 1060 1061 1062
823 15 1056 1060 1061 1063
824 14 1061 1060 1056 1065
825 13 1060 1061 1063 1064
826 13 1060 1061 1063 1065
827 13 1062 1061 1063 1064
828 13 1062 1061 1063 1065
829 10 851 852 853 854
830 11 851 852 853 854
831 12 851 852 853 855
832 8 853 852 851 857
833 8 853 852 851 858
834 8 853 852 851 859
835 10 707 708 709 710
836 11 707 708 709 710
837 12 707 708 709 711
838 8 709 708 707 713
839 8 709 708 707 714
840 8 709 708 707 715
841 8 853 855 856 860
842 8 853 855 856 861
843 8 853 855 856 862
844 12 852 853 855 856
845 10 854 853 855 856
846 11 854 853 855 856
847 8 709 711 712 716
848 8 709 711 712 717
849 8 709 711 712 718
850 12 708 709 711 712
851 10 710 709 711 712
852 11 710 709 711 712
853 1 261 262 263 264
854 2 261 262 263 264
855 4 263 262 261 266
856 5 263 262 261 266
857 6 263 262 261 267
858 7 263 262 261 267
859 6 263 262 261 268
860 7 263 262 261 268
861 1 262 261 266 264
862 2 262 261 266 264
863 6 266 261 262 269
864 7 266 261 262 269
865 6 266 261 262 270
866 7 266 261 262 270
867 9 267 261 262 269
868 9 267 261 262 270
869 9 268 261 262 269
870 9 268 261 262 270
871 12 624 625 627 628
872 10 626 625 627 628
873 11 626 625 627 628
874 15 1004 1013 1011 1009
875 3 1004 1013 1011 1012
876 8 433 435 436 440
877 8 433 435 436 441
878 8 433 435 436 442
879 1 11 12 13 14
880 2 11 12 13 14
881 4 13 12 11 16
882 5 13 12 11 16
883 6 13 12 11 17
884 7 13 12 11 17
885 6 13 12 11 18
886 7 13 12 11 18
887 8 349 351 352 356
888 8 349 351 352 357
889 8 349 351 352 358
890 3 211 216 214 213
891 3 211 216 214 215
892 8 214 216 211 217
893 8 214 216 211 218
894 3 212 213 214 215
895 3 212 213 214 216
896 8 214 213 212 219
897 8 214 213 212 220
898 3 1030 1034 1035 1036
899 15 1030 1034 1035 1037
900 14 1035 1034 1030 1039
901 14 1028 1029 1030 1031
902 14 1028 1029 1030 1034
903 14 1028 1029 1030 1039
904 15 1030 1029 1028 1032
905 14 1029 1030 1031 1032
906 14 1029 1030 1034 1035
907 14 1029 1030 1039 1037
908 14 1031 1030 1034 1035
909 14 1031 1030 1039 1037
910 14 1034 1030 1039 1037
911 1 211 212 213 214
912 2 211 212 213 214
913 4 213 212 211 216
914 5 213 212 211 216
915 6 213 212 211 217
916 7 213 212 211 217
917 6 213 212 211 218
918 7 213 212 211 218
919 3 1030 1031 1032 1033
920 14 1032 1031 1030 1034
921 14 1032 1031 1030 1039
922 15 1028 1032 1031 1030
923 3 1027 1028 1029 1030
924 13 1027 1028 1032 1031
925 13 1027 1028 1032 1033
926 13 1029 1028 1032 1031
927 13 1029 1028 1032 1033
928 10 971 972 973 974
929 11 971 972 973 974
930 12 971 972 973 975
931 8 973 972 971 977
932 8 973 972 971 978
933 8 973 972 971 979
934 14 1002 1003 1004 1005
935 14 1002 1003 1004 1008
936 14 1002 1003 1004 1013
937 15 1004 1003 1002 1006
938 3 1004 1005 1006 1007
939 14 1006 1005 1004 1008
940 14 1006 1005 1004 1013
941 14 1003 1004 1005 1006
942 14 1003 1004 1008 1009
943 14 1003 1004 1013 1011
944 14 1005 1004 1008 1009
945 14 1005 1004 1013 1011
946 14 1008 1004 1013 1011
947 3 1001 1002 1003 1004
948 13 1001 1002 1006 1005
949 13 1001 1002 1006 1007
950 13 1003 1002 1006 1005
951 13 1003 1002 1006 1007
952 15 1002 1006 1005 1004
953 10 419 420 421 422
954 11 419 420 421 422
955 12 419 420 421 423
956 8 421 420 419 425
957 8 421 420 419 426
958 8 421 420 419 427
959 1 32 31 36 34
960 2 32 31 36 34
961 6 36 31 32 39
962 7 36 31 32 39
963 6 36 31 32 40
964 7 36 31 32 40
965 9 37 31 32 39
966 9 37 31 32 40
967 9 38 31 32 39
968 9 38 31 32 40
969 3 31 36 34 33
970 3 31 36 34 35
971 8 34 36 31 37
972 8 34 36 31 38
973 3 1004 1008 1009 1010
974 15 1004 1008 1009 1011
975 14 1009 1008 1004 1013
976 13 1008 1009 1011 1012
977 13 1008 1009 1011 1013
978 13 1010 1009 1011 1012
979 13 1010 1009 1011 1013
980 12 420 421 423 424
981 10 422 421 423 424
982 11 422 421 423 424
983 8 421 423 424 428
984 8 421 423 424 429
985 8 421 423 424 430
986 1 82 81 86 84
987 2 82 81 86 84
988 6 86 81 82 89
989 7 86 81 82 89
990 6 86 81 82 90
991 7 86 81 82 90
992 9 87 81 82 89
993 9 87 81 82 90
994 9 88 81 82 89
995 9 88 81 82 90
996 3 81 86 84 83
997 3 81 86 84 85
998 8 84 86 81 87
999 8 84 86 81 88
1000 8 325 327 328 332
1001 8 325 327 328 333
1002 8 325 327 328 334
1003 1 81 82 83 84
1004 2 81 82 83 84
1005 4 83 82 81 86
1006 5 83 82 81 86
1007 6 83 82 81 87
1008 7 83 82 81 87
1009 6 83 82 81 88
1010 7 83 82 81 88
1011 8 361 363 364 368
1012 8 361 363 364 369
1013 8 361 363 364 370
1014 3 82 83 84 85
1015 3 82 83 84 86
1016 8 84 83 82 89
1017 8 84 83 82 90
1018 12 528 529 531 532
1019 10 530 529 531 532
1020 11 530 529 531 532
1021 8 529 531 532 536
1022 8 529 531 532 537
1023 8 529 531 532 538
1024 12 360 361 363 364
1025 10 362 361 363 364
1026 11 362 361 363 364
1027 12 348 349 351 352
1028 10 350 349 351 352
1029 11 350 349 351 352
1030 10 527 528 529 530
1031 11 527 528 529 530
1032 12 527 528 529 531
1033 8 529 528 527 533
1034 8 529 528 527 534
1035 8 529 528 527 535
1036 10 719 720 721 722
1037 11 719 720 721 722
1038 12 719 720 721 723
1039 8 721 720 719 725
1040 8 721 720 719 726
1041 8 721 720 719 727
1042 10 359 360 361 362
1043 11 359 360 361 362
1044 12 359 360 361 363
1045 8 361 360 359 365
1046 8 361 360 359 366
1047 8 361 360 359 367
1048 1 251 252 253 254
1049 2 251 252 253 254
1050 4 253 252 251 256
1051 5 253 252 251 256
1052 6 253 252 251 257
1053 7 253 252 251 257
1054 6 253 252 251 258
1055 7 253 252 251 258
1056 3 251 256 254 253
1057 3 251 256 254 255
1058 8 254 256 251 257
1059 8 254 256 251 258
1060 1 252 251 256 254
1061 2 252 251 256 254
1062 6 256 251 252 259
1063 7 256 251 252 259
1064 6 256 251 252 260
1065 7 256 251 252 260
1066 9 257 251 252 259
1067 9 257 251 252 260
1068 9 258 251 252 259
1069 9 258 251 252 260
1070 3 252 253 254 255
1071 3 252 253 254 256
1072 8 254 253 252 259
1073 8 254 253 252 260
1074 10 347 348 349 350
1075 11 347 348 349 350
1076 12 347 348 349 351
1077 8 349 348 347 353
1078 8 349 348 347 354
1079 8 349 348 347 355
1080 1 212 211 216 214
1081 2 212 211 216 214
1082 6 216 211 212 219
1083 7 216 211 212 219
1084 6 216 211 212 220
1085 7 216 211 212 220
1086 9 217 211 212 219
1087 9 217 211 212 220
1088 9 218 211 212 219
1089 9 218 211 212 220
1090 8 973 975 976 980
1091 8 973 975 976 981
1092 8 973 975 976 982
1093 8 625 627 628 632
1094 8 625 627 628 633
1095 8 625 627 628 634
1096 10 779 780 781 782
1097 11 779 780 781 782
1098 12 779 780 781 783
1099 8 781 780 779 785
1100 8 781 780 779 786
1101 8 781 780 779 787
1102 12 780 781 783 784
1103 10 782 781 783 784
1104 11 782 781 783 784
1105 3 1040 1041 1042 1043
1106 13 1040 1041 1045 1044
1107 13 1040 1041 1045 1046
1108 13 1042 1041 1045 1044
1109 13 1042 1041 1045 1046
1110 14 1041 1042 1043 1044
1111 14 1041 1042 1043 1047
1112 14 1041 1042 1043 1052
1113 15 1043 1042 1041 1045
1114 14 1042 1043 1044 1045
1115 14 1042 1043 1047 1048
1116 14 1042 1043 1052 1050
1117 14 1044 1043 1047 1048
1118 14 1044 1043 1052 1050
1119 14 1047 1043 1052 1050
1120 15 1041 1045 1044 1043
1121 15 1043 1052 1050 1048
1122 3 1043 1052 1050 1051
1123 3 1043 1044 1045 1046
1124 14 1045 1044 1043 1047
1125 14 1045 1044 1043 1052
1126 12 948 949 951 952
1127 10 950 949 951 952
1128 11 950 949 951 952
1129 1 192 191 196 194
1130 2 192 191 196 194
1131 6 196 191 192 199
1132 7 196 191 192 199
1133 6 196 191 192 200
1134 7 196 191 192 200
1135 9 197 191 192 199
1136 9 197 191 192 200
1137 9 198 191 192 199
1138 9 198 191 192 200
1139 1 191 192 193 194
1140 2 191 192 193 194
1141 4 193 192 191 196
1142 5 193 192 191 196
1143 6 193 192 191 197
1144 7 193 192 191 197
1145 6 193 192 191 198
1146 7 193 192 191 198
1147 8 949 951 952 956
1148 8 949 951 952 957
1149 8 949 951 952 958
1150 13 1034 1035 1037 1038
1151 13 1034 1035 1037 1039
1152 13 1036 1035 1037 1038
1153 13 1036 1035 1037 1039
1154 8 481 483 484 488
1155 8 481 483 484 489
1156 8 481 483 484 490
1157 12 480 481 483 484
1158 10 482 481 483 484
1159 11 482 481 483 484
1160 10 479 480 481 482
1161 11 479 480 481 482
1162 12 479 480 481 483
1163 8 481 480 479 485
1164 8 481 480 479 486
1165 8 481 480 479 487
1166 12 972 973 975 976
1167 10 974 973 975 976
1168 11 974 973 975 976
1169 3 191 196 194 193
1170 3 191 196 194 195
1171 8 194 196 191 197
1172 8 194 196 191 198
1173 3 192 193 194 195
1174 3 192 193 194 196
1175 8 194 193 192 199
1176 8 194 193 192 200
1177 8 901 903 904 908
1178 8 901 903 904 909
1179 8 901 903 904 910
1180 8 637 639 640 644
1181 8 637 639 640 645
1182 8 637 639 640 646
1183 10 635 636 637 638
1184 11 635 636 637 638
1185 12 635 636 637 639
1186 8 637 636 635 641
1187 8 637 636 635 642
1188 8 637 636 635 643
1189 12 636 637 639 640
1190 10 638 637 639 640
1191 11 638 637 639 640
1192 10 671 672 673 674
1193 11 671 672 673 674
1194 12 671 672 673 675
1195 8 673 672 671 677
1196 8 673 672 671 678
1197 8 673 672 671 679
1198 12 672 673 675 676
1199 10 674 673 675 676
1200 11 674 673 675 676
1201 8 673 675 676 680
1202 8 673 675 676 681
1203 8 673 675 676 682
1204 8 337 339 340 344
1205 8 337 339 340 345
1206 8 337 339 340 346
1207 10 335 336 337 338
1208 11 335 336 337 338
1209 12 335 336 337 339
1210 8 337 336 335 341
1211 8 337 336 335 342
1212 8 337 336 335 343
1213 12 336 337 339 340
1214 10 338 337 339 340
1215 11 338 337 339 340
1216 8 781 783 784 788
1217 8 781 783 784 789
1218 8 781 783 784 790
1219 3 1043 1047 1048 1049
1220 15 1043 1047 1048 1050
1221 14 1048 1047 1043 1052
1222 13 1047 1048 1050 1051
1223 13 1047 1048 1050 1052
1224 13 1049 1048 1050 1051
1225 13 1049 1048 1050 1052
1226 8 517 519 520 524
1227 8 517 519 520 525
1228 8 517 519 520 526
1229 8 769 771 772 776
1230 8 769 771 772 777
1231 8 769 771 772 778
1232 10 863 864 865 866
1233 11 863 864 865 866
1234 12 863 864 865 867
1235 8 865 864 863 869
1236 8 865 864 863 870
1237 8 865 864 863 871
1238 12 864 865 867 868
1239 10 866 865 867 868
1240 11 866 865 867 868
1241 1 91 92 93 94
1242 2 91 92 93 94
1243 4 93 92 91 96
1244 5 93 92 91 96
1245 6 93 92 91 97
1246 7 93 92 91 97
1247 6 93 92 91 98
1248 7 93 92 91 98
1249 10 695 696 697 698
1250 11 695 696 697 698
1251 12 695 696 697 699
1252 8 697 696 695 701
1253 8 697 696 695 702
1254 8 697 696 695 703
1255 12 696 697 699 700
1256 10 698 697 699 700
1257 11 698 697 699 700
1258 1 92 91 96 94
1259 2 92 91 96 94
1260 6 96 91 92 99
1261 7 96 91 92 99
1262 6 96 91 92 100
1263 7 96 91 92 100
1264 9 97 91 92 99
1265 9 97 91 92 100
1266 9 98 91 92 99
1267 9 98 91 92 100
1268 10 947 948 949 950
1269 11 947 948 949 950
1270 12 947 948 949 951
1271 8 949 948 947 953
1272 8 949 948 947 954
1273 8 949 948 947 955
1274 3 1069 1070 1071 1072
1275 14 1071 1070 1069 1073
1276 14 1071 1070 1069 1078
1277 15 1067 1071 1070 1069
1278 12 912 913 915 916
1279 10 914 913 915 916
1280 11 914 913 915 916
1281 8 913 915 916 920
1282 8 913 915 916 921
1283 8 913 915 916 922
1284 3 1014 1015 1016 1017
1285 13 1014 1015 1019 1018
1286 13 1014 1015 1019 1020
1287 13 1016 1015 1019 1018
1288 13 1016 1015 1019 1020
1289 15 1017 1026 1024 1022
1290 3 1017 1026 1024 1025
1291 14 1015 1016 1017 1018
1292 14 1015 1016 1017 1021
1293 14 1015 1016 1017 1026
1294 15 1017 1016 1015 1019
1295 1 202 201 206 204
1296 2 202 201 206 204
1297 6 206 201 202 209
1298 7 206 201 202 209
1299 6 206 201 202 210
1300 7 206 201 202 210
1301 9 207 201 202 209
1302 9 207 201 202 210
1303 9 208 201 202 209
1304 9 208 201 202 210
1305 3 201 206 204 203
1306 3 201 206 204 205
1307 8 204 206 201 207
1308 8 204 206 201 208
1309 1 201 202 203 204
1310 2 201 202 203 204
1311 4 203 202 201 206
1312 5 203 202 201 206
1313 6 203 202 201 207
1314 7 203 202 201 207
1315 6 203 202 201 208
1316 7 203 202 201 208
1317 3 202 203 204 205
1318 3 202 203 204 206
1319 8 204 203 202 209
1320 8 204 203 202 210
1321 12 756 757 759 760
1322 10 758 757 759 760
1323 11 758 757 759 760
1324 8 757 759 760 764
1325 8 757 759 760 765
1326 8 757 759 760 766
1327 10 911 912 913 914
1328 11 911 912 913 914
1329 12 911 912 913 915
1330 8 913 912 911 917
1331 8 913 912 911 918
1332 8 913 912 911 919
1333 1 271 272 273 274
1334 2 271 272 273 274
1335 4 273 272 271 276
1336 5 273 272 271 276
1337 6 273 272 271 277
1338 7 273 272 271 277
1339 6 273 272 271 278
1340 7 273 272 271 278
1341 1 272 271 276 274
1342 2 272 271 276 274
1343 6 276 271 272 279
1344 7 276 271 272 279
1345 6 276 271 272 280
1346 7 276 271 272 280
1347 9 277 271 272 279
1348 9 277 271 272 280
1349 9 278 271 272 279
1350 9 278 271 272 280
1351 12 900 901 903 904
1352 10 902 901 903 904
1353 11 902 901 903 904
1354 10 899 900 901 902
1355 11 899 900 901 902
1356 12 899 900 901 903
1357 8 901 900 899 905
1358 8 901 900 899 906
1359 8 901 900 899 907
1360 3 272 273 274 275
1361 3 272 273 274 276
1362 8 274 273 272 279
1363 8 274 273 272 280
1364 3 271 276 274 273
1365 3 271 276 274 275
1366 8 274 276 271 277
1367 8 274 276 271 278
1368 15 1015 1019 1018 1017
1369 3 1017 1018 1019 1020
1370 14 1019 1018 1017 1021
1371 14 1019 1018 1017 1026
1372 10 611 612 613 614
1373 11 611 612 613 614
1374 12 611 612 613 615
1375 8 613 612 611 617
1376 8 613 612 611 618
1377 8 613 612 611 619
1378 12 612 613 615 616
1379 10 614 613 615 616
1380 11 614 613 615 616
1381 14 1016 1017 1018 1019
1382 14 1016 1017 1021 1022
1383 14 1016 1017 1026 1024
1384 14 1018 1017 1021 1022
1385 14 1018 1017 1026 1024
1386 14 1021 1017 1026 1024
1387 8 613 615 616 620
1388 8 613 615 616 621
1389 8 613 615 616 622
1390 8 877 879 880 884
1391 8 877 879 880 885
1392 8 877 879 880 886
1393 10 515 516 517 518
1394 11 515 516 517 518
1395 12 515 516 517 519
1396 8 517 516 515 521
1397 8 517 516 515 522
1398 8 517 516 515 523
1399 12 516 517 519 520
1400 10 518 517 519 520
1401 11 518 517 519 520
1402 10 827 828 829 830
1403 11 827 828 829 830
1404 12 827 828 829 831
1405 8 829 828 827 833
1406 8 829 828 827 834
1407 8 829 828 827 835
1408 8 829 831 832 836
1409 8 829 831 832 837
1410 8 829 831 832 838
1411 12 828 829 831 832
1412 10 830 829 831 832
1413 11 830 829 831 832
1414 3 292 293 294 295
1415 3 292 293 294 296
1416 8 294 293 292 299
1417 8 294 293 292 300
1418 1 291 292 293 294
1419 2 291 292 293 294
1420 4 293 292 291 296
1421 5 293 292 291 296
1422 6 293 292 291 297
1423 7 293 292 291 297
1424 6 293 292 291 298
1425 7 293 292 291 298
1426 1 292 291 296 294
1427 2 292 291 296 294
1428 6 296 291 292 299
1429 7 296 291 292 299
1430 6 296 291 292 300
1431 7 296 291 292 300
1432 9 297 291 292 299
1433 9 297 291 292 300
1434 9 298 291 292 299
1435 9 298 291 292 300
1436 3 291 296 294 293
1437 3 291 296 294 295
1438 8 294 296 291 297
1439 8 294 296 291 298
1440 12 768 769 771 772
1441 10 770 769 771 772
1442 11 770 769 771 772
1443 12 444 445 447 448
1444 10 446 445 447 448
1445 11 446 445 447 448
1446 8 445 447 448 452
1447 8 445 447 448 453
1448 8 445 447 448 454
1449 10 443 444 445 446
1450 11 443 444 445 446
1451 12 443 444 445 447
1452 8 445 444 443 449
1453 8 445 444 443 450
1454 8 445 444 443 451
1455 1 22 21 26 24
1456 2 22 21 26 24
1457 6 26 21 22 29
1458 7 26 21 22 29
1459 6 26 21 22 30
1460 7 26 21 22 30
1461 9 27 21 22 29
1462 9 27 21 22 30
1463 9 28 21 22 29
1464 9 28 21 22 30
1465 1 21 22 23 24
1466 2 21 22 23 24
1467 4 23 22 21 26
1468 5 23 22 21 26
1469 6 23 22 21 27
1470 7 23 22 21 27
1471 6 23 22 21 28
1472 7 23 22 21 28
1473 10 755 756 757 758
1474 11 755 756 757 758
1475 12 755 756 757 759
1476 8 757 756 755 761
1477 8 757 756 755 762
1478 8 757 756 755 763
1479 3 262 263 264 265
1480 3 262 263 264 266
1481 8 264 263 262 269
1482 8 264 263 262 270
1483 3 261 266 264 263
1484 3 261 266 264 265
1485 8 264 266 261 267
1486 8 264 266 261 268
1487 8 865 867 868 872
1488 8 865 867 868 873
1489 8 865 867 868 874
1490 8 493 495 496 500
1491 8 493 495 496 501
1492 8 493 495 496 502
1493 3 142 143 144 145
1494 3 142 143 144 146
1495 8 144 143 142 149
1496 8 144 143 142 150
1497 1 232 231 236 234
1498 2 232 231 236 234
1499 6 236 231 232 239
1500 7 236 231 232 239
1501 6 236 231 232 240
1502 7 236 231 232 240
1503 9 237 231 232 239
1504 9 237 231 232 240
1505 9 238 231 232 239
1506 9 238 231 232 240
1507 3 231 236 234 233
1508 3 231 236 234 235
1509 8 234 236 231 237
1510 8 234 236 231 238
1511 1 142 141 146 144
1512 2 142 141 146 144
1513 6 146 141 142 149
1514 7 146 141 142 149
1515 6 146 141 142 150
1516 7 146 141 142 150
1517 9 147 141 142 149
1518 9 147 141 142 150
1519 9 148 141 142 149
1520 9 148 141 142 150
1521 3 141 146 144 143
1522 3 141 146 144 145
1523 8 144 146 141 147
1524 8 144 146 141 148
1525 1 141 142 143 144
1526 2 141 142 143 144
1527 4 143 142 141 146
1528 5 143 142 141 146
1529 6 143 142 141 147
1530 7 143 142 141 147
1531 6 143 142 141 148
1532 7 143 142 141 148
1533 1 231 232 233 234
1534 2 231 232 233 234
1535 4 233 232 231 236
1536 5 233 232 231 236
1537 6 233 232 231 237
1538 7 233 232 231 237
1539 6 233 232 231 238
1540 7 233 232 231 238
1541 3 232 233 234 235
1542 3 232 233 234 236
1543 8 234 233 232 239
1544 8 234 233 232 240
1545 12 324 325 327 328
1546 10 326 325 327 328
1547 11 326 325 327 328
1548 8 697 699 700 704
1549 8 697 699 700 705
1550 8 697 699 700 706
1551 12 492 493 495 496
1552 10 494 493 495 496
1553 11 494 493 495 496
1554 10 491 492 493 494
1555 11 491 492 493 494
1556 12 491 492 493 495
1557 8 493 492 491 497
1558 8 493 492 491 498
1559 8 493 492 491 499
1560 10 323 324 325 326
1561 11 323 324 325 326
1562 12 323 324 325 327
1563 8 325 324 323 329
1564 8 325 324 323 330
1565 8 325 324 323 331
1566 3 91 96 94 93
1567 3 91 96 94 95
1568 8 94 96 91 97
1569 8 94 96 91 98
1570 3 1017 1021 1022 1023
1571 15 1017 1021 1022 1024
1572 14 1022 1021 1017 1026
1573 13 1021 1022 1024 1025
1574 13 1021 1022 1024 1026
1575 13 1023 1022 1024 1025
1576 13 1023 1022 1024 1026
1577 3 21 26 24 23
1578 3 21 26 24 25
1579 8 24 26 21 27
1580 8 24 26 21 28
1581 3 22 23 24 25
1582 3 22 23 24 26
1583 8 24 23 22 29
1584 8 24 23 22 30
1585 12 552 553 555 556
1586 10 554 553 555 556
1587 11 554 553 555 556
1588 8 553 555 556 560
1589 8 553 555 556 561
1590 8 553 555 556 562
1591 10 551 552 553 554
1592 11 551 552 553 554
1593 12 551 552 553 555
1594 8 553 552 551 557
1595 8 553 552 551 558
1596 8 553 552 551 559
1597 1 121 122 123 124
1598 2 121 122 123 124
1599 4 123 122 121 126
1600 5 123 122 121 126
1601 6 123 122 121 127
1602 7 123 122 121 127
1603 6 123 122 121 128
1604 7 123 122 121 128
1605 1 122 121 126 124
1606 2 122 121 126 124
1607 6 126 121 122 129
1608 7 126 121 122 129
1609 6 126 121 122 130
1610 7 126 121 122 130
1611 9 127 121 122 129
1612 9 127 121 122 130
1613 9 128 121 122 129
1614 9 128 121 122 130
1615 10 659 660 661 662
1616 11 659 660 661 662
1617 12 659 660 661 663
1618 8 661 660 659 665
1619 8 661 660 659 666
1620 8 661 660 659 667
1621 10 791 792 793 794
1622 11 791 792 793 794
1623 12 791 792 793 795
1624 8 793 792 791 797
1625 8 793 792 791 798
1626 8 793 792 791 799
1627 8 793 795 796 800
1628 8 793 795 796 801
1629 8 793 795 796 802
1630 8 661 663 664 668
1631 8 661 663 664 669
1632 8 661 663 664 670
1633 10 647 648 649 650
1634 11 647 648 649 650
1635 12 647 648 649 651
1636 8 649 648 647 653
1637 8 649 648 647 654
1638 8 649 648 647 655
1639 12 792 793 795 796
1640 10 794 793 795 796
1641 11 794 793 795 796
1642 3 122 123 124 125
1643 3 122 123 124 126
1644 8 124 123 122 129
1645 8 124 123 122 130
1646 12 660 661 663 664
1647 10 662 661 663 664
1648 11 662 661 663 664
1649 12 648 649 651 652
1650 10 650 649 651 652
1651 11 650 649 651 652
1652 8 649 651 652 656
1653 8 649 651 652 657
1654 8 649 651 652 658
1655 3 121 126 124 123
1656 3 121 126 124 125
1657 8 124 126 121 127
1658 8 124 126 121 128

Impropers

1 1 34 33 35 36
2 1 457 458 459 456
3 1 385 387 384 386
4 1 457 456 458 459
5 1 385 384 386 387
6 1 385 386 387 384
7 1 54 53 55 56
8 1 721 722 723 720
9 1 54 56 53 55
10 1 457 459 456 458
11 1 721 723 720 722
12 1 937 936 938 939
13 1 937 938 939 936
14 1 64 66 63 65
15 1 601 602 603 600
16 1 397 399 396 398
17 1 64 63 65 66
18 1 601 600 602 603
19 1 577 576 578 579
20 1 961 963 960 962
21 1 961 962 963 960
22 1 961 960 962 963
23 1 1045 1046 1041 1044
24 1 625 624 626 627
25 1 577 578 579 576
26 1 577 579 576 578
27 1 284 283 285 286
28 1 284 286 283 285
29 1 284 285 286 283
30 1 733 734 735 732
31 1 733 735 732 734
32 1 433 434 435 432
33 1 433 432 434 435
34 1 733 732 734 735
35 1 313 315 312 314
36 1 937 939 936 938
37 1 14 15 16 13
38 1 14 13 15 16
39 1 14 16 13 15
40 1 1037 1038 1039 1035
41 1 1037 1039 1035 1038
42 1 1063 1064 1065 1061
43 1 313 312 314 315
44 1 505 507 504 506
45 1 44 43 45 46
46 1 313 314 315 312
47 1 44 46 43 45
48 1 34 35 36 33
49 1 685 687 684 686
50 1 154 156 153 155
51 1 104 103 105 106
52 1 104 105 106 103
53 1 104 106 103 105
54 1 397 396 398 399
55 1 397 398 399 396
56 1 74 75 76 73
57 1 74 73 75 76
58 1 841 843 840 842
59 1 44 45 46 43
60 1 841 840 842 843
61 1 589 588 590 591
62 1 589 590 591 588
63 1 841 842 843 840
64 1 589 591 588 590
65 1 817 816 818 819
66 1 817 819 816 818
67 1 154 155 156 153
68 1 685 686 687 684
69 1 685 684 686 687
70 1 154 153 155 156
71 1 74 76 73 75
72 1 925 926 927 924
73 1 925 924 926 927
74 1 1067 1066 1068 1071
75 1 925 927 924 926
76 1 134 136 133 135
77 1 625 626 627 624
78 1 1061 1063 1060 1062
79 1 505 504 506 507
80 1 94 93 95 96
81 1 985 984 986 987
82 1 985 986 987 984
83 1 985 987 984 986
84 1 469 470 471 468
85 1 224 225 226 223
86 1 224 226 223 225
87 1 174 176 173 175
88 1 224 223 225 226
89 1 877 878 879 876
90 1 304 303 305 306
91 1 877 876 878 879
92 1 304 305 306 303
93 1 304 306 303 305
94 1 1074 1076 1073 1075
95 1 1074 1075 1076 1073
96 1 1074 1073 1075 1076
97 1 1076 1074 1077 1078
98 1 1076 1078 1074 1077
99 1 1067 1068 1071 1066
100 1 805 806 807 804
101 1 373 375 372 374
102 1 373 372 374 375
103 1 373 374 375 372
104 1 1071 1067 1070 1072
105 1 174 173 175 176
106 1 889 888 890 891
107 1 4 5 6 3
108 1 469 468 470 471
109 1 4 3 5 6
110 1 469 471 468 470
111 1 889 890 891 888
112 1 889 891 888 890
113 1 54 55 56 53
114 1 565 567 564 566
115 1 565 566 567 564
116 1 94 95 96 93
117 1 4 6 3 5
118 1 601 603 600 602
119 1 184 185 186 183
120 1 184 186 183 185
121 1 64 65 66 63
122 1 244 245 246 243
123 1 244 246 243 245
124 1 244 243 245 246
125 1 184 183 185 186
126 1 1054 1053 1055 1058
127 1 1058 1054 1057 1059
128 1 1058 1059 1054 1057
129 1 1054 1058 1053 1055
130 1 745 746 747 744
131 1 745 747 744 746
132 1 114 116 113 115
133 1 541 543 540 542
134 1 745 744 746 747
135 1 541 540 542 543
136 1 114 113 115 116
137 1 134 133 135 136
138 1 134 135 136 133
139 1 1076 1077 1078 1074
140 1 805 807 804 806
141 1 409 408 410 411
142 1 409 410 411 408
143 1 409 411 408 410
144 1 565 564 566 567
145 1 805 804 806 807
146 1 769 768 770 771
147 1 1054 1055 1058 1053
148 1 1063 1065 1061 1064
149 1 164 163 165 166
150 1 164 165 166 163
151 1 164 166 163 165
152 1 1058 1057 1059 1054
153 1 1061 1060 1062 1063
154 1 1063 1061 1064 1065
155 1 1061 1062 1063 1060
156 1 114 115 116 113
157 1 709 710 711 708
158 1 853 852 854 855
159 1 709 708 710 711
160 1 853 855 852 854
161 1 709 711 708 710
162 1 853 854 855 852
163 1 553 554 555 552
164 1 1011 1013 1009 1012
165 1 1009 1011 1008 1010
166 1 1011 1012 1013 1009
167 1 433 435 432 434
168 1 1035 1037 1034 1036
169 1 529 530 531 528
170 1 349 351 348 350
171 1 505 506 507 504
172 1 214 215 216 213
173 1 214 216 213 215
174 1 214 213 215 216
175 1 1035 1034 1036 1037
176 1 1028 1029 1032 1027
177 1 1028 1027 1029 1032
178 1 1032 1031 1033 1028
179 1 1028 1032 1027 1029
180 1 1032 1033 1028 1031
181 1 1032 1028 1031 1033
182 1 973 972 974 975
183 1 865 866 867 864
184 1 1002 1003 1006 1001
185 1 1006 1005 1007 1002
186 1 1006 1002 1005 1007
187 1 1002 1006 1001 1003
188 1 421 420 422 423
189 1 34 36 33 35
190 1 1009 1008 1010 1011
191 1 1011 1009 1012 1013
192 1 421 423 420 422
193 1 1009 1010 1011 1008
194 1 421 422 423 420
195 1 84 86 83 85
196 1 325 327 324 326
197 1 361 363 360 362
198 1 84 83 85 86
199 1 84 85 86 83
200 1 1006 1007 1002 1005
201 1 1002 1001 1003 1006
202 1 529 531 528 530
203 1 361 362 363 360
204 1 529 528 530 531
205 1 721 720 722 723
206 1 361 360 362 363
207 1 254 256 253 255
208 1 254 253 255 256
209 1 349 350 351 348
210 1 254 255 256 253
211 1 349 348 350 351
212 1 973 975 972 974
213 1 625 627 624 626
214 1 781 780 782 783
215 1 781 782 783 780
216 1 1041 1040 1042 1045
217 1 1045 1041 1044 1046
218 1 1041 1042 1045 1040
219 1 1041 1045 1040 1042
220 1 1050 1052 1048 1051
221 1 1045 1044 1046 1041
222 1 817 818 819 816
223 1 949 950 951 948
224 1 949 951 948 950
225 1 1037 1035 1038 1039
226 1 481 483 480 482
227 1 481 482 483 480
228 1 481 480 482 483
229 1 1035 1036 1037 1034
230 1 637 638 639 636
231 1 194 196 193 195
232 1 194 193 195 196
233 1 194 195 196 193
234 1 901 903 900 902
235 1 637 639 636 638
236 1 637 636 638 639
237 1 673 672 674 675
238 1 673 674 675 672
239 1 673 675 672 674
240 1 337 339 336 338
241 1 337 336 338 339
242 1 781 783 780 782
243 1 1048 1047 1049 1050
244 1 973 974 975 972
245 1 204 205 206 203
246 1 1050 1048 1051 1052
247 1 1048 1049 1050 1047
248 1 1050 1051 1052 1048
249 1 1048 1050 1047 1049
250 1 517 519 516 518
251 1 517 518 519 516
252 1 337 338 339 336
253 1 769 771 768 770
254 1 865 864 866 867
255 1 697 696 698 699
256 1 697 698 699 696
257 1 949 948 950 951
258 1 1071 1070 1072 1067
259 1 1067 1071 1066 1068
260 1 913 915 912 914
261 1 1071 1072 1067 1070
262 1 1019 1015 1018 1020
263 1 1015 1014 1016 1019
264 1 1024 1026 1022 1025
265 1 1015 1016 1019 1014
266 1 204 206 203 205
267 1 204 203 205 206
268 1 757 759 756 758
269 1 757 758 759 756
270 1 913 914 915 912
271 1 913 912 914 915
272 1 901 902 903 900
273 1 901 900 902 903
274 1 274 273 275 276
275 1 274 276 273 275
276 1 174 175 176 173
277 1 1015 1019 1014 1016
278 1 1019 1020 1015 1018
279 1 274 275 276 273
280 1 1019 1018 1020 1015
281 1 613 612 614 615
282 1 613 614 615 612
283 1 613 615 612 614
284 1 877 879 876 878
285 1 517 516 518 519
286 1 829 828 830 831
287 1 829 831 828 830
288 1 541 542 543 540
289 1 294 295 296 293
290 1 294 293 295 296
291 1 769 770 771 768
292 1 294 296 293 295
293 1 1024 1025 1026 1022
294 1 445 447 444 446
295 1 445 444 446 447
296 1 445 446 447 444
297 1 757 756 758 759
298 1 264 265 266 263
299 1 264 263 265 266
300 1 264 266 263 265
301 1 865 867 864 866
302 1 124 125 126 123
303 1 493 495 492 494
304 1 493 494 495 492
305 1 144 143 145 146
306 1 234 236 233 235
307 1 144 146 143 145
308 1 144 145 146 143
309 1 234 233 235 236
310 1 234 235 236 233
311 1 325 326 327 324
312 1 1022 1024 1021 1023
313 1 793 794 795 792
314 1 697 699 696 698
315 1 493 492 494 495
316 1 325 324 326 327
317 1 1022 1023 1024 1021
318 1 94 96 93 95
319 1 24 25 26 23
320 1 1022 1021 1023 1024
321 1 1024 1022 1025 1026
322 1 24 26 23 25
323 1 24 23 25 26
324 1 553 555 552 554
325 1 553 552 554 555
326 1 661 660 662 663
327 1 829 830 831 828
328 1 793 792 794 795
329 1 793 795 792 794
330 1 661 663 660 662
331 1 649 648 650 651
332 1 124 123 125 126
333 1 661 662 663 660
334 1 649 651 648 650
335 1 649 650 651 648
336 1 124 126 123 125
