LAMMPS (22 Jul 2025 - Update 4)
# Restart continuation NPT chunk for composition tag=ec_dmc_3_7_libob_0p8m_298K
# Generated by scripts/curate_ff_md_data.py

read_restart    ${input_restart}
read_restart    ec_dmc_3_7_libob_0p8m_298K.npt.1.restart
Reading restart file ...
  restart file = 22 Jul 2025, LAMMPS = 22 Jul 2025
  restoring atom style full from restart
  orthogonal box = (-0.72610154 -0.72910154 -0.78010155) to (23.948314 23.945314 23.894314)
  1 by 2 by 2 MPI processor grid
  restoring pair style lj/cut/coul/long from restart
  restoring bond style harmonic from restart
  restoring angle style harmonic from restart
  restoring dihedral style opls from restart
  restoring improper style cvff from restart
  1078 atoms
  1021 bonds
  1628 angles
  1658 dihedrals
  336 impropers
Finding 1-2 1-3 1-4 neighbors ...
  special bond factors lj:    0        0        0.5     
  special bond factors coul:  0        0        0.5     
     4 = max # of 1-2 neighbors
     5 = max # of 1-3 neighbors
    12 = max # of 1-4 neighbors
    12 = max # of special neighbors
  special bonds CPU = 0.002 seconds
  read_restart CPU = 0.018 seconds
kspace_style    pppm 1.0e-4
neighbor        2.0 bin
neigh_modify    every 1 delay 0 check yes
timestep        1.0

thermo_style    custom step time temp press vol density pe ke etotal
thermo          100
variable        tracked_temperature_K equal temp
variable        tracked_density_g_cm3 equal density
variable        tracked_volume_A3 equal vol
variable        tracked_pressure_atm equal press
fix             NPT_EQ all npt temp 298.15 298.15 100.0 iso 1.0 1.0 1000.0
fix             NPT_TRACE all ave/time 100 1 100 v_tracked_temperature_K v_tracked_density_g_cm3 v_tracked_volume_A3 v_tracked_pressure_atm file ${thermo_trace}
fix             NPT_TRACE all ave/time 100 1 100 v_tracked_temperature_K v_tracked_density_g_cm3 v_tracked_volume_A3 v_tracked_pressure_atm file npt_thermo.2.dat
run             5000
PPPM initialization ...
  using 12-bit tables for long-range coulomb
  G vector (1/distance) = 0.20777833
  grid = 9 9 9
  stencil order = 5
  estimated absolute RMS force accuracy = 0.020658751
  estimated relative force accuracy = 6.2213215e-05
  using double precision FFTW3
  3d grid and FFT values/proc = 1400 225
Generated 21 of 21 mixed pair_coeff terms from arithmetic mixing rule
Neighbor list info ...
  update: every = 1 steps, delay = 0 steps, check = yes
  max neighbors/atom: 2000, page size: 100000
  master list distance cutoff = 14
  ghost atom cutoff = 14
  binsize = 7, bins = 4 4 4
  1 neighbor lists, perpetual/occasional/extra = 1 0 0
  (1) pair lj/cut/coul/long, perpetual
      attributes: half, newton on
      pair build: half/bin/newton
      stencil: half/bin/3d
      bin: standard
Per MPI rank memory allocation (min/avg/max) = 13.04 | 13.33 | 13.43 Mbytes
   Step          Time           Temp          Press          Volume        Density         PotEng         KinEng         TotEng    
      5447   5447           309.89183     -610.52384      15022.445      0.99783558     1093.714       994.8558       2088.5698    
      5500   5500           297.74729     -3319.7148      15025.887      0.99760696     1129.4268      955.86778      2085.2946    
      5600   5600           290.70643     -1899.7428      14963.407      1.0017725      1101.8749      933.26427      2035.1392    
      5700   5700           299.56319     -252.43157      14821.079      1.0113926      1048.3397      961.69743      2010.0372    
      5800   5800           296.84122     -3186.3056      14585.939      1.0276972      1065.4739      952.95899      2018.4329    
      5900   5900           300.11812     -1620.3235      14325.995      1.0463448      1058.0204      963.47894      2021.4993    
      6000   6000           292.09494     -344.35267      14153.556      1.0590929      1080.3453      937.72186      2018.0672    
      6100   6100           295.12219      54.609519      14090.854      1.0638056      1028.0788      947.44034      1975.5191    
      6200   6200           289.41803     -317.06533      14069.755      1.0654009      1009.9269      929.12808      1939.0549    
      6300   6300           299.7039       214.64444      14040.357      1.0676317      992.03244      962.14914      1954.1816    
      6400   6400           298.37116     -1496.7112      14059.19       1.0662015      1037.2376      957.87062      1995.1083    
      6500   6500           307.45582      51.572594      14084.564      1.0642807      1033.2206      987.0354       2020.256     
      6600   6600           310.62314      2289.2915      14095.904      1.0634245      1054.9355      997.20353      2052.139     
      6700   6700           300.8304       1154.6133      14163.861      1.0583223      1052.8892      965.7656       2018.6548    
      6800   6800           298.71844     -2225.27        14162.32       1.0584375      1008.3556      958.98548      1967.341     
      6900   6900           300.05106     -455.50095      14117.767      1.0617777      994.15883      963.26364      1957.4225    
      7000   7000           300.20989      2335.0811      14068.657      1.0654841      1018.2189      963.77356      1981.9925    
      7100   7100           306.9007      -440.57531      14098.203      1.0632511      1041.2502      985.25327      2026.5035    
      7200   7200           307.48938      524.06683      14069.213      1.0654419      1035.5484      987.14313      2022.6915    
      7300   7300           286.33187      2121.7567      13983.16       1.0719987      1025.2346      919.22048      1944.455     
      7400   7400           290.86402     -1577.7002      13966.37       1.0732874      1010.7803      933.77021      1944.5505    
      7500   7500           305.44235     -1169.9552      13956.082      1.0740787      998.53974      980.5715       1979.1112    
      7600   7600           308.60441      344.92399      13946.191      1.0748404      1016.8068      990.72276      2007.5295    
      7700   7700           308.56358      3049.6131      13868.888      1.0808314      1021.5186      990.59165      2012.1103    
      7800   7800           295.0244      -928.23542      13858.447      1.0816457      998.15412      947.1264       1945.2805    
      7900   7900           295.97279     -1822.7559      13901.688      1.0782813      975.98271      950.17105      1926.1538    
      8000   8000           298.2059       309.1119       13907.593      1.0778235      1005.8238      957.34006      1963.1638    
      8100   8100           296.84602     -1847.811       13898.788      1.0785063      1040.5454      952.9744       1993.5198    
      8200   8200           300.99286      19.856327      13881.348      1.0798612      1039.6071      966.28713      2005.8942    
      8300   8300           297.41971      2288.3879      13839.368      1.0831369      1040.5078      954.81613      1995.324     
      8400   8400           295.42473      1994.1807      13794.602      1.0866518      1025.988       948.4116       1974.3996    
      8500   8500           285.85977     -653.99352      13758.483      1.0895046      1039.312       917.70489      1957.0169    
      8600   8600           291.79339     -409.23152      13752.493      1.0899791      1029.8375      936.75378      1966.5913    
      8700   8700           311.47458     -1639.0792      13737.747      1.0911491      980.16393      999.93693      1980.1009    
      8800   8800           296.95855     -788.84809      13701.1        1.0940676      1021.7618      953.33565      1975.0975    
      8900   8900           294.37384     -1208.222       13664.831      1.0969715      992.67779      945.03787      1937.7157    
      9000   9000           296.55556      383.51587      13675.766      1.0960944      948.05431      952.04193      1900.0962    
      9100   9100           287.17388      2026.0299      13636.171      1.099277       984.51147      921.92362      1906.4351    
      9200   9200           306.51259      780.77369      13623.387      1.1003086      996.63208      984.0073       1980.6394    
      9300   9300           299.37849     -743.5545       13611.057      1.1013053      1015.1366      961.10446      1976.2411    
      9400   9400           290.61584     -1908.6703      13632.008      1.0996127      1005.7486      932.97344      1938.7221    
      9500   9500           297.42954      702.8633       13710.596      1.0933099      963.16822      954.8477       1918.0159    
      9600   9600           289.72156     -1244.6418      13795.906      1.0865491      1024.7544      930.10251      1954.8569    
      9700   9700           297.9137      -91.386643      13805.02       1.0858318      1038.8593      956.40201      1995.2613    
      9800   9800           303.62922     -1968.1995      13718.262      1.0926989      1014.1239      974.75072      1988.8747    
      9900   9900           294.26452     -1417.8648      13523.58       1.1084291      1014.6273      944.68694      1959.3142    
     10000   10000          297.07642     -1434.3153      13302.994      1.1268087      969.73373      953.71405      1923.4478    
     10100   10100          290.67281      2730.1578      13149.045      1.1400014      964.36158      933.15635      1897.5179    
     10200   10200          293.7934       839.59868      13144.606      1.1403864      923.86021      943.17447      1867.0347    
     10300   10300          273.13393      1000.2599      13248.991      1.1314016      953.47758      876.85071      1830.3283    
     10400   10400          291.10235      113.20177      13385.126      1.1198945      949.95537      934.53532      1884.4907    
     10447   10447          287.14595     -1242.7615      13441.53       1.1151952      988.60334      921.83395      1910.4373    
Loop time of 33.676 on 4 procs for 5000 steps with 1078 atoms

Performance: 12.828 ns/day, 1.871 hours/ns, 148.474 timesteps/s, 160.055 katom-step/s
79.9% CPU use with 4 MPI tasks x no OpenMP threads

MPI task timing breakdown:
Section |  min time  |  avg time  |  max time  |%varavg| %total
---------------------------------------------------------------
Pair    | 17.03      | 18.888     | 20.54      |  29.0 | 56.09
Bond    | 0.95325    | 0.99872    | 1.082      |   5.1 |  2.97
Kspace  | 8.694      | 10.283     | 12.162     |  39.2 | 30.53
Neigh   | 1.0189     | 1.026      | 1.0322     |   0.6 |  3.05
Comm    | 1.4381     | 1.47       | 1.5013     |   2.0 |  4.37
Output  | 0.0030996  | 0.00443    | 0.004881   |   1.2 |  0.01
Modify  | 0.6187     | 0.70254    | 0.79811    |   7.8 |  2.09
Other   |            | 0.3039     |            |       |  0.90

Nlocal:          269.5 ave         281 max         247 min
Histogram: 1 0 0 0 0 0 0 1 1 1
Nghost:        6335.75 ave        6378 max        6294 min
Histogram: 2 0 0 0 0 0 0 0 0 2
Neighs:         124491 ave      137587 max      103442 min
Histogram: 1 0 0 0 0 1 0 0 1 1

Total # of neighbors = 497963
Ave neighs/atom = 461.93228
Ave special neighs/atom = 6.9777365
Neighbor list builds = 122
Dangerous builds = 0
unfix           NPT_TRACE
unfix           NPT_EQ
write_restart   ${output_restart}
write_restart   ec_dmc_3_7_libob_0p8m_298K.npt.2.restart
System init for write_restart ...
PPPM initialization ...
  using 12-bit tables for long-range coulomb
  G vector (1/distance) = 0.21050577
  grid = 9 9 9
  stencil order = 5
  estimated absolute RMS force accuracy = 0.018530929
  estimated relative force accuracy = 5.5805342e-05
  using double precision FFTW3
  3d grid and FFT values/proc = 1400 225
Generated 21 of 21 mixed pair_coeff terms from arithmetic mixing rule
Total wall time: 0:00:33
