LAMMPS (22 Jul 2025 - Update 4)
# Initial NPT chunk for composition tag=ec_dmc_3_7_libob_0p8m_298K
# Generated by scripts/curate_ff_md_data.py

units           real
boundary        p p p
atom_style      full
bond_style      harmonic
angle_style     harmonic
dihedral_style  opls
improper_style  cvff

pair_style      lj/cut/coul/long 12.0 12.0
pair_modify     mix arithmetic
special_bonds   lj/coul 0.0 0.0 0.5

read_data       ec_dmc_3_7_libob_0p8m_298K.lmp
Reading data file ...
  triclinic box = (-0.046 -0.049000002 -0.10000001) to (23.268212 23.265212 23.214212) with tilt (0 0 0)
  1 by 2 by 2 MPI processor grid
  reading atoms ...
  1078 atoms
  scanning bonds ...
  4 = max bonds/atom
  scanning angles ...
  6 = max angles/atom
  scanning dihedrals ...
  10 = max dihedrals/atom
  scanning impropers ...
  1 = max impropers/atom
  triclinic box = (-0.046 -0.049000002 -0.10000001) to (23.268212 23.265212 23.214212) with tilt (0 0 0)
  1 by 2 by 2 MPI processor grid
  reading bonds ...
  1021 bonds
  reading angles ...
  1628 angles
  reading dihedrals ...
  1658 dihedrals
  reading impropers ...
  336 impropers
Finding 1-2 1-3 1-4 neighbors ...
  special bond factors lj:    0        0        0.5     
  special bond factors coul:  0        0        0.5     
     4 = max # of 1-2 neighbors
     5 = max # of 1-3 neighbors
    12 = max # of 1-4 neighbors
    12 = max # of special neighbors
  special bonds CPU = 0.002 seconds
  read_data CPU = 0.077 seconds

# openff-interchange writes the box as triclinic with zero tilt; PPPM stalls
# indefinitely in triclinic mode on this brew LAMMPS build, but works fine
# after change_box all ortho converts the zero-tilt box to orthogonal.
change_box      all ortho
Changing box ...
  orthogonal box = (-0.046 -0.049000002 -0.10000001) to (23.268212 23.265212 23.214212)
kspace_style    pppm 1.0e-4

min_style       cg
minimize        1.0e-4 1.0e-6 10000 100000
PPPM initialization ...
  using 12-bit tables for long-range coulomb
  G vector (1/distance) = 0.21194083
  grid = 9 9 9
  stencil order = 5
  estimated absolute RMS force accuracy = 0.017489207
  estimated relative force accuracy = 5.2668226e-05
  using double precision FFTW3
  3d grid and FFT values/proc = 1400 225
Generated 21 of 21 mixed pair_coeff terms from arithmetic mixing rule
Neighbor list info ...
  update: every = 1 steps, delay = 0 steps, check = yes
  max neighbors/atom: 2000, page size: 100000
  master list distance cutoff = 14
  ghost atom cutoff = 14
  binsize = 7, bins = 4 4 4
  1 neighbor lists, perpetual/occasional/extra = 1 0 0
  (1) pair lj/cut/coul/long, perpetual
      attributes: half, newton on
      pair build: half/bin/newton
      stencil: half/bin/3d
      bin: standard
Per MPI rank memory allocation (min/avg/max) = 14.21 | 14.49 | 14.58 Mbytes
   Step          Temp          E_pair         E_mol          TotEng         Press     
         0   0              4130.0626      24190.648      28320.71       129130.87    
       447   0             -3088.9748      3670.8189      581.84408      4910.6059    
Loop time of 8.7553 on 4 procs for 447 steps with 1078 atoms

81.5% CPU use with 4 MPI tasks x no OpenMP threads

Minimization stats:
  Stopping criterion = energy tolerance
  Energy initial, next-to-last, final = 
      28320.7104326253   581.854184433457   581.844083757629
  Force two-norm initial, final = 8085.8059 178.76591
  Force max component initial, final = 1106.7315 111.66689
  Final line search alpha, max atom move = 0.0022358166 0.2496667
  Iterations, force evaluations = 447 898

MPI task timing breakdown:
Section |  min time  |  avg time  |  max time  |%varavg| %total
---------------------------------------------------------------
Pair    | 5.3757     | 5.9978     | 6.2851     |  15.0 | 68.51
Bond    | 0.16429    | 0.18567    | 0.1955     |   3.0 |  2.12
Kspace  | 1.8436     | 2.1434     | 2.7903     |  26.1 | 24.48
Neigh   | 0.093685   | 0.093858   | 0.094017   |   0.1 |  1.07
Comm    | 0.26449    | 0.26906    | 0.27476    |   0.7 |  3.07
Output  | 0          | 0          | 0          |   0.0 |  0.00
Modify  | 0          | 0          | 0          |   0.0 |  0.00
Other   |            | 0.06545    |            |       |  0.75

Nlocal:          269.5 ave         289 max         247 min
Histogram: 1 0 0 1 0 0 0 1 0 1
Nghost:        6544.75 ave        6616 max        6464 min
Histogram: 1 0 0 0 1 0 1 0 0 1
Neighs:         131848 ave      136093 max      125368 min
Histogram: 1 0 0 0 0 0 1 1 0 1

Total # of neighbors = 527392
Ave neighs/atom = 489.23191
Ave special neighs/atom = 6.9777365
Neighbor list builds = 10
Dangerous builds = 0
velocity        all create 298.15 155921 dist gaussian
neighbor        2.0 bin
neigh_modify    every 1 delay 0 check yes
timestep        1.0

thermo_style    custom step time temp press vol density pe ke etotal
thermo          100
variable        tracked_temperature_K equal temp
variable        tracked_density_g_cm3 equal density
variable        tracked_volume_A3 equal vol
variable        tracked_pressure_atm equal press
fix             NPT_EQ all npt temp 298.15 298.15 100.0 iso 1.0 1.0 1000.0
fix             NPT_TRACE all ave/time 100 1 100 v_tracked_temperature_K v_tracked_density_g_cm3 v_tracked_volume_A3 v_tracked_pressure_atm file ${thermo_trace}
fix             NPT_TRACE all ave/time 100 1 100 v_tracked_temperature_K v_tracked_density_g_cm3 v_tracked_volume_A3 v_tracked_pressure_atm file npt_thermo.1.dat
run             5000
PPPM initialization ...
  using 12-bit tables for long-range coulomb
  G vector (1/distance) = 0.21194083
  grid = 9 9 9
  stencil order = 5
  estimated absolute RMS force accuracy = 0.017489207
  estimated relative force accuracy = 5.2668226e-05
  using double precision FFTW3
  3d grid and FFT values/proc = 1400 225
Generated 21 of 21 mixed pair_coeff terms from arithmetic mixing rule
Per MPI rank memory allocation (min/avg/max) = 13.45 | 13.46 | 13.46 Mbytes
   Step          Time           Temp          Press          Volume        Density         PotEng         KinEng         TotEng    
       447   447            298.15         8363.2788      12672.498      1.1828709      581.84408      957.16061      1539.0047    
       500   500            177.0546       8370.6605      12764.241      1.174369       1017.2427      568.40412      1585.6468    
       600   600            204.45966      6847.4755      13307.033      1.1264667      1036.76        656.38348      1693.1435    
       700   700            236.03161      4913.8481      13789.666      1.0870408      1098.9213      757.73992      1856.6612    
       800   800            260.6338       4243.2168      14116.178      1.0618972      1181.5968      836.72115      2018.3179    
       900   900            296.22081      3024.9921      14389.979      1.0416923      1191.3062      950.96727      2142.2735    
      1000   1000           306.65907      2426.3301      14651.684      1.0230858      1211.1548      984.47757      2195.6324    
      1100   1100           302.67559     -127.8027       14885.337      1.0070266      1201.988       971.68928      2173.6773    
      1200   1200           299.2148      -47.136753      15085.315      0.99367697     1146.5916      960.57898      2107.1706    
      1300   1300           296.21858      1678.6969      15138.604      0.99017911     1106.9646      950.96012      2057.9247    
      1400   1400           301.73331      480.82661      15155.454      0.98907823     1110.5096      968.66422      2079.1738    
      1500   1500           308.1712       304.44758      15142.137      0.9899481      1139.2569      989.332        2128.5889    
      1600   1600           304.05997      2205.0911      15059.962      0.99534975     1187.7571      976.13358      2163.8906    
      1700   1700           302.56561      2844.7742      15025.268      0.99764808     1175.1122      971.33618      2146.4483    
      1800   1800           287.74512      575.75994      15131.876      0.99061937     1175.3448      923.75748      2099.1022    
      1900   1900           275.24396     -1937.8243      15301.994      0.97960632     1204.4083      883.62461      2088.0329    
      2000   2000           292.98906     -1965.2627      15407.956      0.97286948     1184.5563      940.59228      2125.1486    
      2100   2100           298.59465      1313.0084      15464.914      0.96928633     1203.8701      958.58808      2162.4581    
      2200   2200           297.61326     -942.42359      15517.183      0.96602132     1225.0029      955.4375       2180.4404    
      2300   2300           303.21867     -1804.8102      15517.456      0.96600431     1184.0237      973.43272      2157.4565    
      2400   2400           291.26963     -2114.8105      15417.697      0.97225479     1164.5275      935.07233      2099.5998    
      2500   2500           286.12945      451.26877      15267.382      0.9818271      1159.103       918.57065      2077.6737    
      2600   2600           291.77744     -145.42841      15146.209      0.98968196     1157.0452      936.70259      2093.7478    
      2700   2700           299.58901     -1482.0803      15032.15       0.99719131     1153.99        961.7803       2115.7703    
      2800   2800           296.26995     -715.5245       14976.467      1.0008989      1173.039       951.12503      2124.164     
      2900   2900           298.40269     -261.81805      14962.468      1.0018353      1149.0682      957.97184      2107.0401    
      3000   3000           297.77792     -9.4451532      14908.176      1.0054838      1099.2482      955.96611      2055.2143    
      3100   3100           299.36287      353.9776       14895.752      1.0063224      1082.5169      961.05433      2043.5712    
      3200   3200           298.79684      830.87794      14903.171      1.0058215      1106.6254      959.23718      2065.8626    
      3300   3300           292.84028      629.67431      14947.682      1.0028264      1172.7075      940.11466      2112.8222    
      3400   3400           312.50372     -731.16495      15015.059      0.99832641     1144.5402      1003.2408      2147.781     
      3500   3500           308.91189     -428.0765       14956.471      1.0022371      1134.7939      991.70985      2126.5038    
      3600   3600           298.82183      65.303638      14866.712      1.0082881      1144.8421      959.31742      2104.1595    
      3700   3700           301.29689      621.06465      14775.843      1.014489       1110.4654      967.26319      2077.7286    
      3800   3800           299.19208      891.3181       14654.707      1.0228748      1092.314       960.50604      2052.8201    
      3900   3900           292.8189      -132.88349      14591.45       1.0273091      1106.9908      940.04601      2047.0368    
      4000   4000           312.50376      880.82084      14520.363      1.0323385      1065.4917      1003.241       2068.7326    
      4100   4100           301.93348      1861.7411      14478.891      1.0352954      1100.2093      969.30686      2069.5161    
      4200   4200           292.11713     -794.27034      14518.235      1.0324898      1092.1214      937.79309      2029.9145    
      4300   4300           286.60593     -797.92726      14562.14       1.0293769      1079.7753      920.10031      1999.8756    
      4400   4400           291.03548      639.94073      14554.425      1.0299225      1100.1031      934.32064      2034.4238    
      4500   4500           302.39359      718.59097      14515.434      1.0326891      1090.6971      970.78394      2061.481     
      4600   4600           303.75161      70.903024      14478.134      1.0353495      1077.4398      975.14364      2052.5834    
      4700   4700           299.09728      2632.9814      14406.2        1.0405193      1057.5179      960.20169      2017.7195    
      4800   4800           306.36015     -202.31058      14415.865      1.0398218      1022.9053      983.51791      2006.4232    
      4900   4900           298.04818     -411.04083      14446.223      1.0376366      1019.9809      956.83374      1976.8146    
      5000   5000           290.52991      80.540926      14484.832      1.0348708      1004.4595      932.6976       1937.1571    
      5100   5100           295.73774      677.07528      14530.982      1.0315841      1036.8859      949.41645      1986.3023    
      5200   5200           289.06297     -1271.702       14627.994      1.0247427      1100.286       927.98822      2028.2742    
      5300   5300           296.45521     -1275.3214      14797.798      1.0129838      1112.6561      951.71978      2064.3759    
      5400   5400           293.11497     -185.92608      14968.272      1.0014469      1146.2233      940.99651      2087.2198    
      5447   5447           309.89183     -609.28473      15022.445      0.99783558     1093.7806      994.8558       2088.6364    
Loop time of 30.1138 on 4 procs for 5000 steps with 1078 atoms

Performance: 14.346 ns/day, 1.673 hours/ns, 166.037 timesteps/s, 178.988 katom-step/s
81.6% CPU use with 4 MPI tasks x no OpenMP threads

MPI task timing breakdown:
Section |  min time  |  avg time  |  max time  |%varavg| %total
---------------------------------------------------------------
Pair    | 16.027     | 17.52      | 18.475     |  21.7 | 58.18
Bond    | 0.93863    | 0.99573    | 1.0983     |   6.2 |  3.31
Kspace  | 7.306      | 8.2617     | 9.8163     |  32.7 | 27.43
Neigh   | 1.0108     | 1.0135     | 1.0161     |   0.2 |  3.37
Comm    | 1.3513     | 1.394      | 1.4382     |   2.6 |  4.63
Output  | 0.0098117  | 0.011794   | 0.013469   |   1.2 |  0.04
Modify  | 0.57089    | 0.6213     | 0.68746    |   5.3 |  2.06
Other   |            | 0.2959     |            |       |  0.98

Nlocal:          269.5 ave         293 max         252 min
Histogram: 1 1 0 0 0 1 0 0 0 1
Nghost:        5919.75 ave        5977 max        5887 min
Histogram: 2 0 0 0 1 0 0 0 0 1
Neighs:         111222 ave      122578 max       99187 min
Histogram: 1 0 0 0 1 1 0 0 0 1

Total # of neighbors = 444890
Ave neighs/atom = 412.69944
Ave special neighs/atom = 6.9777365
Neighbor list builds = 128
Dangerous builds = 0
unfix           NPT_TRACE
unfix           NPT_EQ
write_restart   ${output_restart}
write_restart   ec_dmc_3_7_libob_0p8m_298K.npt.1.restart
System init for write_restart ...
PPPM initialization ...
  using 12-bit tables for long-range coulomb
  G vector (1/distance) = 0.20777833
  grid = 9 9 9
  stencil order = 5
  estimated absolute RMS force accuracy = 0.020658751
  estimated relative force accuracy = 6.2213215e-05
  using double precision FFTW3
  3d grid and FFT values/proc = 1400 225
Generated 21 of 21 mixed pair_coeff terms from arithmetic mixing rule
Total wall time: 0:00:39
