LAMMPS (22 Jul 2025 - Update 4)
# Restart continuation NPT chunk for composition tag=ec_dmc_3_7_libob_0p8m_298K
# Generated by scripts/curate_ff_md_data.py

read_restart    ${input_restart}
read_restart    ec_dmc_3_7_libob_0p8m_298K.npt.3.restart
Reading restart file ...
  restart file = 22 Jul 2025, LAMMPS = 22 Jul 2025
  restoring atom style full from restart
  orthogonal box = (-0.14383008 -0.14683009 -0.19783009) to (23.366042 23.363042 23.312042)
  1 by 2 by 2 MPI processor grid
  restoring pair style lj/cut/coul/long from restart
  restoring bond style harmonic from restart
  restoring angle style harmonic from restart
  restoring dihedral style opls from restart
  restoring improper style cvff from restart
  1078 atoms
  1021 bonds
  1628 angles
  1658 dihedrals
  336 impropers
Finding 1-2 1-3 1-4 neighbors ...
  special bond factors lj:    0        0        0.5     
  special bond factors coul:  0        0        0.5     
     4 = max # of 1-2 neighbors
     5 = max # of 1-3 neighbors
    12 = max # of 1-4 neighbors
    12 = max # of special neighbors
  special bonds CPU = 0.002 seconds
  read_restart CPU = 0.017 seconds
kspace_style    pppm 1.0e-4
neighbor        2.0 bin
neigh_modify    every 1 delay 0 check yes
timestep        1.0

thermo_style    custom step time temp press vol density pe ke etotal
thermo          100
variable        tracked_temperature_K equal temp
variable        tracked_density_g_cm3 equal density
variable        tracked_volume_A3 equal vol
variable        tracked_pressure_atm equal press
fix             NPT_EQ all npt temp 298.15 298.15 100.0 iso 1.0 1.0 1000.0
fix             NPT_TRACE all ave/time 100 1 100 v_tracked_temperature_K v_tracked_density_g_cm3 v_tracked_volume_A3 v_tracked_pressure_atm file ${thermo_trace}
fix             NPT_TRACE all ave/time 100 1 100 v_tracked_temperature_K v_tracked_density_g_cm3 v_tracked_volume_A3 v_tracked_pressure_atm file npt_thermo.4.dat
run             5000
PPPM initialization ...
  using 12-bit tables for long-range coulomb
  G vector (1/distance) = 0.21133099
  grid = 9 9 9
  stencil order = 5
  estimated absolute RMS force accuracy = 0.017925544
  estimated relative force accuracy = 5.3982242e-05
  using double precision FFTW3
  3d grid and FFT values/proc = 1400 225
Generated 21 of 21 mixed pair_coeff terms from arithmetic mixing rule
Neighbor list info ...
  update: every = 1 steps, delay = 0 steps, check = yes
  max neighbors/atom: 2000, page size: 100000
  master list distance cutoff = 14
  ghost atom cutoff = 14
  binsize = 7, bins = 4 4 4
  1 neighbor lists, perpetual/occasional/extra = 1 0 0
  (1) pair lj/cut/coul/long, perpetual
      attributes: half, newton on
      pair build: half/bin/newton
      stencil: half/bin/3d
      bin: standard
Per MPI rank memory allocation (min/avg/max) = 13.45 | 13.45 | 13.46 Mbytes
   Step          Time           Temp          Press          Volume        Density         PotEng         KinEng         TotEng    
     15447   15447          293.93889      1018.4513      12994.238      1.1535828      957.94333      943.64154      1901.5849    
     15500   15500          295.34545      630.31313      12996.481      1.1533837      957.08263      948.15706      1905.2397    
     15600   15600          298.71151     -949.44962      12962.335      1.156422       959.60554      958.96323      1918.5688    
     15700   15700          312.02455      1760.2659      12844.889      1.1669957      955.56364      1001.7025      1957.2662    
     15800   15800          305.64359      1826.2364      12727.765      1.1777346      960.10589      981.21752      1941.3234    
     15900   15900          301.66825      830.51486      12682.5        1.1819381      914.71985      968.45537      1883.1752    
     16000   16000          296.81359     -1505.9876      12684.223      1.1817775      915.48474      952.8703       1868.355     
     16100   16100          303.06625     -2287.9297      12678.306      1.182329       907.89078      972.9434       1880.8342    
     16200   16200          305.36838     -14.59421       12653.82       1.1846169      934.52212      980.33402      1914.8561    
     16300   16300          301.46697      128.71015      12644.474      1.1854926      977.08412      967.80918      1944.8933    
     16400   16400          306.576        765.4508       12718.025      1.1786366      937.8715       984.21086      1922.0824    
     16500   16500          294.41542     -2009.1116      12847.618      1.1667478      918.95155      945.17137      1864.1229    
     16600   16600          286.51123     -669.00272      12962.546      1.1564032      933.51128      919.7963       1853.3076    
     16700   16700          305.66829     -2159.4883      12988.775      1.154068       909.9894       981.29683      1891.2862    
     16800   16800          299.67699      1368.0898      12914.508      1.1607047      967.56373      962.06276      1929.6265    
     16900   16900          306.70882     -931.76181      12903.988      1.1616509      944.82662      984.63727      1929.4639    
     17000   17000          304.96947      194.69544      12921.052      1.1601168      935.70669      979.05336      1914.76      
     17100   17100          294.01647     -1271.8683      12959.061      1.1567142      951.95808      943.8906       1895.8487    
     17200   17200          289.16612      585.08922      12914.23       1.1607297      907.52724      928.31936      1835.8466    
     17300   17300          296.56966     -198.01599      12822.784      1.1690074      874.03994      952.08718      1826.1271    
     17400   17400          293.03727      1884.6831      12730.831      1.177451       934.477        940.74704      1875.224     
     17500   17500          292.278        1239.6407      12681.637      1.1820185      959.76281      938.30954      1898.0724    
     17600   17600          299.53249      2557.4804      12690.63       1.1811809      937.44972      961.59887      1899.0486    
     17700   17700          300.79681     -591.12399      12736.609      1.1769168      929.73016      965.65774      1895.3879    
     17800   17800          290.43346     -2913.8032      12783.572      1.1725932      939.065        932.38796      1871.453     
     17900   17900          288.14934     -772.05137      12845.283      1.1669599      916.9135       925.05516      1841.9687    
     18000   18000          292.62329      1403.0739      12887.55       1.1631326      919.51964      939.41804      1858.9377    
     18100   18100          312.95221      2776.4818      12874.655      1.1642976      908.13857      1004.6806      1912.8192    
     18200   18200          302.87051      878.99383      12863.233      1.1653315      948.74817      972.315        1921.0632    
     18300   18300          297.94554      910.62737      12821.218      1.1691502      945.54815      956.50422      1902.0524    
     18400   18400          305.24344     -2744.574       12814.551      1.1697584      894.38414      979.9329       1874.317     
     18500   18500          280.93686     -1551.4272      12824.513      1.1688498      940.5395       901.90071      1842.4402    
     18600   18600          280.89077     -540.35675      12813.478      1.1698565      905.44791      901.75275      1807.2007    
     18700   18700          294.92965      3367.9858      12820.395      1.1692253      890.4019       946.8222       1837.2241    
     18800   18800          288.5324      -553.86113      12853.833      1.1661836      959.05323      926.28493      1885.3382    
     18900   18900          299.00256      2094.1583      12916.098      1.1605618      954.83175      959.89761      1914.7294    
     19000   19000          298.9816      -3004.3177      12986.393      1.1542797      956.6115       959.83033      1916.4418    
     19100   19100          292.54629     -839.50038      12978.322      1.1549975      938.73692      939.17084      1877.9078    
     19200   19200          298.75946     -3306.75        12904.699      1.161587       868.12402      959.1172       1827.2412    
     19300   19300          292.3695       1069.3489      12766.612      1.174151       894.36777      938.60328      1832.971     
     19400   19400          305.01446     -422.98807      12682.832      1.1819072      876.25323      979.19781      1855.451     
     19500   19500          300.62861      2669.0016      12633.599      1.186513       913.37652      965.11777      1878.4943    
     19600   19600          297.06623      1710.5902      12672.365      1.1828833      958.28703      953.68135      1911.9684    
     19700   19700          303.87557      2149.1689      12744.346      1.1762024      954.6324       975.54159      1930.174     
     19800   19800          300.48457     -195.43619      12787.649      1.1722194      928.91041      964.65535      1893.5658    
     19900   19900          295.41246     -1229.1186      12804.951      1.1706355      889.31504      948.37219      1837.6872    
     20000   20000          291.61469      1111.6127      12759.95       1.174764       894.21556      936.18009      1830.3956    
     20100   20100          293.73336      3782.6297      12663.196      1.1837399      917.94569      942.98173      1860.9274    
     20200   20200          299.67058      1561.7974      12669.232      1.1831759      943.62131      962.04218      1905.6635    
     20300   20300          310.77601     -2256.5         12773.221      1.1735434      923.73214      997.69432      1921.4265    
     20400   20400          305.01685     -814.7421       12854.596      1.1661144      912.26756      979.20548      1891.473     
     20447   20447          298.46597     -1779.7032      12867.211      1.1649712      925.86361      958.17498      1884.0386    
Loop time of 35.75 on 4 procs for 5000 steps with 1078 atoms

Performance: 12.084 ns/day, 1.986 hours/ns, 139.860 timesteps/s, 150.769 katom-step/s
80.0% CPU use with 4 MPI tasks x no OpenMP threads

MPI task timing breakdown:
Section |  min time  |  avg time  |  max time  |%varavg| %total
---------------------------------------------------------------
Pair    | 19.412     | 20.45      | 22.007     |  23.1 | 57.20
Bond    | 0.94577    | 0.99846    | 1.0746     |   5.3 |  2.79
Kspace  | 9.1721     | 10.676     | 11.758     |  31.8 | 29.86
Neigh   | 0.9445     | 0.94481    | 0.94516    |   0.0 |  2.64
Comm    | 1.5984     | 1.6098     | 1.6172     |   0.6 |  4.50
Output  | 0.0035887  | 0.0047811  | 0.0051992  |   1.0 |  0.01
Modify  | 0.68618    | 0.74855    | 0.81623    |   5.4 |  2.09
Other   |            | 0.3181     |            |       |  0.89

Nlocal:          269.5 ave         274 max         262 min
Histogram: 1 0 0 0 0 0 1 0 1 1
Nghost:        6501.25 ave        6520 max        6486 min
Histogram: 1 1 0 0 0 0 1 0 0 1
Neighs:         129796 ave      142344 max      120238 min
Histogram: 1 0 0 1 1 0 0 0 0 1

Total # of neighbors = 519182
Ave neighs/atom = 481.61596
Ave special neighs/atom = 6.9777365
Neighbor list builds = 107
Dangerous builds = 0
unfix           NPT_TRACE
unfix           NPT_EQ
write_restart   ${output_restart}
write_restart   ec_dmc_3_7_libob_0p8m_298K.npt.4.restart
System init for write_restart ...
PPPM initialization ...
  using 12-bit tables for long-range coulomb
  G vector (1/distance) = 0.21157009
  grid = 9 9 9
  stencil order = 5
  estimated absolute RMS force accuracy = 0.017753359
  estimated relative force accuracy = 5.3463714e-05
  using double precision FFTW3
  3d grid and FFT values/proc = 1400 225
Generated 21 of 21 mixed pair_coeff terms from arithmetic mixing rule
Total wall time: 0:00:35
