LAMMPS (22 Jul 2025 - Update 4)
# Restart continuation NPT chunk for composition tag=ec_dmc_3_7_libob_0p8m_298K
# Generated by scripts/curate_ff_md_data.py

read_restart    ${input_restart}
read_restart    ec_dmc_3_7_libob_0p8m_298K.npt.2.restart
Reading restart file ...
  restart file = 22 Jul 2025, LAMMPS = 22 Jul 2025
  restoring atom style full from restart
  orthogonal box = (-0.27718893 -0.28018893 -0.33118894) to (23.499401 23.496401 23.445401)
  1 by 2 by 2 MPI processor grid
  restoring pair style lj/cut/coul/long from restart
  restoring bond style harmonic from restart
  restoring angle style harmonic from restart
  restoring dihedral style opls from restart
  restoring improper style cvff from restart
  1078 atoms
  1021 bonds
  1628 angles
  1658 dihedrals
  336 impropers
Finding 1-2 1-3 1-4 neighbors ...
  special bond factors lj:    0        0        0.5     
  special bond factors coul:  0        0        0.5     
     4 = max # of 1-2 neighbors
     5 = max # of 1-3 neighbors
    12 = max # of 1-4 neighbors
    12 = max # of special neighbors
  special bonds CPU = 0.001 seconds
  read_restart CPU = 0.015 seconds
kspace_style    pppm 1.0e-4
neighbor        2.0 bin
neigh_modify    every 1 delay 0 check yes
timestep        1.0

thermo_style    custom step time temp press vol density pe ke etotal
thermo          100
variable        tracked_temperature_K equal temp
variable        tracked_density_g_cm3 equal density
variable        tracked_volume_A3 equal vol
variable        tracked_pressure_atm equal press
fix             NPT_EQ all npt temp 298.15 298.15 100.0 iso 1.0 1.0 1000.0
fix             NPT_TRACE all ave/time 100 1 100 v_tracked_temperature_K v_tracked_density_g_cm3 v_tracked_volume_A3 v_tracked_pressure_atm file ${thermo_trace}
fix             NPT_TRACE all ave/time 100 1 100 v_tracked_temperature_K v_tracked_density_g_cm3 v_tracked_volume_A3 v_tracked_pressure_atm file npt_thermo.3.dat
run             5000
PPPM initialization ...
  using 12-bit tables for long-range coulomb
  G vector (1/distance) = 0.21050577
  grid = 9 9 9
  stencil order = 5
  estimated absolute RMS force accuracy = 0.018530929
  estimated relative force accuracy = 5.5805342e-05
  using double precision FFTW3
  3d grid and FFT values/proc = 1400 225
Generated 21 of 21 mixed pair_coeff terms from arithmetic mixing rule
Neighbor list info ...
  update: every = 1 steps, delay = 0 steps, check = yes
  max neighbors/atom: 2000, page size: 100000
  master list distance cutoff = 14
  ghost atom cutoff = 14
  binsize = 7, bins = 4 4 4
  1 neighbor lists, perpetual/occasional/extra = 1 0 0
  (1) pair lj/cut/coul/long, perpetual
      attributes: half, newton on
      pair build: half/bin/newton
      stencil: half/bin/3d
      bin: standard
Per MPI rank memory allocation (min/avg/max) = 13.44 | 13.44 | 13.45 Mbytes
   Step          Time           Temp          Press          Volume        Density         PotEng         KinEng         TotEng    
     10447   10447          287.14595     -1242.7452      13441.53       1.1151952      988.60667      921.83395      1910.4406    
     10500   10500          296.16989     -2127.995       13433.302      1.1158783      958.03918      950.8038       1908.843     
     10600   10600          294.0385      -1308.8193      13373.408      1.1208759      990.47441      943.96135      1934.4358    
     10700   10700          312.34816     -1592.869       13309.887      1.1262252      991.10866      1002.7414      1993.8501    
     10800   10800          308.52147      3060.9743      13275.179      1.1291697      993.87274      990.45648      1984.3292    
     10900   10900          308.57226      2717.0171      13256.457      1.1307644      945.84998      990.61953      1936.4695    
     11000   11000          304.21124      3066.1568      13235.012      1.1325966      938.46594      976.61922      1915.0852    
     11100   11100          296.68161      84.068109      13310.176      1.1262007      961.37748      952.4466       1913.8241    
     11200   11200          289.03561     -3351.7158      13473.193      1.1125744      1019.2804      927.90038      1947.1808    
     11300   11300          306.32323     -1397.847       13576.277      1.1041267      1008.5608      983.39939      1991.9602    
     11400   11400          299.7563       1030.8752      13508.794      1.1096423      1017.8184      962.31736      1980.1357    
     11500   11500          291.34333      942.72312      13395.933      1.1189911      1016.8774      935.30895      1952.1864    
     11600   11600          292.25273      1742.3836      13258.069      1.1306269      1001.7392      938.22842      1939.9677    
     11700   11700          298.7059       993.12707      13208.386      1.1348797      979.82449      958.94525      1938.7697    
     11800   11800          292.82087     -1443.7234      13223.496      1.133583       978.06155      940.05232      1918.1139    
     11900   11900          291.78479      97.593271      13242.585      1.1319489      919.61811      936.72616      1856.3443    
     12000   12000          287.88885     -1428.7826      13218.905      1.1339767      920.47447      924.2189       1844.6934    
     12100   12100          283.88028      1451.5121      13171.474      1.1380601      971.81378      911.35007      1883.1638    
     12200   12200          294.5934       998.04841      13226.556      1.1333207      966.92662      945.74275      1912.6694    
     12300   12300          298.47765      538.0939       13356.189      1.1223209      973.92158      958.21247      1932.1341    
     12400   12400          304.57567     -245.30568      13398.298      1.1187936      974.0761       977.78916      1951.8653    
     12500   12500          297.99054     -1865.2244      13367.5        1.1213712      1020.4759      956.6487       1977.1246    
     12600   12600          317.14821      135.18224      13320.101      1.1253616      1001.0547      1018.1512      2019.2059    
     12700   12700          320.12105      985.28785      13290.898      1.1278342      975.77621      1027.695       2003.4712    
     12800   12800          296.73163     -881.09752      13331.549      1.1243952      983.10115      952.60716      1935.7083    
     12900   12900          294.34589     -258.73482      13375.108      1.1207333      977.54289      944.94817      1922.4911    
     13000   13000          306.05523      412.80104      13362.098      1.1218246      963.74704      982.53903      1946.2861    
     13100   13100          301.8464       648.86987      13313.595      1.1259115      1013.0595      969.02729      1982.0868    
     13200   13200          306.18377      959.5528       13315.172      1.1257781      993.29577      982.95169      1976.2475    
     13300   13300          286.69672      588.13599      13345.13       1.1232509      985.7041       920.39178      1906.0959    
     13400   13400          281.92465     -549.56153      13336.882      1.1239456      992.24297      905.07184      1897.3148    
     13500   13500          301.32748     -1515.3544      13289.369      1.127964       957.78725      967.36139      1925.1486    
     13600   13600          300.79063     -1797.7426      13242.379      1.1319665      974.2366       965.63792      1939.8745    
     13700   13700          296.9671      -627.57992      13166.32       1.1385057      986.36824      953.36312      1939.7314    
     13800   13800          296.69228      958.6182       13094.954      1.1447104      943.95146      952.48084      1896.4323    
     13900   13900          290.88805      842.58715      13061.683      1.1476262      935.58138      933.84733      1869.4287    
     14000   14000          294.37748     -2389.5623      13028.839      1.1505192      930.96065      945.04957      1876.0102    
     14100   14100          302.69932     -2158.6935      12994.122      1.1535931      947.29865      971.76543      1919.0641    
     14200   14200          305.47193      587.15877      13034.033      1.1500607      982.50078      980.66644      1963.1672    
     14300   14300          297.97637     -1271.8662      13156.042      1.1393951      997.29407      956.6032       1953.8973    
     14400   14400          304.73723     -95.985774      13220.282      1.1338585      944.68729      978.3078       1922.9951    
     14500   14500          284.85101     -1350.8282      13240.83       1.132099       987.77654      914.46643      1902.243     
     14600   14600          299.69369     -82.295115      13258.799      1.1305647      957.65912      962.11638      1919.7755    
     14700   14700          312.3769       682.89933      13201.522      1.1354698      937.40093      1002.8337      1940.2346    
     14800   14800          308.66629      589.43277      13112.54       1.1431751      953.26041      990.92141      1944.1818    
     14900   14900          299.78148      2192.2061      13066.269      1.1472234      913.63106      962.39819      1876.0292    
     15000   15000          289.60548      58.717473      13093.131      1.1448697      930.09162      929.72986      1859.8215    
     15100   15100          298.48578     -197.74809      13116.912      1.1427941      931.06136      958.23857      1889.2999    
     15200   15200          304.80827     -425.61182      13083.911      1.1456766      949.57262      978.53588      1928.1085    
     15300   15300          298.20659      660.89322      13047.472      1.1488761      969.87311      957.34227      1927.2154    
     15400   15400          293.14687     -1682.5137      13015.923      1.1516609      966.97649      941.09891      1908.0754    
     15447   15447          293.93889      1018.677       12994.238      1.1535828      957.95608      943.64154      1901.5976    
Loop time of 33.3893 on 4 procs for 5000 steps with 1078 atoms

Performance: 12.938 ns/day, 1.855 hours/ns, 149.749 timesteps/s, 161.429 katom-step/s
82.0% CPU use with 4 MPI tasks x no OpenMP threads

MPI task timing breakdown:
Section |  min time  |  avg time  |  max time  |%varavg| %total
---------------------------------------------------------------
Pair    | 16.863     | 19.406     | 21.828     |  40.7 | 58.12
Bond    | 0.89339    | 0.96999    | 1.0681     |   6.5 |  2.91
Kspace  | 7.1448     | 9.555      | 12.156     |  59.2 | 28.62
Neigh   | 1.0002     | 1.0068     | 1.0128     |   0.5 |  3.02
Comm    | 1.4122     | 1.4501     | 1.4851     |   2.2 |  4.34
Output  | 0.0036585  | 0.0048698  | 0.0052807  |   1.0 |  0.01
Modify  | 0.63008    | 0.68069    | 0.75284    |   5.4 |  2.04
Other   |            | 0.3155     |            |       |  0.94

Nlocal:          269.5 ave         277 max         264 min
Histogram: 2 0 0 0 0 0 1 0 0 1
Nghost:        6520.25 ave        6538 max        6496 min
Histogram: 1 0 0 0 0 1 0 1 0 1
Neighs:         128345 ave      141329 max      116921 min
Histogram: 2 0 0 0 0 0 0 1 0 1

Total # of neighbors = 513379
Ave neighs/atom = 476.23284
Ave special neighs/atom = 6.9777365
Neighbor list builds = 117
Dangerous builds = 0
unfix           NPT_TRACE
unfix           NPT_EQ
write_restart   ${output_restart}
write_restart   ec_dmc_3_7_libob_0p8m_298K.npt.3.restart
System init for write_restart ...
PPPM initialization ...
  using 12-bit tables for long-range coulomb
  G vector (1/distance) = 0.21133099
  grid = 9 9 9
  stencil order = 5
  estimated absolute RMS force accuracy = 0.017925544
  estimated relative force accuracy = 5.3982242e-05
  using double precision FFTW3
  3d grid and FFT values/proc = 1400 225
Generated 21 of 21 mixed pair_coeff terms from arithmetic mixing rule
Total wall time: 0:00:33
