LAMMPS data file via write_data, version 22 Jul 2025, timestep = 10844, units = real

1014 atoms
8 atom types
944 bonds
6 bond types
1504 angles
7 angle types
1452 dihedrals
12 dihedral types
258 impropers
1 improper types

-0.27163464636483425 22.866926257364675 xlo xhi
-0.23963463740313173 22.898926267373366 ylo yhi
-0.28063464241294334 22.857926267412953 zlo zhi

Masses

1 12.01078
2 15.99943
3 12.01078
4 15.99943
5 1.007947
6 6.9412
7 18.998403
8 10.8117

Pair Coeffs # lj/cut/coul/long

1 0.108841 3.37953
2 0.168465 3.02511
3 0.0868793 3.48065
4 0.210206 3.03981
5 0.0164092 2.58323
6 0.0279896 1.82634
7 0.061 3.11993
8 0.095 3.42105

Bond Coeffs # harmonic

1 215.301 1.53363
2 227.037 1.43632
3 357.819 1.09421
4 291.342 1.35606
5 762.039 1.225
6 386.59 1.394

Angle Coeffs # harmonic

1 91.5186 108.173
2 66.7563 109.938
3 63.31 123.606
4 36.7766 108.354
5 119.896 112.874
6 84.5477 120.105
7 80.005 109.5

Dihedral Coeffs # opls

1 1 0.111303 3 0
2 1 0.438911 1 180
3 1 1.76361 2 180
4 1 -0.0153377 3 0
5 1 0.41915 2 0
6 1 0.131135 3 0
7 1 0.436547 1 0
8 1 0.263111 3 0
9 1 0.227995 3 0
10 1 0.302195 2 180
11 1 1.35005 1 180
12 1 3.48187 2 180

Improper Coeffs # cvff

1 4.30523 -1 2

Atoms # full

82 9 1 0.0955 3.379427941057947 2.92732486691852 0.9204346783701502 0 0 0
83 9 2 -0.4048 4.619443493835315 2.684264710176844 1.5463140981220995 0 0 0
84 9 3 0.8478 4.669540786809618 1.3765305487687671 1.9948006468400816 0 0 0
85 9 4 -0.5484 5.636969798184639 0.8929199123261453 2.579312567957089 0 0 0
86 9 2 -0.4048 3.575142294753576 0.6351332128422212 1.729971099888406 0 0 0
90 9 5 0.0798 2.847870923028328 3.795961202894623 1.4005808181751052 0 0 0
81 9 1 0.0955 2.6644473118601564 1.5244726392789925 1.061997100706638 0 0 0
88 9 5 0.0798 1.8825417427570428 1.6975434653165875 1.7961182202866808 0 0 0
89 9 5 0.0798 3.6667334320518017 3.139766821238591 -0.11255078597491355 0 0 0
87 9 5 0.0798 2.3433922141200467 1.2735934204764343 0.10594561161789362 0 0 0
919 82 5 0.0582835 7.227470932696567 2.53001660994309 0.9662286999292935 0 0 0
668 61 5 0.0582835 3.997843303470489 5.070686797790033 4.859272133934095 0 0 0
665 61 2 -0.3889835 5.87550370176886 1.5674845791548058 6.643856519944662 0 0 0
663 61 3 0.7551165 4.859461966392964 2.4905073468870724 6.727356343997815 0 0 0
662 61 2 -0.3889835 4.771490192925921 3.332001138526575 5.6401040869623325 0 0 0
48 5 5 0.0798 1.7057272281530904 -0.14470435772325435 3.391625849658145 1 0 0
669 61 5 0.0582835 2.739705815409506 3.875809844611032 5.48759944065282 0 0 0
661 61 1 0.1266165 3.727914332084944 4.360440169481749 5.626832078304495 0 0 0
667 61 5 0.0582835 3.77379946572891 4.912271830347835 6.589485723059647 0 0 0
548 51 5 0.0582835 5.740403254386423 5.981157840014962 1.3142630685024757 0 0 1
549 51 5 0.0582835 4.029219868612709 6.06879753224453 1.5047958921005453 0 0 1
541 51 1 0.1266165 4.810410591417133 6.032878704680231 0.752695773152573 0 0 1
907 81 5 0.0582835 1.7320327061928866 1.5578073663138685 6.967749341537358 1 0 0
989 95 7 -0.5 2.4235123378284587 6.547288662300148 3.164571248510025 0 0 0
431 41 5 0.0582835 22.435305584844546 6.513088602697954 1.0324210354859154 -1 0 0
988 95 7 -0.5 1.8825867983699869 7.01604993619309 5.3879552979001275 0 0 0
560 52 5 0.0582835 0.8431935606867142 4.359390078502933 8.34472623748714 1 0 0
732 66 5 0.0582835 7.487747730560591 4.56342255572878 3.1300433259458185 0 0 0
731 66 5 0.0582835 7.906270200856106 4.351077370769547 4.794094450368744 0 0 0
725 66 2 -0.3889835 7.712709209042419 6.459653809467539 4.236483968713333 0 0 0
726 66 1 0.1266165 8.047504431453639 5.025198102739675 3.9582762575563457 0 0 0
723 66 3 0.7551165 7.889990863860191 7.278784758274251 3.190268115828022 0 0 0
730 66 5 0.0582835 9.076375985120553 4.983450904710034 3.6233889573205023 0 0 0
915 82 3 0.7551165 9.663016783506254 3.521365996171292 1.4523645007940382 0 0 0
917 82 2 -0.3889835 10.566311830167113 4.395090522297143 1.9018043922809573 0 0 0
918 82 1 0.1266165 11.700778115928516 3.7736652536821866 2.7108392205114598 0 0 0
922 82 5 0.0582835 12.239301651838954 2.936778530765826 2.2131182799676483 0 0 0
923 82 5 0.0582835 12.389131364654821 4.582287725621983 2.9358459021424683 0 0 0
924 82 5 0.0582835 11.303745874886468 3.374358405370595 3.6738124578141305 0 0 0
961 86 1 0.1266165 10.803561733040146 3.0606792787523682 7.296582290264228 0 0 0
968 86 5 0.0582835 11.506565876283698 2.905956312848393 6.527055304815569 0 0 0
1000 98 7 -0.5 14.683237250827641 6.267447506207865 5.706368301082036 0 0 0
724 66 4 -0.5800835 8.299302547109333 6.891777518557436 2.1056781759146928 0 0 0
1001 98 8 1 14.739709872967484 4.98191138343763 5.153302491904141 0 0 0
1003 98 7 -0.5 15.236797556728096 4.988413180576634 3.8481286539248263 0 0 0
1002 98 7 -0.5 13.465474114142953 4.408527030879344 5.262993458112545 0 0 0
65 7 4 -0.5484 10.682925930639065 8.060784924933154 0.7975678901310841 0 0 0
916 82 4 -0.5800835 9.728994548388625 2.3162340578956604 1.6783435192711387 0 0 0
240 24 5 0.0798 14.835820923963444 2.889268937064173 2.9980637785238695 0 0 0
914 82 2 -0.3889835 8.682151008442874 4.085438300965162 0.6995237654744677 0 0 0
1004 98 7 -0.5 15.572777095256269 4.224910685822634 5.9789699926230435 0 0 0
962 86 2 -0.3889835 9.69350785347826 3.804793696654717 6.820111286654984 0 0 0
232 24 1 0.0955 14.851606225446458 1.820237876627437 2.9010310944076583 0 0 0
239 24 5 0.0798 13.815854402164508 1.6304256987237797 3.2583626812489737 0 0 0
70 7 5 0.0798 13.693069183277506 7.937255167299524 3.8998514298635527 0 0 0
63 7 2 -0.4048 12.14343323239629 7.449287736941543 2.4874371942008486 0 0 0
62 7 1 0.0955 13.432999371168284 7.857957641215492 2.8357667034284555 0 0 0
100 10 5 0.0798 7.961687824252937 0.10190839975961091 2.612835281043102 0 1 0
233 24 2 -0.4048 15.25017411781067 1.7060753980173726 1.5130036022399442 0 0 0
974 88 6 1 15.665270965924925 5.69196614747904 7.1619192095619315 0 0 0
18 2 5 0.0798 11.414049215804035 9.282621466291635 5.120309323573024 0 0 0
20 2 5 0.0798 10.362065155710944 7.487953942908951 6.086623030726904 0 0 0
69 7 5 0.0798 14.080414916332705 7.043125704121373 2.5257734650980366 0 0 0
967 86 5 0.0582835 10.439867323469146 2.0702928936948384 7.598803198616688 0 0 0
969 86 5 0.0582835 11.209465085560854 3.5446365426571584 8.161575895486575 0 0 0
231 24 1 0.0955 15.986862005372895 1.398558286833766 3.728134374780331 0 0 0
237 24 5 0.0798 15.806188692966852 0.4090201114502171 4.214259014535771 0 0 0
419 40 5 0.0582835 18.67497846358165 2.8797250534490026 3.4067945968714626 -1 0 0
418 40 5 0.0582835 18.073903123738933 4.344071217964063 4.120122607644594 -1 0 0
420 40 5 0.0582835 19.841776150044886 4.0930099710636885 3.637422945762398 -1 0 0
414 40 1 0.1266165 18.80091917494905 3.92503430445743 3.344709504954437 -1 0 0
813 73 5 0.0582835 19.87360815040342 1.5247760335775609 6.409402284586781 0 0 0
805 73 1 0.1266165 19.82038036630894 1.3596744870701967 7.424603885943438 0 0 0
806 73 2 -0.3889835 19.296054647842425 0.057944648685308964 7.709918069030398 0 0 0
811 73 5 0.0582835 19.287483414883866 2.112406859407687 8.092632748534005 0 0 0
812 73 5 0.0582835 20.836476561332017 1.3053623417065123 7.736619166710561 0 0 0
910 81 5 0.0582835 22.574384213075707 3.225501227068775 2.568240229833325 0 0 0
410 40 2 -0.3889835 18.252704229720507 6.383253857763818 0.7895692110599755 -1 0 0
411 40 3 0.7551165 18.564143126245494 5.809466790093578 1.9970363234913378 -1 0 0
413 40 2 -0.3889835 18.464058209601134 4.476664772546329 2.0715717122841197 -1 0 0
412 40 4 -0.5800835 18.896978338322533 6.528045532115007 2.927090904042898 -1 0 0
905 81 2 -0.3889835 22.474199313107885 3.816778757461724 4.601605394554334 0 0 0
906 81 1 0.1266165 22.6592159971119 4.112831717164103 3.1618768811698397 0 0 0
911 81 5 0.0582835 21.83642100726756 4.780923128576613 2.8191335711348424 0 0 0
807 73 3 0.7551165 17.99870992942045 -0.04663259394469238 7.216445002584637 0 0 0
903 81 3 0.7551165 0.05708439145782185 2.751016644577056 5.158218426648332 1 0 0
904 81 4 -0.5800835 0.8459311406400805 2.0694196943996253 4.51225396003881 1 0 0
912 81 5 0.0582835 0.4352368248980023 4.647507346322726 2.899295505468443 1 0 0
156 16 2 -0.4048 19.49142868294648 5.989425674802111 6.061656598865109 0 0 0
33 4 2 -0.4048 21.75337744056022 2.5396036195465648 0.211797609200434 -1 0 0
154 16 3 0.8478 18.453004072900377 6.866328326416644 6.289120531468738 0 0 0
155 16 4 -0.5484 17.301906673971004 6.6330176581461595 6.44839681804953 0 0 0
238 24 5 0.0798 16.153017080619275 2.097391695740978 4.541274069700328 0 0 0
902 81 2 -0.3889835 -0.1484252854206414 2.504248356093702 6.486986077799942 1 0 0
40 4 5 0.0798 19.8919832252358 1.8488907254197793 1.260088158792183 -1 0 0
32 4 1 0.0955 20.368626717727476 2.22830264547646 0.3319885463801948 -1 0 0
236 24 2 -0.4048 17.019533112158946 1.0746177822181715 2.8181659460000663 0 0 0
909 81 5 0.0582835 0.47637174796759774 0.5294268218250311 6.338516637987358 1 0 0
46 5 2 -0.4048 -0.10486404919628015 0.09047984803510917 2.6509734202482145 1 0 0
808 73 4 -0.5800835 17.451283225402683 0.8915484784146384 6.641935129325326 0 0 0
901 81 1 0.1266165 0.6031259212760435 1.415402574445614 7.016367742704536 1 0 0
39 4 5 0.0798 19.98331563779006 3.237957793670521 0.10800531507084982 -1 0 0
157 16 5 0.0798 21.473909644863504 6.2323173114338015 6.498948054874427 0 0 0
234 24 3 0.8478 16.551426946979646 1.2479861353514312 1.5196689836241153 0 0 0
720 65 5 0.0582835 5.026905110761996 7.748990908078686 5.772508258655079 0 0 0
719 65 5 0.0582835 6.71085936367944 7.99766450121888 6.203558255136919 0 0 0
714 65 1 0.1266165 5.719577335425304 8.39750531482509 6.34972684760164 0 0 0
713 65 2 -0.3889835 5.386142612047875 8.360093353755751 7.752734662752905 0 0 0
718 65 5 0.0582835 5.689553297011741 9.464969067017954 6.095712864597033 0 0 0
712 65 4 -0.5800835 3.289807062454307 9.108420070535791 7.189247038247038 0 0 0
973 87 6 1 1.8809892346967017 9.02704165635619 5.916714092203776 0 0 0
505 48 1 0.1266165 3.460936344025487 10.013864855074551 1.5227554942331205 0 0 0
506 48 2 -0.3889835 3.9337059013433446 11.16635095099393 2.142593356197106 0 0 0
511 48 5 0.0582835 4.16975754203732 9.312787445821058 1.1588810303995323 0 0 0
711 65 3 0.7551165 4.086550367736421 8.752167391868886 8.012509763294686 0 0 0
987 95 7 -0.5 3.1027516043339047 8.439282703497192 4.317584294229927 0 0 0
513 48 5 0.0582835 2.8389845525906465 10.228557099350672 0.6309687733690954 0 0 0
1008 99 7 -0.5 1.5724178297614488 10.863084381348155 5.87511486842103 0 0 0
512 48 5 0.0582835 2.911762696376792 9.462639537368215 2.326841225841165 0 0 0
986 95 8 1 2.0934583272301763 7.501912272244384 4.085019952699551 0 0 0
64 7 3 0.8478 11.775424791028042 8.157622837737925 1.3779680675195594 0 0 0
68 7 5 0.0798 13.871122971694213 9.817917761725463 2.4144207200151917 0 0 0
66 7 2 -0.4048 12.797611831156264 9.008475455484936 1.0058312619938201 0 0 0
61 7 1 0.0955 13.85128332179883 8.89513692017412 1.8628270163064768 0 0 0
727 66 5 0.0582835 7.152518937690001 9.48700423433343 1.4040791913635566 0 0 0
19 2 5 0.0798 8.876764659469297 8.443479303727793 6.417651970438917 0 0 0
722 66 2 -0.3889835 7.552593198938004 8.595612203382705 3.461008203920145 0 0 0
17 2 5 0.0798 9.924600902117223 10.239285098871346 5.05751823861187 0 0 0
728 66 5 0.0582835 7.626287273651733 10.583967756549683 2.6642248008244303 0 0 0
721 66 1 0.1266165 7.74128119302806 9.550964966508907 2.33873773563736 0 0 0
729 66 5 0.0582835 8.760772833666381 9.498735449572838 1.9586613325293531 0 0 0
11 2 1 0.0955 10.578317824776255 9.629681516669809 5.782079666117153 0 0 0
12 2 1 0.0955 9.938604088598318 8.425214992970224 6.48999842171635 0 0 0
67 7 5 0.0798 14.839327173036853 8.956670482161012 1.4788174463211903 0 0 0
334 33 5 0.0582835 13.419014092058514 11.309942911948136 4.695729052390462 0 0 0
16 2 2 -0.4048 11.266061147802114 10.404486537352513 6.77616299817705 0 0 0
13 2 2 -0.4048 10.341121596351796 8.60906629424006 7.814584570584545 0 0 0
14 2 3 0.8478 11.067047661017847 9.730558891901074 7.884542040125382 0 0 0
985 95 7 -0.5 0.8979290876720976 8.141183866307513 3.8054827628174017 0 0 0
1007 99 7 -0.5 0.23825479971726404 9.599042990353446 7.071794515363345 0 0 0
409 40 1 0.1266165 18.341091888381488 7.892249247398993 0.7059925263934537 -1 0 0
415 40 5 0.0582835 19.356279166752596 8.278783878011964 0.8457260375940188 -1 0 0
151 16 1 0.0955 20.681151921241504 6.6861140655250475 5.941508729199451 0 0 0
417 40 5 0.0582835 17.66429347469867 8.33691367587208 1.37321583860757 -1 0 0
158 16 5 0.0798 20.96733182302892 6.5166496159024385 4.904771638289152 0 0 0
74 8 3 0.8478 15.592579710756024 10.037043286600284 5.479534117024424 0 0 0
71 8 1 0.0955 16.821040999348313 10.338435513909337 3.6206604333651153 0 0 0
72 8 1 0.0955 17.48439877218658 11.070871032767704 4.752676218957014 0 0 0
76 8 2 -0.4048 15.694058111884075 9.72229815987873 4.100159284587033 0 0 0
77 8 5 0.0798 17.53672141420824 9.628013520103844 3.183394239851729 0 0 0
78 8 5 0.0798 16.44216175884556 10.994427490615443 2.8964564710163265 0 0 0
79 8 5 0.0798 18.34609146122978 10.516601309645994 4.964708440123219 0 0 0
1006 99 8 1 0.48069040673003904 10.933374796428307 6.774080436662896 0 0 0
75 8 4 -0.5484 14.712710020897413 9.609598316492812 6.112980170381355 0 0 0
73 8 2 -0.4048 16.661758550121913 10.862063810798013 5.912971200128993 0 0 0
152 16 1 0.0955 20.40088196558803 8.139975525753528 6.113239387462905 0 0 0
160 16 5 0.0798 20.814610269119942 8.698902402671868 5.260181673768738 0 0 0
45 5 4 -0.5484 20.92295934414979 0.5545779081807886 3.3669656799730707 0 0 0
44 5 3 0.8478 21.936176109350033 -0.1154049959104162 3.5252300095192766 0 0 0
666 61 1 0.1266165 6.066631465739065 0.6714234738212048 7.721965883964817 0 0 0
671 61 5 0.0582835 6.863026070112963 -0.05414794413718396 7.5420976049572985 0 0 0
670 61 5 0.0582835 5.130157406059253 0.1858634419144038 8.073345029176979 0 0 0
672 61 5 0.0582835 6.545674998974042 1.193110870838335 8.561963176545113 0 0 0
664 61 4 -0.5800835 4.082307209922028 2.6075957132522447 7.661541106601103 0 0 0
464 44 5 0.0582835 2.514671575053644 2.9668901040082005 10.21181818998447 0 0 0
457 44 1 0.1266165 2.552974421524392 2.1775736429308186 11.031297265496883 0 0 0
465 44 5 0.0582835 1.5144666782609697 1.8516241475256585 11.10078689975905 0 0 0
438 42 1 0.1266165 4.471176752470242 6.13294116539387 10.635318632732416 0 0 0
442 42 5 0.0582835 3.9171055828644876 6.934538375912875 11.170500128688543 0 0 0
444 42 5 0.0582835 3.785601011893551 5.354701819976709 10.336705774340475 0 0 0
443 42 5 0.0582835 4.761319825257491 6.598770453414914 9.729207711208398 0 0 0
971 86 5 0.0582835 5.8502906865259305 5.727514065514579 7.5439585765770305 0 0 0
972 86 5 0.0582835 6.202567509288044 4.398229470792244 8.640966141200284 0 0 0
458 44 2 -0.3889835 3.3785740517908973 1.0755278990249124 10.621465381140762 0 0 0
966 86 1 0.1266165 6.652601693219618 5.275947272413417 8.145455565954272 0 0 0
965 86 2 -0.3889835 7.67065460494671 4.882066529608016 7.22567357950828 0 0 0
561 52 5 0.0582835 1.3656416939440572 5.891365767813738 8.792946309903288 1 0 0
553 52 1 0.1266165 0.6607223455996382 5.091071408482696 9.10936718087095 1 0 0
559 52 5 0.0582835 1.0271362829268078 4.788831255563719 10.100049615304469 1 0 0
970 86 5 0.0582835 7.048810401926004 5.925971780782428 8.937480186764843 0 0 0
379 37 5 0.0582835 15.827618243440309 2.364395937679418 7.719550320803538 0 0 0
244 25 3 0.8478 13.041302843413623 5.893628666932064 9.020387307432982 0 0 0
245 25 4 -0.5484 13.96747348134643 5.821689792062841 8.227068270196547 0 0 0
246 25 2 -0.4048 12.701789006384953 4.842513328237946 9.875700769672415 0 0 0
247 25 5 0.0798 10.771306964638462 4.517202417702415 10.318098721897792 0 0 0
373 37 1 0.1266165 15.155802951677057 2.43683665500624 8.56577379717094 0 0 0
381 37 5 0.0582835 14.347794188643627 3.134980108003519 8.243639069991628 0 0 0
963 86 3 0.7551165 8.706352994661405 4.145144586550712 7.757229555425081 0 0 0
964 86 4 -0.5800835 8.740245238279739 3.8134053401255983 8.958246113335546 0 0 0
241 25 1 0.0955 11.582190826595388 5.198818894590719 10.69098340669864 0 0 0
380 37 5 0.0582835 14.591305760794931 1.4580099187122317 8.69096359684769 0 0 0
243 25 2 -0.4048 12.160296569882568 6.969166209023498 9.217132959920692 0 0 0
242 25 1 0.0955 11.238800454087928 6.5481052201426415 10.306871535220424 0 0 0
249 25 5 0.0798 10.138474089260546 6.6259572527578525 10.314312203421478 0 0 0
250 25 5 0.0798 11.57798301458233 7.139960750137946 11.126919730153611 0 0 0
384 37 5 0.0582835 19.086300781318982 5.167142129155313 9.994512214682713 0 0 0
153 16 2 -0.4048 18.946946637948578 8.166799532437258 6.34233495024189 0 0 0
374 37 2 -0.3889835 15.863927221675365 2.84881733516087 9.78871147622327 0 0 0
378 37 1 0.1266165 18.253246095420796 5.44559341533758 10.65756616361984 0 0 0
285 29 4 -0.5484 22.121850202049632 2.2928320326114155 11.214628007794243 -1 0 0
908 81 5 0.0582835 0.27029085331427705 1.2063431009607672 8.083770295832068 1 0 0
375 37 3 0.7551165 16.66329646480829 3.9316027920945062 9.593810574412213 0 0 0
376 37 4 -0.5800835 16.80688254809852 4.537520790925274 8.552712462963791 0 0 0
377 37 2 -0.3889835 17.309177060112198 4.265826706183704 10.711888937015544 0 0 0
382 37 5 0.0582835 17.843413863184463 6.340397143721103 10.31298523632467 0 0 0
554 52 2 -0.3889835 22.425792835817564 5.612195356633457 9.103014933399683 0 0 0
555 52 3 0.7551165 22.28026621694896 6.6533055434242465 9.904874254327053 0 0 0
557 52 2 -0.3889835 21.014494229600224 7.227607951887412 9.974955803012065 0 0 0
364 36 4 -0.5800835 14.885055553101704 7.407075680997048 11.269541981626274 0 0 0
372 36 5 0.0582835 15.807657231844601 8.18830026992247 8.485897117355664 0 0 0
556 52 4 -0.5800835 0.07476311409403658 7.132989785212223 10.56355523499261 1 0 0
710 65 2 -0.3889835 3.7384422392850647 8.702697261325183 9.325376443840353 0 0 0
717 65 5 0.0582835 1.9838333001776953 10.118505280625918 9.304121698708384 0 0 0
709 65 1 0.1266165 2.329078130216185 9.10051276270913 9.64587590469648 0 0 0
715 65 5 0.0582835 1.6999170523075198 8.379420978992993 9.212900228276148 0 0 0
716 65 5 0.0582835 2.25218473608591 9.007638317120202 10.743706948779357 0 0 0
863 77 5 0.0582835 6.26538465473276 9.436570391965843 10.804972048683068 0 0 0
858 77 1 0.1266165 7.207254331473734 9.98953962595766 11.008202026133796 0 0 0
862 77 5 0.0582835 7.610653262144118 10.478910506503741 10.082747621914907 0 0 0
15 2 4 -0.5484 11.54446256631876 10.193439825873629 8.907313619277726 0 0 0
370 36 5 0.0582835 14.404488244381525 9.125220882866875 9.223487396426906 0 0 0
366 36 1 0.1266165 15.466821905565421 9.048355527932054 9.050232818575981 0 0 0
371 36 5 0.0582835 15.755827698844111 9.95298466312551 8.410498090157887 0 0 0
159 16 5 0.0798 20.764677756099136 8.601409491825526 7.056753396098218 0 0 0
562 52 5 0.0582835 21.645031844480393 9.275037368015896 10.622350766540197 0 0 0
365 36 2 -0.3889835 16.167483314700625 9.149859312663478 10.364085763993097 0 0 0
558 52 1 0.1266165 20.858500246305596 8.411353239866095 10.872731379105574 0 0 0
563 52 5 0.0582835 19.861939796222956 8.97511768582867 10.79998446216619 0 0 0
485 46 2 -0.3889835 18.818236653483577 11.219542608076146 10.41223956200401 0 0 0
486 46 1 0.1266165 18.76880525218284 11.03704873010169 8.98810840277593 0 0 0
490 46 5 0.0582835 19.793753829427125 11.028611171111583 8.534974755148301 0 0 0
491 46 5 0.0582835 18.44419221310242 10.037775055883994 8.795097491048484 0 0 0
602 56 2 -0.3889835 9.67189836985967 -0.18425477131411938 10.468055326334317 0 0 0
426 41 1 0.1266165 22.29516206159365 6.2081313552319255 -0.030806492672999064 -1 0 0
547 51 5 0.0582835 4.660047608435265 5.100971936256467 0.17592478322876404 0 0 1
913 82 1 0.1266165 7.725412421091672 3.124129875939744 0.19252178313246726 0 0 0
425 41 2 -0.3889835 21.027638725789952 5.519080069562858 -0.17147999353519722 -1 0 0
977 91 6 1 9.290220737542043 6.703837054973801 0.28060989311151074 0 0 1
573 53 5 0.0582835 12.253064800717837 3.5241116696753054 -0.27282873510958017 0 0 1
703 64 5 0.0582835 15.039211219417496 3.8495707652989806 -0.19042570742932652 0 0 1
705 64 5 0.0582835 16.533777459209908 4.620557398262843 0.49715509079290277 0 0 1
235 24 4 -0.5484 17.18020566738933 1.0283665549134264 0.47889074821359623 0 0 0
700 64 4 -0.5800835 14.773789201642574 6.593458374114017 -0.1307266176530728 0 0 1
542 51 2 -0.3889835 4.744486597742421 7.270456892835301 -0.14565418758153595 0 0 1
599 55 5 0.0582835 6.730668133086893 0.665443541675096 21.632834115462074 0 1 -1
594 55 1 0.1266165 6.103688864162676 -0.10744408699627922 21.31412962820812 0 1 -1
38 4 5 0.0798 19.775358498935773 0.3926791430822504 22.431601116866233 -1 0 -1
135 14 4 -0.5484 -0.10882050912759783 9.681887070239418 22.470805549300536 1 0 0
430 41 5 0.0582835 22.224009350695226 7.091281515783441 22.506421883191358 -1 0 -1
416 40 5 0.0582835 18.145442057795215 8.245065609469133 22.79453662857246 -1 0 -1
708 64 5 0.0582835 15.090260824225895 9.13181724167391 22.200154960048046 0 0 0
463 44 5 0.0582835 2.8439703109299144 2.5972682641653497 11.96588975794044 0 0 0
436 42 4 -0.5800835 3.962039128268282 5.208179942267804 12.972166573653263 0 0 0
435 42 3 0.7551165 5.149932763504057 5.144523495191058 12.67780404863907 0 0 0
631 58 5 0.0582835 1.3483065618372347 1.064486599551474 14.336662003963326 0 0 0
287 29 5 0.0798 21.681219301815876 3.453305709490007 15.011566033300035 -1 0 0
434 42 2 -0.3889835 6.113246395437189 4.644184413195971 13.554030167799782 0 0 0
437 42 2 -0.3889835 5.542363556438233 5.606097445805787 11.455314811410592 0 0 0
459 44 3 0.7551165 3.7895540247311574 0.132946942519221 11.578741969006506 0 0 0
230 23 5 0.0798 7.846467840244619 3.484024438167205 11.536288631353475 0 0 0
223 23 2 -0.4048 8.713915408494174 2.5056862891299967 13.296118805104014 0 0 0
288 29 5 0.0798 -0.018434889876403182 4.437700437548726 14.468373318316667 0 0 0
281 29 1 0.0955 22.212086619653228 3.9115840549508887 14.196236085536578 -1 0 0
439 42 5 0.0582835 5.009505320057334 3.2562935186846467 14.719729169840132 0 0 0
222 23 1 0.0955 8.086984307110006 2.524790627104357 11.99309599213518 0 0 0
229 23 5 0.0798 8.692199968557741 1.9332473482636399 11.294902198665023 0 0 0
460 44 4 -0.5800835 3.424358446312691 0.2969307729314996 12.74870235279313 0 0 0
643 59 5 0.0582835 22.760683730362985 -0.017346653349981256 11.724375528865416 -1 1 0
227 23 5 0.0798 6.866646228380268 0.7147447917290553 11.58837529510017 0 0 0
224 23 3 0.8478 7.963752287986527 1.7317089886900152 14.149232639637848 0 0 0
225 23 4 -0.5484 8.295398028997589 1.5203967085193133 15.316131338115664 0 0 0
221 23 1 0.0955 6.861407095540379 1.657542746226777 12.209314959883951 0 0 0
228 23 5 0.0798 6.008226140066389 2.199925487918444 11.872371791227396 0 0 0
226 23 2 -0.4048 6.876212647103026 1.2062061985301276 13.550574064384056 0 0 0
102 11 1 0.0955 10.522266373221006 6.392491886065017 14.511209689966348 0 0 0
103 11 2 -0.4048 9.212669501615487 6.609105502479948 14.933588082308967 0 0 0
109 11 5 0.0798 11.1616355577541 7.262607086697701 14.133169759778587 0 0 0
110 11 5 0.0798 10.372363880378934 5.783525163320276 13.643684398794656 0 0 0
844 76 4 -0.5800835 12.704447586414693 2.1884693168458 13.001631780360846 0 0 0
850 76 5 0.0582835 12.200922141268855 0.13148067853256507 14.555501694326837 0 0 0
847 76 5 0.0582835 13.892351391077957 4.568105685600275 12.308955411379143 0 0 0
248 25 5 0.0798 11.708604678534254 5.021665922744054 11.781995039589031 0 0 0
843 76 3 0.7551165 13.352620497459007 2.4938913782189105 14.0510840942345 0 0 0
845 76 2 -0.3889835 13.025489659864583 1.9012189626030094 15.239399538034784 0 0 0
846 76 1 0.1266165 11.906200521730796 0.955633420351222 15.140229015426815 0 0 0
849 76 5 0.0582835 14.907241610735557 3.2117959749075555 11.890003180695748 0 0 0
841 76 1 0.1266165 14.719472854351825 4.00092060546291 12.692054123869884 0 0 0
842 76 2 -0.3889835 14.383212552603988 3.3878745469357447 14.001315038661463 0 0 0
286 29 2 -0.4048 22.587216881455742 2.8403587888817476 13.34754547211805 -1 0 0
848 76 5 0.0582835 15.576516283146523 4.572292397794717 12.731497643426668 0 0 0
367 36 5 0.0582835 16.146551346391963 6.417720623126679 13.431041384544791 0 0 0
383 37 5 0.0582835 18.689876516393177 5.718619740050737 11.67643973714455 0 0 0
284 29 3 0.8478 21.990558519501242 3.043460134312864 12.151338438786883 -1 0 0
282 29 1 0.0955 21.326841299414916 4.777810685671046 13.40013707786374 -1 0 0
283 29 2 -0.4048 21.235142684343117 4.181082765741732 12.139810126780489 -1 0 0
290 29 5 0.0798 21.73281747500111 5.737493440021023 13.289599068409364 -1 0 0
111 12 1 0.0955 18.053848265064513 1.6154672505046532 12.295959019922694 0 0 0
112 12 1 0.0955 18.25646592001295 2.3193448297830477 13.605006400872748 0 0 0
117 12 5 0.0798 18.463865977966773 2.239630340658731 11.456867461536586 0 0 0
118 12 5 0.0798 17.04545334118902 1.315356765354568 11.960385931114484 0 0 0
116 12 2 -0.4048 19.04355432717978 0.6294712254138746 12.236267749277188 0 0 0
119 12 5 0.0798 18.181838817922287 3.4428364259725046 13.584061153994277 0 0 0
289 29 5 0.0798 20.28813350902699 4.927408365052428 13.767317894117049 -1 0 0
113 12 2 -0.4048 19.349104699047864 1.7202395993673476 14.229409701602245 0 0 0
120 12 5 0.0798 17.4008953535737 2.0252714681848425 14.201107847904785 0 0 0
564 52 5 0.0582835 20.97516636103048 8.180099227697513 11.906544430722805 0 0 0
114 12 3 0.8478 19.722808283706865 0.7674843865285499 13.365634388877771 0 0 0
115 12 4 -0.5484 20.655497221692894 0.007452556796213705 13.578961677807337 0 0 0
886 79 5 0.0582835 18.603096828152626 2.433853665384129 16.83938024400404 0 0 0
453 43 5 0.0582835 5.208766699959508 7.339539832918568 14.430993342634286 0 0 0
445 43 1 0.1266165 6.131087725509051 7.8960199708721674 14.174459139474264 0 0 0
446 43 2 -0.3889835 5.98409595043567 9.359360708724964 14.389178541733724 0 0 0
447 43 3 0.7551165 5.096355096576743 9.959244789189263 13.543030239264692 0 0 0
448 43 4 -0.5800835 4.507290550720011 9.272861260556567 12.695876959023499 0 0 0
451 43 5 0.0582835 6.359095984851402 7.708363565548704 13.141817297635017 0 0 0
823 74 5 0.0582835 1.9603390369283877 8.286659857695199 14.398973655756535 0 0 0
864 77 5 0.0582835 6.8568097795922185 10.782553094939233 11.660389911133551 0 0 0
824 74 5 0.0582835 2.0767466546282383 6.542143353875099 13.822881636747839 0 0 0
817 74 1 0.1266165 1.4495597108987994 7.513249022459502 13.767829297293982 0 0 0
818 74 2 -0.3889835 0.11962092547525527 7.330531724524862 14.191530585659317 0 0 0
825 74 5 0.0582835 1.4725922331219257 7.971636909151282 12.781242946652286 0 0 0
452 43 5 0.0582835 6.90347953578933 7.521051263996771 14.73734188466205 0 0 0
860 77 5 0.0582835 12.370722351203499 9.642226092391342 13.5071548636969 0 0 0
856 77 4 -0.5800835 9.41926351491966 11.255699339324073 11.854235316290456 0 0 0
853 77 1 0.1266165 11.54929416415681 10.257749427227262 13.067515075900726 0 0 0
854 77 2 -0.3889835 10.424933959418688 9.40728062633558 12.634072995149067 0 0 0
855 77 3 0.7551165 9.412752366367398 10.052786394675746 12.03243895832087 0 0 0
857 77 2 -0.3889835 8.324449942537159 9.301733375110278 11.64650705419903 0 0 0
859 77 5 0.0582835 11.294244606951809 10.985097428950777 13.830696631773861 0 0 0
861 77 5 0.0582835 11.927787781379447 10.807306532164306 12.170917328519906 0 0 0
369 36 5 0.0582835 14.958861718053404 7.609538473351115 13.909434910518888 0 0 0
956 85 5 0.0582835 16.416575797232007 11.052347705874116 11.86953940878324 0 0 0
995 97 7 -0.5 13.172821137312624 10.566748564426929 16.15343595934381 0 0 0
361 36 1 0.1266165 16.057456799861342 7.464340768265609 13.64657956126489 0 0 0
368 36 5 0.0582835 16.627225752688037 7.737391493749074 14.563333947279759 0 0 0
819 74 3 0.7551165 22.39513131909497 8.36069979854652 14.129992688726269 -1 0 0
820 74 4 -0.5800835 22.64121977253661 9.486634614308768 13.740615699748155 -1 0 0
363 36 3 0.7551165 15.775988418584216 8.260497952239858 11.38771403230617 0 0 0
362 36 2 -0.3889835 16.43188817888037 8.379817325297113 12.543359972754716 0 0 0
821 74 2 -0.3889835 21.15122948325265 7.940570257043399 14.593387872348789 -1 0 0
826 74 5 0.0582835 19.906732294178152 9.367046023935057 13.643274351980121 -1 0 0
822 74 1 0.1266165 20.098689539354442 8.950194733202697 14.61143332837147 -1 0 0
601 56 1 0.1266165 10.888845813075008 -0.10542167268926206 11.324782118110685 0 0 0
608 56 5 0.0582835 11.124274580530743 0.9247265453054723 11.525075632002356 0 0 0
659 60 5 0.0582835 14.300516101632974 0.8915684351995379 11.635273776904462 0 1 0
654 60 1 0.1266165 14.41188048152921 -0.11211534847061344 11.978885051870078 0 1 0
653 60 2 -0.3889835 14.95229093941292 0.007066089983974483 13.371430878606702 0 1 0
632 58 5 0.0582835 2.6386391339895034 1.888596621124813 15.239982702452416 0 0 0
625 58 1 0.1266165 1.8068932193145053 1.1924040616438907 15.322703240200795 0 0 0
633 58 5 0.0582835 2.129387486363683 0.2278915612005779 15.650538391527755 0 0 0
598 55 5 0.0582835 5.357902294619255 0.37315237593962824 20.657717607705173 0 1 -1
433 42 1 0.1266165 5.620210238596235 4.196639552136812 14.839474595717281 0 0 0
544 51 4 -0.5800835 2.797359004008931 6.260195497238378 22.27316833108064 0 0 0
441 42 5 0.0582835 4.960773456393452 4.935604047303615 15.266037533402535 0 0 0
626 58 2 -0.3889835 0.9936678288404097 1.7840519072798124 16.340066316172752 0 0 0
627 58 3 0.7551165 -0.11709651039403818 1.0990850019400535 16.67373621097269 0 0 0
386 38 2 -0.3889835 5.029712512372742 1.2502950777039645 16.89877751401125 0 0 0
387 38 3 0.7551165 4.101021408993751 1.617459098466171 17.877845482652603 0 0 0
389 38 2 -0.3889835 3.6626247270910266 2.9664334411881494 17.867602173070942 0 0 0
396 38 5 0.0582835 1.8303265063978715 2.7514354524562843 18.726204185255455 0 0 0
629 58 2 -0.3889835 22.254121614316627 1.7260063824975287 17.68656115968725 -1 0 0
390 38 1 0.1266165 2.68735628546914 3.3613142912376177 18.81762875292126 0 0 0
394 38 5 0.0582835 3.053510749969919 3.185371517672462 19.79530492484742 0 0 0
395 38 5 0.0582835 2.4867361991226367 4.4654786481507145 18.678285676102547 0 0 0
58 6 5 0.0798 22.86616272005893 5.192517757619477 16.913612592554813 -1 0 0
920 82 5 0.0582835 6.9524413294816245 3.588938302176898 22.705680132899403 0 0 -1
57 6 5 0.0798 22.138527830712118 4.9307836128109015 18.628306082031898 -1 0 0
440 42 5 0.0582835 6.47808160934395 4.088324238032187 15.540829631895878 0 0 0
628 58 4 -0.5800835 22.711150389323965 0.017283939038165552 16.072581189255246 -1 0 0
51 6 1 0.0955 22.030838590025642 5.497686436441788 17.611280290297934 -1 0 0
59 6 5 0.0798 22.19870618598451 7.174174519454103 18.89852558524838 -1 0 0
56 6 2 -0.4048 20.79178800498859 5.057053977064808 17.041915227121578 -1 0 0
52 6 1 0.0955 21.927815859278414 7.000192696328678 17.800393418460985 -1 0 0
921 82 5 0.0582835 8.294450428652196 2.4377712440455275 22.72536176117859 0 0 -1
191 20 1 0.0955 6.540598596904049 7.461481950184809 19.2623837629991 0 0 0
388 38 4 -0.5800835 3.6302685972872193 0.8492386146505142 18.70190656360404 0 0 0
192 20 1 0.0955 6.213855312970411 6.086056091250804 19.736987620477173 0 0 0
199 20 5 0.0798 5.133746702485482 5.995259053256633 19.804902295853097 0 0 0
200 20 5 0.0798 6.692658936122773 5.431056527668085 19.085789334070178 0 0 0
35 4 4 -0.5484 0.21707098788365908 2.1368813595208898 21.869944444603462 0 0 -1
198 20 5 0.0798 7.122897474679727 7.537188325869659 18.327269077969362 0 0 0
852 76 5 0.0582835 11.020387692227072 1.3172504386515311 14.719243983929836 0 0 0
568 53 4 -0.5800835 10.59035656479066 5.654782328695972 21.95555288668362 0 0 0
104 11 3 0.8478 8.998407740385652 5.882717645520451 16.0563351511736 0 0 0
101 11 1 0.0955 11.190751056068342 5.440294488090321 15.520367337679135 0 0 0
107 11 5 0.0798 11.883358189815606 6.034464557522599 16.145404595517434 0 0 0
108 11 5 0.0798 11.808499600042557 4.630296413168672 15.046548565608301 0 0 0
565 53 1 0.1266165 12.102535670713992 3.285192595902795 21.820684780631588 0 0 0
571 53 5 0.0582835 11.127777222017412 2.823623863496453 21.69414201210504 0 0 0
105 11 4 -0.5484 7.909511813769116 5.876035588004436 16.621113778101112 0 0 0
106 11 2 -0.4048 10.112150936521875 5.1777817944988325 16.447827563526502 0 0 0
524 49 5 0.0582835 13.38644451495304 2.8966089137543247 17.898822389904453 0 0 0
883 79 5 0.0582835 14.487036663545162 5.767972848565841 16.45483887690485 0 0 0
2 1 1 0.0955 8.975710347660131 3.299623311852107 18.94470107945935 0 0 0
9 1 5 0.0798 9.213986033526348 4.010809382329611 19.706067843791473 0 0 0
10 1 5 0.0798 8.262387387484969 3.7930090018012947 18.27252954971923 0 0 0
193 20 2 -0.4048 6.704626098362122 6.037525962453345 21.038652835714153 0 0 0
194 20 3 0.8478 7.3015577279336465 7.139401965563547 21.400659482500892 0 0 0
195 20 4 -0.5484 7.827004573259066 7.332243439438516 22.462224034679956 0 0 0
517 49 1 0.1266165 14.001630859483539 2.017736874491128 18.007684802583803 0 0 0
518 49 2 -0.3889835 13.105598576091875 0.972267094031013 18.419866685996332 0 0 0
566 53 2 -0.3889835 12.315411479396696 4.431559704000849 20.98569608798666 0 0 0
567 53 3 0.7551165 11.506793127902084 5.551986312662409 21.144158313743908 0 0 0
3 1 2 -0.4048 8.61091084176937 2.1774082870233067 19.781342524696555 0 0 0
572 53 5 0.0582835 12.91489508176631 2.5562789202519642 21.53809707947073 0 0 0
569 53 2 -0.3889835 11.821321933902091 6.534005855000031 20.29339592007556 0 0 0
4 1 3 0.8478 9.643434472177242 1.2362730835454767 19.617300549950734 0 0 0
5 1 4 -0.5484 9.714712914194902 0.1530240472381431 20.183699417259966 0 0 0
8 1 5 0.0798 9.926158192171744 2.630003309223838 17.211160935504424 0 0 0
1 1 1 0.0955 10.253956896487873 2.9141481639224227 18.258122962696156 0 0 0
7 1 5 0.0798 11.030723320650216 3.686452127554729 18.12594919558051 0 0 0
570 53 1 0.1266165 10.96230905437876 7.783394561260392 20.413124168198884 0 0 0
576 53 5 0.0582835 9.917205804492742 7.508993417186403 20.187538285096892 0 0 0
877 79 1 0.1266165 15.301724282821189 6.19119959840241 17.01777745949191 0 0 0
885 79 5 0.0582835 15.96991474347277 6.545775402090743 16.245953960999543 0 0 0
6 1 2 -0.4048 10.609646654856244 1.637698392330747 18.712799284852622 0 0 0
422 41 2 -0.3889835 19.36157613275163 4.819879170041607 21.512940097775775 -1 0 -1
423 41 3 0.7551165 20.549058290601508 5.4748938740878454 21.661526262271238 -1 0 -1
53 6 2 -0.4048 20.622847139089632 7.325756456874739 17.335297912067773 -1 0 0
523 49 5 0.0582835 14.451967581617573 1.6404396376077564 17.097737565087108 0 0 0
525 49 5 0.0582835 14.786321458493298 2.2925648584577014 18.73493634818832 0 0 0
878 79 2 -0.3889835 15.910662303096608 5.18541566188544 17.905653005804687 0 0 0
880 79 4 -0.5800835 16.568952402256002 4.0106966442611025 16.069162496244452 0 0 0
879 79 3 0.7551165 16.519813487684633 4.121891744596678 17.299351189649528 0 0 0
34 4 3 0.8478 22.1707880514943 2.01018682143738 22.175411977294303 -1 0 -1
55 6 4 -0.5484 18.92481028191553 6.2320042160995825 16.445294795110343 -1 0 0
37 4 5 0.0798 19.212070779180294 1.7902145312517592 21.60438947872254 -1 0 -1
31 4 1 0.0955 20.0631969002594 1.4584188182263815 22.223458287375067 -1 0 -1
636 58 5 0.0582835 20.383588449610926 1.0132040613160649 17.18996459591552 -1 0 0
630 58 1 0.1266165 21.08839373864653 1.0347665194749345 18.045205914955055 -1 0 0
635 58 5 0.0582835 20.502881105372936 1.5370540278097562 18.782298255938173 -1 0 0
634 58 5 0.0582835 21.191663345397473 -0.012114527851759871 18.306650182322258 -1 0 0
421 41 1 0.1266165 18.807590250541054 4.733952092671673 20.174526599105995 -1 0 -1
428 41 5 0.0582835 17.964609275610105 3.9903232595845575 20.188655744075376 -1 0 -1
429 41 5 0.0582835 18.417385570917578 5.739398998561656 19.874351758060882 -1 0 -1
54 6 3 0.8478 20.0257673587513 6.1682291899864525 16.905826735735765 -1 0 0
888 79 5 0.0582835 17.057026691826263 1.5834606037839385 16.764284646441155 0 0 0
881 79 2 -0.3889835 17.104650227283685 3.160348937755298 18.122426182675497 0 0 0
882 79 1 0.1266165 17.769519770733048 2.067251761192237 17.42831399429936 0 0 0
887 79 5 0.0582835 18.16117472422573 1.3127456340686674 18.10175660357997 0 0 0
36 4 2 -0.4048 21.24809578920301 1.3724383921368206 21.462567802877295 -1 0 -1
427 41 5 0.0582835 19.461912011980427 4.393805228768267 19.365029732545054 -1 0 -1
697 64 1 0.1266165 16.047983584693398 4.221288771241674 22.73288591357122 0 0 0
704 64 5 0.0582835 16.603472864661093 3.314406740020723 22.363690737411332 0 0 0
698 64 2 -0.3889835 16.123019656480377 5.32186632915851 21.718642768949003 0 0 0
424 41 4 -0.5800835 21.065163764943254 5.948516755383399 20.629171599221664 -1 0 -1
253 26 2 -0.4048 1.561471222163581 11.140253344788661 15.716676771131894 0 0 0
197 20 5 0.0798 5.614554754855337 8.081587439592754 19.253635517100776 0 0 0
60 6 5 0.0798 22.69322331074267 7.406171181278042 17.15925801091727 -1 0 0
543 51 3 0.7551165 3.6013345747195804 7.231515572140436 22.198539744631567 0 0 0
545 51 2 -0.3889835 3.25219069481999 8.226224232902288 21.298708694655076 0 0 0
552 51 5 0.0582835 2.25785600933058 7.151051706618952 19.893854558742696 0 0 0
432 41 5 0.0582835 0.02702625921993962 5.601132300809218 22.671939417513016 0 0 -1
255 26 4 -0.5484 1.6885818675963586 9.14903754012352 16.814798685971525 0 0 0
551 51 5 0.0582835 1.8031154510459606 8.832266788501832 19.95077181372094 0 0 0
546 51 1 0.1266165 2.0191619849145 7.974647340128376 20.596263845146986 0 0 0
550 51 5 0.0582835 1.1535466228097846 7.741345502696854 21.197622968502884 0 0 0
173 18 2 -0.4048 6.960382548339364 10.089454885823606 17.526999600630724 0 0 0
254 26 3 0.8478 1.4964613053824105 10.363237038454699 16.87698885757036 0 0 0
256 26 2 -0.4048 1.173352962494239 11.118212125763431 17.973928801876916 0 0 0
788 71 5 0.0582835 7.0065689383597185 10.19031111541926 21.387593772757207 0 0 0
136 14 2 -0.4048 22.509494358737715 9.74544803215421 20.175010581037384 0 0 0
196 20 2 -0.4048 7.237227301561223 8.04585033216337 20.375883265362773 0 0 0
574 53 5 0.0582835 11.077508607243791 8.25237503607412 21.404928082332823 0 0 0
575 53 5 0.0582835 11.196403789361236 8.436827484093238 19.558221917036654 0 0 0
781 71 1 0.1266165 7.657398594734859 11.015571005379856 21.04540567572053 0 0 0
707 64 5 0.0582835 13.724667954269753 8.518296568321245 21.266458311298408 0 0 0
177 18 5 0.0798 8.87336968202558 11.182350878748913 15.293471021111866 0 0 0
998 97 7 -0.5 13.618794417446006 8.297110652087689 16.06871543195642 0 0 0
999 97 7 -0.5 13.324102707202748 9.368791651371907 18.076732268790792 0 0 0
179 18 5 0.0798 7.985682094151564 9.231984538787689 15.988387651587418 0 0 0
172 18 1 0.0955 8.247380786343399 9.86434501273591 16.869637473189222 0 0 0
180 18 5 0.0798 9.141508638229936 9.381030064633158 17.269815145750016 0 0 0
782 71 2 -0.3889835 9.030290137164192 10.593285783369327 21.084983736753443 0 0 0
996 97 8 1 12.91166236357414 9.349517984919162 16.77373313667853 0 0 0
171 18 1 0.0955 8.596363181457432 11.204924214550664 16.336417898482594 0 0 0
785 71 2 -0.3889835 11.16996516478028 11.088167178908721 20.41257763926079 0 0 0
997 97 7 -0.5 11.589013996195751 9.06626828561049 16.708839954575872 0 0 0
884 79 5 0.0582835 14.955065395857858 7.030538395918002 17.681374704779394 0 0 0
706 64 5 0.0582835 14.992866662112165 9.484650553673516 20.497493210969388 0 0 0
702 64 1 0.1266165 14.86130819899031 8.718954169310251 21.22979528505079 0 0 0
827 74 5 0.0582835 19.149276900842832 8.530460480789513 14.983179595384009 -1 0 0
134 14 3 0.8478 22.28305567626919 9.933232432777434 21.524757613692046 0 0 0
701 64 2 -0.3889835 15.575219483017237 7.483518470717745 21.00966005446594 0 0 0
756 68 5 0.0582835 16.23079360133587 9.201874174086386 18.455025691692327 0 0 0
755 68 5 0.0582835 17.308767523790557 7.859273033462456 19.1952451537 0 0 0
828 74 5 0.0582835 20.342870158836284 9.701111353764892 15.390005375657902 -1 0 0
754 68 5 0.0582835 17.053269891045417 7.947207296635641 17.362921233369995 0 0 0
750 68 1 0.1266165 17.159625617634884 8.617452187895266 18.29907956649403 0 0 0
748 68 4 -0.5800835 17.323430592643124 10.521345385455874 16.375369478836532 0 0 0
699 64 3 0.7551165 15.44679396906531 6.502002505588515 21.996707428137952 0 0 0
140 14 5 0.0798 19.282363067714904 10.444815760931094 20.168729937976714 0 0 0
133 14 2 -0.4048 21.004661343607296 10.484271981413249 21.637159881958418 0 0 0
746 68 2 -0.3889835 19.348134107155737 11.223298978794437 17.19597929301294 0 0 0
138 14 5 0.0798 20.96980720076636 9.132959950212943 19.05560322288847 0 0 0
131 14 1 0.0955 21.44964103306722 10.11841728717451 19.407393557610725 0 0 0
747 68 3 0.7551165 18.263134716014903 10.420843734383025 17.20151108291367 0 0 0
749 68 2 -0.3889835 18.277409125244283 9.536487786036393 18.17764611604275 0 0 0
137 14 5 0.0798 21.53474484594514 10.749908675932007 18.502869921492064 0 0 0
132 14 1 0.0955 20.364876591836712 10.682346611611626 20.35117724003424 0 0 0
385 38 1 0.1266165 5.446361537062706 -0.11539750990802942 16.875933033846565 0 0 0
851 76 5 0.0582835 11.698625505124408 0.7081138159693163 16.18124259003725 0 0 0
519 49 3 0.7551165 13.727732743444038 -0.19583505494211295 18.78958129771612 0 0 0
871 78 5 0.0582835 4.09420048139303 22.834433452115896 5.502593835471335 0 0 0
873 78 5 0.0582835 3.802035911245663 21.176746105545732 4.696276026879035 0 0 0
93 10 2 -0.4048 8.733731742198797 22.394057154962734 4.291873450178657 0 0 0
99 10 5 0.0798 9.61968180992515 22.525417033099668 2.2772848124073914 0 0 0
92 10 1 0.0955 8.640092149089334 22.429931613421335 2.8476393937320434 0 0 0
401 39 2 -0.3889835 6.018379618326737 13.369053930611546 5.39258294660843 0 0 0
402 39 1 0.1266165 4.947487320492757 12.403533984722365 5.667099161241277 0 0 0
406 39 5 0.0582835 3.8617028469223618 12.729833794981518 5.750348486216421 0 0 0
407 39 5 0.0582835 4.909594461732908 11.753913255533352 4.8126446615830485 0 0 0
408 39 5 0.0582835 5.195011991361747 11.779113189052902 6.520188372678791 0 0 0
507 48 3 0.7551165 4.75052121170794 11.95087042993331 1.395047773488597 0 0 0
508 48 4 -0.5800835 5.0819603053141895 11.70765484427897 0.2423895516891692 0 0 0
399 39 3 0.7551165 7.253978584141722 12.844644889510027 5.244924151897052 0 0 0
400 39 4 -0.5800835 7.476895820309891 11.641012703754848 5.327625032080965 0 0 0
150 15 5 0.0798 0.6865551420572561 11.958728459853274 3.1003651706930953 0 0 0
398 39 2 -0.3889835 8.182322085695752 13.842535160118713 4.9978854473662375 0 0 0
142 15 1 0.0955 0.7792892147927317 13.027569208778429 2.9329566455954565 0 0 0
143 15 2 -0.4048 22.794352208172736 13.806800146471323 3.5021265533960153 -1 0 0
149 15 5 0.0798 0.8220532610136326 13.211896181616757 1.87521094294679 0 0 0
148 15 5 0.0798 2.4009962728964753 12.827476590859435 4.1769669506537745 0 0 0
509 48 2 -0.3889835 5.253636114666412 13.085864050103922 2.0134086243352525 0 0 0
141 15 1 0.0955 2.0119287844550495 13.618203569415734 3.444173751959298 0 0 0
147 15 5 0.0798 2.8683253088767593 13.566026548916758 2.6480422745196877 0 0 0
516 48 5 0.0582835 7.02257752937676 13.305816925498139 0.8735315287870644 0 0 0
947 84 5 0.0582835 7.674061321760033 13.537653083103432 7.58895218918886 0 0 0
325 33 1 0.1266165 11.606724335879182 12.807585315221825 0.1776623259764894 0 0 0
326 33 2 -0.3889835 12.581334675717015 13.24598215837956 1.213064648510432 0 0 0
327 33 3 0.7551165 12.424340703122349 12.677241988879747 2.4466491150300502 0 0 0
328 33 4 -0.5800835 11.48820294506909 11.851160367766822 2.5571650986452283 0 0 0
329 33 2 -0.3889835 13.288326838938298 13.040820071461505 3.458330534373662 0 0 0
330 33 1 0.1266165 13.023963115684607 12.375435504157847 4.724650219052888 0 0 0
331 33 5 0.0582835 10.577622938362854 13.079452695608028 0.41504633549944137 0 0 0
335 33 5 0.0582835 13.70074564802688 12.730616662052629 5.511919704901828 0 0 0
336 33 5 0.0582835 11.956093593766663 12.415400999230629 5.013633255061338 0 0 0
959 85 5 0.0582835 14.8812824075168 14.352129324499515 6.5874345791035305 0 0 0
954 85 1 0.1266165 14.710475796034316 14.24288913276889 7.665170641903362 0 0 0
397 39 1 0.1266165 9.538600388974066 13.347093872917343 4.821381891217237 0 0 0
403 39 5 0.0582835 9.556776960833059 12.775290593549643 3.9207844560158795 0 0 0
333 33 5 0.0582835 11.606600925399265 11.773840683982753 -0.13898776929365406 0 0 0
129 13 5 0.0798 15.626197604037282 14.924536530364305 2.3954795955177777 0 0 0
404 39 5 0.0582835 10.14423070457351 14.275628587500206 4.774278586873404 0 0 0
405 39 5 0.0582835 9.800779126918028 12.791293864824427 5.762520294067847 0 0 0
358 35 5 0.0582835 13.064783647663665 16.826333909096146 -0.09833131846141058 0 0 0
354 35 1 0.1266165 12.128533503544402 16.92311130460057 0.49576007869308936 0 0 0
359 35 5 0.0582835 12.175290672572356 16.251454319085653 1.3175228183276708 0 0 0
496 47 4 -0.5800835 11.51357212126681 15.051444776943033 7.994043670987816 0 0 0
360 35 5 0.0582835 11.32158083033754 16.66326673761228 -0.21154511608280302 0 0 0
130 13 5 0.0798 15.515430366166811 14.765236827791616 0.6765629868535018 0 0 0
123 13 2 -0.4048 17.353401270854906 14.828063729332822 1.8501012008175133 0 0 0
122 13 1 0.0955 16.074931809130874 15.22298179665992 1.4829081745199153 0 0 0
299 30 5 0.0798 21.232768072949263 14.302189232029098 0.5093345974463624 0 0 0
295 30 4 -0.5484 18.09407424525606 11.454829993532613 -0.022273594810482633 0 0 0
80 8 5 0.0798 17.988056620524898 12.023950729411382 4.677529723635954 0 0 0
291 30 1 0.0955 21.009036758906603 12.325854404099212 1.4860253711737954 0 0 0
292 30 1 0.0955 20.951012888883415 13.298148013403772 0.35239294846045455 0 0 0
294 30 3 0.8478 19.167054301448417 11.974850759062159 0.3267212937466245 0 0 0
296 30 2 -0.4048 19.850187497498265 11.526834642671162 1.3839338905620255 0 0 0
297 30 5 0.0798 20.844196034022612 12.894064961595166 2.4355497644230466 0 0 0
298 30 5 0.0798 21.943744116781613 11.882992304014728 1.745391703001013 0 0 0
838 75 5 0.0582835 19.67499053577073 13.41527451183235 5.105722007472353 0 0 0
1005 99 7 -0.5 22.51054577679873 11.379673333852393 6.064435210561652 -1 0 0
834 75 1 0.1266165 19.98467966223471 14.010231465188046 6.0113479407702215 0 0 0
839 75 5 0.0582835 21.015283664061947 13.763746962818134 6.085832014679845 0 0 0
832 75 4 -0.5800835 17.58643169890233 15.237034213257816 5.858509728676604 0 0 0
840 75 5 0.0582835 19.46308590912612 13.788434797665701 6.942873194006622 0 0 0
872 78 5 0.0582835 5.3696294312090815 21.993576685621843 4.620949569740876 0 0 0
50 5 5 0.0798 0.9575437739750114 21.769662984553296 5.146136003212433 1 -1 0
41 5 1 0.0955 0.8583694420777086 22.377930748555038 3.0762673607934587 1 -1 0
47 5 5 0.0798 1.1211005166065477 21.723516649540013 2.3169832111244957 1 -1 0
865 78 1 0.1266165 4.474453413551434 21.856582882800147 5.267045594224492 0 0 0
187 19 5 0.0798 4.340901738944213 15.850213745801408 6.271290082185529 0 0 0
42 5 1 0.0955 0.36725089159180535 21.599238299049965 4.264120190222007 1 -1 0
510 48 1 0.1266165 6.12853670182153 13.864228674901083 1.1935362089329455 0 0 0
515 48 5 0.0582835 6.582893978640175 14.69046272864413 1.7864823168074655 0 0 0
514 48 5 0.0582835 5.531938534322618 14.220407708143378 0.34501951806856435 0 0 0
692 63 5 0.0582835 5.469210803538978 18.82889757386666 3.343165084484378 0 -1 1
686 63 2 -0.3889835 6.014048053219119 18.985086073873514 1.4083819716209491 0 -1 1
146 15 2 -0.4048 1.603884202725532 14.71584095440628 4.295256972197965 0 0 0
186 19 2 -0.4048 3.777118490833706 17.720601866590563 5.564558299776812 0 0 0
144 15 3 0.8478 0.22117647585808065 14.78554361947639 4.303216578917882 0 0 0
184 19 3 0.8478 2.470164435202899 18.00654036830459 5.428330872044336 0 0 0
185 19 4 -0.5484 2.0927362431331544 18.76477697058217 4.544783318101349 0 0 0
590 55 2 -0.3889835 3.949565940611225 21.121273858981727 0.24615657400447832 0 0 0
778 70 5 0.0582835 22.346931735043185 16.40876174863004 2.146794068421924 0 0 0
779 70 5 0.0582835 0.7028460950731982 17.120777906819733 1.3606284546326006 1 0 0
774 70 1 0.1266165 -0.030659554313851367 17.25866143461282 2.159671673200155 1 0 0
780 70 5 0.0582835 0.4492829203267632 17.317695197410234 3.1894861115196806 1 0 0
866 78 2 -0.3889835 4.828427086461866 21.128633435486858 6.507044111595759 0 0 0
49 5 5 0.0798 0.24503688105911803 20.52505720637641 4.07155569081041 1 -1 0
596 55 5 0.0582835 2.46545324507402 19.94246490794051 1.1626598756749145 0 0 0
589 55 1 0.1266165 2.861235369039888 20.10184806998415 0.17969239631372408 0 0 0
687 63 3 0.7551165 6.091109110787217 18.494633063918148 0.1536577591146065 0 -1 1
685 63 1 0.1266165 5.325533948279984 18.20133489039156 2.4326134299325095 0 -1 1
691 63 5 0.0582835 5.8494884128495235 17.286326155411256 2.551950165562781 0 -1 1
693 63 5 0.0582835 4.261611297146909 18.07266009440165 2.1895218939859507 0 -1 1
688 63 4 -0.5800835 5.581073081508382 17.401564358714833 -0.14637868419224595 0 -1 1
181 19 1 0.0955 3.9414856751839755 16.81812024841411 6.631639973371367 0 0 0
183 19 2 -0.4048 1.678527098503762 17.351849570230076 6.356997148465574 0 0 0
189 19 5 0.0798 2.1317899581388917 15.66409165009199 7.187663859195745 0 0 0
25 3 4 -0.5484 2.7870343881669855 14.681314978068228 0.532041498456297 0 0 1
95 10 4 -0.5484 8.064841689811033 20.81936961565604 5.894086505650289 0 0 0
501 47 5 0.0582835 11.54624395770192 17.565236421314392 7.161285637135925 0 0 0
499 47 5 0.0582835 10.034397224324778 16.959719748524268 6.4458868515869945 0 0 0
94 10 3 0.8478 8.166085837400365 21.21512049070912 4.724929509172931 0 0 0
97 10 5 0.0798 8.699439146582915 20.671468277859084 1.8235018101222078 0 0 0
353 35 2 -0.3889835 11.973697240081288 18.185913078701088 0.9948231391111819 0 0 0
613 57 1 0.1266165 13.250955668782789 17.15391161214943 4.5810323018642505 0 0 0
620 57 5 0.0582835 14.151483288959598 16.542066129813186 4.450391831114766 0 0 0
621 57 5 0.0582835 13.479676705480847 18.04885099602123 4.028891606273475 0 0 0
96 10 2 -0.4048 7.706212851639083 20.506378522311742 3.6645434757680855 0 0 0
356 35 5 0.0582835 12.349138220616851 22.576251949351352 0.3315336155364079 0 0 0
614 57 2 -0.3889835 12.207871483523773 16.518581066448473 3.8761020043707486 0 0 0
615 57 3 0.7551165 11.025512323122308 17.2316515901537 3.7971663630252266 0 0 0
616 57 4 -0.5800835 10.925910846299134 18.322716198585706 4.328900412903536 0 0 0
617 57 2 -0.3889835 10.0124129882266 16.597761776397387 3.094357110916009 0 0 0
622 57 5 0.0582835 8.794188618439433 18.344318528791693 2.516076880854753 0 0 0
679 62 5 0.0582835 12.454227267172467 21.218618048741302 3.617033961671404 0 0 0
619 57 5 0.0582835 13.022060103042485 17.24597157308192 5.605000020202375 0 0 0
91 10 1 0.0955 7.948632241446633 21.18941768280888 2.413678006752547 0 0 0
98 10 5 0.0798 6.990383615007558 21.418594333420536 1.8496285358482316 0 0 0
673 62 1 0.1266165 13.307426740372874 21.218459188815896 4.317633193133113 0 0 0
674 62 2 -0.3889835 14.441486250252606 20.486181666360196 3.830442831890405 0 0 0
675 62 3 0.7551165 15.015538836757983 20.957405612121878 2.7274933721727206 0 0 0
680 62 5 0.0582835 12.903893497282128 20.745157559109007 5.209306084069218 0 0 0
618 57 1 0.1266165 8.725073504423044 17.32179449877442 2.993012978946636 0 0 0
623 57 5 0.0582835 8.058000232372406 16.658499493602204 2.356173889631171 0 0 0
624 57 5 0.0582835 8.37184659021494 17.389513944381825 4.082760752022927 0 0 0
681 62 5 0.0582835 13.618116585341857 22.235437303817967 4.53261940988351 0 0 0
676 62 4 -0.5800835 14.561971259898192 21.98968926224406 2.183012051062218 0 0 0
349 35 1 0.1266165 12.428756248640832 21.590072882854997 -0.24884731909156954 0 0 0
350 35 2 -0.3889835 12.105416846900704 20.485215347412726 0.6732313320673942 0 0 0
351 35 3 0.7551165 12.267403114238482 19.19855446955522 0.14975407583707356 0 0 0
127 13 5 0.0798 15.138431683469445 17.089770467478537 2.115296360675094 0 0 0
125 13 4 -0.5484 19.216970161220765 15.956941231039632 2.6657393319886613 0 0 0
124 13 3 0.8478 18.048176447469885 15.946397848613824 2.2598838512384125 0 0 0
126 13 2 -0.4048 17.284752997603512 17.104500201917407 2.1552367596903674 0 0 0
121 13 1 0.0955 16.052850485463786 16.704190490085452 1.6440007250096789 0 0 0
145 15 4 -0.5484 22.665925764862944 15.609508023684244 4.913361604281569 -1 0 0
773 70 2 -0.3889835 22.365189857630476 18.54015887987544 1.9613534487723365 0 0 0
43 5 2 -0.4048 22.189015004557156 22.106401313505145 4.463159583193662 0 -1 0
677 62 2 -0.3889835 16.11211654227632 20.208763203152603 2.2968577652249365 0 0 0
816 73 5 0.0582835 15.4104191011154 22.182810274902238 7.636983950683642 0 -1 0
809 73 2 -0.3889835 17.432853911756368 21.874870762074305 7.428713253247788 0 -1 0
810 73 1 0.1266165 16.049199477687353 21.638649148591647 6.953056763082235 0 -1 0
814 73 5 0.0582835 15.858462060848712 22.035912934618533 5.9852950353119025 0 -1 0
765 69 5 0.0582835 21.560847823030997 21.17051102844822 0.46852007141225693 -1 0 0
775 70 5 0.0582835 20.13602237763616 20.688171817971046 4.48038642121267 0 0 0
776 70 5 0.0582835 19.072183254854043 21.130828941983957 3.1792761530366054 0 0 0
777 70 5 0.0582835 18.921122133639585 19.567454195584062 3.720493090307179 0 0 0
769 70 1 0.1266165 19.686198066609183 20.373140898824772 3.5509074477500504 0 0 0
770 70 2 -0.3889835 20.77127969947723 19.9593339536273 2.620702347392917 0 0 0
771 70 3 0.7551165 21.417613024635266 18.810245412560715 2.87441262729942 0 0 0
772 70 4 -0.5800835 21.119085938788334 18.110980602226096 3.837545749032583 0 0 0
829 75 1 0.1266165 17.198344715136248 17.85952982895875 5.393125988752117 0 0 0
830 75 2 -0.3889835 18.532545671931974 17.253757093237063 5.45539832982957 0 0 0
831 75 3 0.7551165 18.560353272523507 15.959711447153307 5.702778028830157 0 0 0
836 75 5 0.0582835 17.253129822570642 18.940505272575123 5.319958118063792 0 0 0
837 75 5 0.0582835 16.608129043872136 17.490371663322193 4.575188796272551 0 0 0
975 89 6 1 21.19796637543908 16.834569813321146 5.372711162547253 0 0 0
345 34 5 0.0582835 21.919093333213215 19.857122899547488 6.888655878957833 -1 0 0
343 34 5 0.0582835 20.170616238199695 20.07373163568494 7.244245945947634 -1 0 0
337 34 1 0.1266165 21.141993506817215 20.04774198657658 7.6613701658068685 -1 0 0
344 34 5 0.0582835 21.33234963078313 21.06691627735849 8.15125027688021 -1 0 0
764 69 5 0.0582835 19.911536179644205 21.099362478103167 0.058089306170908406 -1 0 0
835 75 5 0.0582835 16.76297875334124 17.608805445375587 6.354317969733393 0 0 0
833 75 2 -0.3889835 19.793477256946122 15.423278377702127 5.7495971101016 0 0 0
340 34 4 -0.5800835 21.321779433188784 17.436100092959727 7.2111425852665265 -1 0 0
678 62 1 0.1266165 16.756968357453008 20.70174462166446 1.092176741415864 0 0 0
682 62 5 0.0582835 17.144735482287363 21.682219397348412 1.1760009061665782 0 0 0
683 62 5 0.0582835 17.576625174424066 20.05776299550195 0.7583960601901956 0 0 0
461 44 2 -0.3889835 4.584045181567341 22.213436727716125 11.096565095188557 0 -1 0
938 84 2 -0.3889835 4.303488292766357 12.888043379914315 9.535707785994825 0 0 0
939 84 3 0.7551165 5.297482863101591 13.535935488245965 8.933302281529622 0 0 0
941 84 2 -0.3889835 6.569251585175892 13.093788333382777 9.318113789840785 0 0 0
937 84 1 0.1266165 3.017024324682589 13.293816325532495 9.16777848663797 0 0 0
945 84 5 0.0582835 2.8902481812842367 14.416596395144001 9.244243698011694 0 0 0
944 84 5 0.0582835 2.144853754031629 12.759551772147768 9.760305703791065 0 0 0
943 84 5 0.0582835 2.859583250359832 13.092077353109678 8.073769475370208 0 0 0
940 84 4 -0.5800835 5.098518655419345 14.445240746316859 8.101541110914248 0 0 0
942 84 1 0.1266165 7.665142541460682 13.784628277153194 8.666118226498886 0 0 0
948 84 5 0.0582835 7.65176273025164 14.888302434366171 8.789937161117788 0 0 0
953 85 2 -0.3889835 15.373147994999146 13.158328438657803 8.297882491509455 0 0 0
951 85 3 0.7551165 15.270151577937462 13.124355935814897 9.687090160048148 0 0 0
946 84 5 0.0582835 8.560458102337355 13.418546069854386 9.104146333699418 0 0 0
495 47 3 0.7551165 10.756210247976844 15.581990492908009 8.804664983870941 0 0 0
497 47 2 -0.3889835 10.391907176213767 15.089010651543134 10.023104671332288 0 0 0
498 47 1 0.1266165 10.98014274903754 13.805444269904706 10.372312386500402 0 0 0
502 47 5 0.0582835 12.019492137944603 13.886677714632548 10.307491951779138 0 0 0
504 47 5 0.0582835 10.764270310204141 13.036889223308 9.643496280017079 0 0 0
950 85 2 -0.3889835 15.918188471999144 12.070406272245943 10.274125469635743 0 0 0
952 85 4 -0.5800835 14.650162106716577 13.986865115452856 10.322699867506167 0 0 0
900 80 5 0.0582835 22.63429684549123 12.66924101697213 11.058899008070675 -1 0 0
1009 99 7 -0.5 0.7444033809622841 11.723991998226964 7.868581673701934 0 0 0
492 46 5 0.0582835 18.10061622852002 11.688527106472224 8.420619280022645 0 0 0
483 46 3 0.7551165 19.13431671188457 12.450223095860766 10.885798485280574 0 0 0
484 46 4 -0.5800835 19.341834059878387 13.385019456312472 10.086897762027458 0 0 0
867 78 3 0.7551165 3.795548641702826 20.886061874015095 7.355193926331571 0 0 0
868 78 4 -0.5800835 2.6439662945138696 21.272585363264632 7.082668331090186 0 0 0
188 19 5 0.0798 4.591279081466121 17.13366043513358 7.390787517503593 0 0 0
182 19 1 0.0955 2.539938976728694 16.60455139773975 7.127174008168261 0 0 0
612 56 5 0.0582835 8.318720467182967 19.878466734228613 8.24425108748197 0 -1 0
190 19 5 0.0798 2.4349599027420687 17.083544809180236 8.130753744241781 0 0 0
611 56 5 0.0582835 6.675292639920315 20.54332177531 8.303831897414 0 -1 0
606 56 1 0.1266165 7.581064660617719 20.360692636945508 8.952183338808256 0 -1 0
610 56 5 0.0582835 7.261493608977206 19.737737723056433 9.8091181325314 0 -1 0
869 78 2 -0.3889835 4.139801420803026 20.218338833247948 8.508589646610753 0 0 0
870 78 1 0.1266165 3.0019782122479772 19.957980732444405 9.394465171719363 0 0 0
874 78 5 0.0582835 2.2020124333716677 19.31089506503819 8.96437220180426 0 0 0
876 78 5 0.0582835 2.5878821710610658 20.896114944599002 9.772947578178874 0 0 0
875 78 5 0.0582835 3.4083496519943375 19.433904331486772 10.24955839479744 0 0 0
637 59 1 0.1266165 22.34663225705272 22.228636749309004 11.217462439904928 -1 0 0
644 59 5 0.0582835 22.094072138884123 22.54544553174045 10.17589682068914 -1 0 0
605 56 2 -0.3889835 8.115424703198416 21.67734968057797 9.347645860498506 0 -1 0
265 27 4 -0.5484 4.338810565344468 15.959908690506776 10.459889601380324 0 0 0
264 27 3 0.8478 5.424784707948527 16.163488217747954 10.942157830863989 0 0 0
263 27 2 -0.4048 6.2860140977908125 17.088925246206838 10.480723627866135 0 0 0
346 34 5 0.0582835 22.567913042387893 15.209302697908383 8.602414458923802 -1 0 0
960 85 5 0.0582835 13.665372515414614 14.018727223580125 7.77163068613239 0 0 0
493 47 1 0.1266165 10.464043568409219 17.436935681550768 7.2849895892321035 0 0 0
500 47 5 0.0582835 10.028292560920402 18.38545898763931 7.184593942236231 0 0 0
205 21 4 -0.5484 13.37794766817431 19.353962099870554 7.286127770386386 0 0 0
958 85 5 0.0582835 14.884277436474333 15.240877023482662 8.125612680475577 0 0 0
607 56 5 0.0582835 11.724331359462091 22.58681241137393 10.816407475326512 0 -1 0
494 47 2 -0.3889835 10.145366645599205 16.81720523492972 8.558267728540853 0 0 0
207 21 5 0.0798 14.576368319061936 19.649807082643484 11.127568791921215 0 0 0
604 56 4 -0.5800835 9.790471790102833 20.677182004657286 10.515523003392543 0 -1 0
603 56 3 0.7551165 9.240529696017315 21.703583594137786 10.14244474660736 0 -1 0
270 27 5 0.0798 8.365480006526717 16.83267229752251 10.727839440167271 0 0 0
202 21 1 0.0955 13.257767505716984 18.0292749438943 10.51567488215479 0 0 0
209 21 5 0.0798 13.882371011517815 17.29216177624818 11.073368344212172 0 0 0
210 21 5 0.0798 12.259134667612944 17.657182753378265 10.833558637291722 0 0 0
201 21 1 0.0955 13.541071052823852 19.526226467701544 10.793564619362964 0 0 0
203 21 2 -0.4048 13.16636994346936 17.93958056606324 9.102279072249196 0 0 0
204 21 3 0.8478 13.380807031123975 19.15014654794946 8.506021637059026 0 0 0
206 21 2 -0.4048 13.589054751651023 20.09966386846676 9.488461793550488 0 0 0
323 32 5 0.0582835 18.783838678407193 21.36717496211225 9.871430094108849 0 0 0
815 73 5 0.0582835 15.725099802314098 20.574261112004645 7.0116699556908335 0 -1 0
347 34 5 0.0582835 21.59233697891417 14.874562499671006 9.951831471092426 -1 0 0
341 34 2 -0.3889835 21.513462044038874 16.874534700875042 9.406695191796214 -1 0 0
342 34 1 0.1266165 21.606103779851587 15.49081594746042 9.067866120695546 -1 0 0
320 32 5 0.0582835 18.22944698337222 15.148770866229919 8.385383862154788 0 0 0
321 32 5 0.0582835 18.152493948973255 15.69278620892461 10.110211151625577 0 0 0
338 34 2 -0.3889835 21.29474727453694 19.092448962896857 8.690305611836308 -1 0 0
339 34 3 0.7551165 21.378972003404126 17.809389368269397 8.367911551909097 -1 0 0
348 34 5 0.0582835 20.731222889564513 15.171092564442366 8.428370443232112 -1 0 0
313 32 1 0.1266165 17.85943148636334 15.912072657641861 9.095126573162705 0 0 0
314 32 2 -0.3889835 18.290710946012922 17.236054701897558 8.78958632189965 0 0 0
315 32 3 0.7551165 17.933645650230694 18.306642525873315 9.681780190807373 0 0 0
316 32 4 -0.5800835 17.269723809572547 18.164974800153736 10.72969309086627 0 0 0
317 32 2 -0.3889835 18.427830441653935 19.49017028253974 9.281428340983735 0 0 0
318 32 1 0.1266165 18.11267632677059 20.554164063684677 10.134772315465575 0 0 0
319 32 5 0.0582835 16.82746676256521 15.874899085110247 9.098156318881532 0 0 0
322 32 5 0.0582835 18.3279516684193 20.338976439065995 11.190081308984338 0 0 0
324 32 5 0.0582835 17.0768945829133 20.84567637848052 10.053261025845343 0 0 0
128 13 5 0.0798 16.026594607276582 17.083959692890993 0.6305497563814605 0 0 0
595 55 5 0.0582835 3.2169256564767577 19.079313013162462 -0.19221412924439818 0 0 0
684 62 5 0.0582835 16.003668744098345 20.68091022167384 0.26176419983183097 0 0 0
300 30 5 0.0798 21.707183062189713 12.898141688958138 22.771478189453504 0 0 -1
293 30 2 -0.4048 19.747791743187857 13.01514356536725 22.824024584579192 0 0 -1
591 55 3 0.7551165 4.483898991572485 21.570625207205293 22.261431695859322 0 0 -1
593 55 2 -0.3889835 5.509086084120311 22.509026470875625 22.485292385806225 0 0 -1
766 69 5 0.0582835 1.049841084045778 17.177446762823713 22.35952569857008 0 0 -1
689 63 2 -0.3889835 6.76924991407728 19.317679694711938 22.468077177444897 0 -1 0
357 35 5 0.0582835 13.474410868538882 21.57997563119253 22.54932051007669 0 0 -1
352 35 4 -0.5800835 12.649057625455349 19.08901199670478 22.107546068941524 0 0 -1
757 69 1 0.1266165 20.906978520235874 20.877530789031766 22.7752325033385 -1 0 -1
898 80 5 0.0582835 0.6273636534790127 11.484548911581664 11.84684740763087 0 0 0
893 80 2 -0.3889835 0.007911692255825165 13.175358027127826 13.03780755036621 0 0 0
449 43 2 -0.3889835 4.947135290624262 11.334748040390929 13.701541928284149 0 0 0
456 43 5 0.0582835 3.079301819824822 11.778717075266632 12.981613988298294 0 0 0
450 43 1 0.1266165 4.083396440200098 12.115456979024996 12.876810448222123 0 0 0
454 43 5 0.0582835 4.177309352449098 13.156490319836314 13.110066965421398 0 0 0
455 43 5 0.0582835 4.271156523922133 11.924603297344662 11.812998609465085 0 0 0
891 80 3 0.7551165 0.902032064221058 14.222311621501817 12.803424523733561 0 0 0
890 80 2 -0.3889835 1.0970251412013032 15.128140455268246 13.806079495662262 0 0 0
892 80 4 -0.5800835 1.5060711447411965 14.332696627452547 11.733809067033624 0 0 0
503 47 5 0.0582835 10.589112175971406 13.45354366628817 11.33968385381735 0 0 0
170 17 5 0.0798 11.05721715536114 12.965225820147651 14.540060374037404 0 0 0
586 54 5 0.0582835 14.529849923289778 12.377836680797124 14.112652909197122 0 0 0
162 17 1 0.0955 11.257820014508004 14.014880584346633 14.65317770604624 0 0 0
169 17 5 0.0798 12.08213845096546 14.206668760406698 13.92899878971256 0 0 0
163 17 2 -0.4048 10.099927771178587 14.853769961868265 14.535425471751042 0 0 0
580 54 4 -0.5800835 14.847345153542742 15.19991509573864 14.2762035630661 0 0 0
955 85 5 0.0582835 14.856736353861955 11.761333371626424 12.07596045958397 0 0 0
949 85 1 0.1266165 15.854923278221268 11.980813087758497 11.668835208456438 0 0 0
579 54 3 0.7551165 15.960732475538862 14.729589191761772 14.437709689548381 0 0 0
894 80 1 0.1266165 -0.19191844728382734 12.211629954499104 11.976439951316019 0 0 0
899 80 5 0.0582835 22.212110846134173 11.503367133765666 12.337420713988266 -1 0 0
581 54 2 -0.3889835 16.16923533388111 13.448474907501822 14.817412418127141 0 0 0
482 46 2 -0.3889835 19.203399828981297 12.605647168456573 12.270645160608373 0 0 0
481 46 1 0.1266165 19.535668514602673 13.958866871884984 12.660066694722671 0 0 0
488 46 5 0.0582835 19.369659247617758 14.133882917255423 13.683581162741866 0 0 0
489 46 5 0.0582835 20.56450927308003 14.13224397251568 12.408333636610866 0 0 0
957 85 5 0.0582835 16.344499025480044 12.826188210448823 12.123459364514302 0 0 0
487 46 5 0.0582835 18.828246742443113 14.726217264166314 12.157442548993297 0 0 0
578 54 2 -0.3889835 17.173756837153338 15.429988877929684 14.256080256070305 0 0 0
753 68 5 0.0582835 19.310538463378485 11.726680666526626 15.158430300161136 0 0 0
468 44 5 0.0582835 5.654874024890766 21.75096146421905 12.882503452784526 0 -1 0
467 44 5 0.0582835 5.609996374595369 20.487750612256107 11.645266520694394 0 -1 0
462 44 1 0.1266165 5.002506043824503 21.28485127024492 12.125140349817546 0 -1 0
466 44 5 0.0582835 4.074834605361991 20.814227695482856 12.54763547499255 0 -1 0
889 80 1 0.1266165 2.0022166236080134 16.181416429311046 13.535002424130054 0 0 0
895 80 5 0.0582835 1.6204921564268904 16.827660953203836 12.739091365301046 0 0 0
897 80 5 0.0582835 3.0291945463793772 15.832970399968922 13.346017387991516 0 0 0
641 59 2 -0.3889835 1.605716186211213 19.991781513681488 12.82998321703764 0 0 0
896 80 5 0.0582835 1.906526609409319 16.806701807334083 14.397897770053657 0 0 0
642 59 1 0.1266165 1.9619454471930218 19.823227620738468 14.217602703418462 0 0 0
639 59 3 0.7551165 0.6716690387546987 20.900704941853764 12.569823316382246 0 0 0
638 59 2 -0.3889835 0.2758179774128703 21.134067834682835 11.353405723285173 0 0 0
267 27 5 0.0798 7.234687916374714 16.055601072890905 13.457253915586687 0 0 0
266 27 2 -0.4048 5.852825427068787 15.396252110203244 12.038732810032128 0 0 0
640 59 4 -0.5800835 0.1457223574324255 21.564654361001114 13.542169577458298 0 0 0
268 27 5 0.0798 7.855740088552816 14.99652084154169 12.106656540176845 0 0 0
261 27 1 0.0955 7.113241474995523 15.849836816938542 12.332088267306307 0 0 0
262 27 1 0.0955 7.4743730334970975 16.974065482742365 11.35681736734626 0 0 0
473 45 2 -0.3889835 22.732092331602775 17.618560188581768 15.026852551545996 0 0 0
647 59 5 0.0582835 2.797779244549062 19.171330028440675 14.390662811059427 0 0 0
935 83 5 0.0582835 7.6792420999316935 21.156266583332528 14.320959207802836 0 0 0
930 83 1 0.1266165 8.758703416372567 21.162683302347087 14.270518844976614 0 0 0
936 83 5 0.0582835 9.086654374092513 21.846853504541016 15.04119647878286 0 0 0
934 83 5 0.0582835 9.008796348347053 21.505497219097634 13.251105172574187 0 0 0
929 83 2 -0.3889835 9.317651072044367 19.786707928523867 14.54092830620106 0 0 0
609 56 5 0.0582835 10.663041460264004 22.464460474241374 12.255513140929555 0 -1 0
269 27 5 0.0798 7.556564820738832 17.886766043445476 11.925991837624794 0 0 0
928 83 4 -0.5800835 11.31156716022073 20.734486523207355 14.22762997865607 0 0 0
208 21 5 0.0798 12.94370522352783 20.032333059331123 11.562224742764675 0 0 0
927 83 3 0.7551165 10.690847829319312 19.725429008504115 14.461827199907804 0 0 0
658 60 5 0.0582835 13.420182328305765 22.52184245914786 12.048711214272007 0 0 0
660 60 5 0.0582835 15.160799993263868 22.470735915593416 11.345338238265226 0 0 0
652 60 4 -0.5800835 15.135484037792702 20.803787927580345 13.53373202355282 0 0 0
931 83 5 0.0582835 13.220769337180698 19.31033893026244 15.115417560613054 0 0 0
925 83 1 0.1266165 12.739797185349712 18.481264052854304 14.596357684571892 0 0 0
926 83 2 -0.3889835 11.275308619668639 18.55484667143538 14.663309765824462 0 0 0
933 83 5 0.0582835 13.089304502320793 18.676321120934517 13.575337350089304 0 0 0
932 83 5 0.0582835 13.124685391066482 17.5016601436486 14.929510579134316 0 0 0
583 54 5 0.0582835 16.53393406830573 17.455766108910115 14.624807357581641 0 0 0
585 54 5 0.0582835 16.43501581245439 16.976402743638168 12.906301670220959 0 0 0
577 54 1 0.1266165 17.0019044276396 16.84656868453813 13.831932722305206 0 0 0
645 59 5 0.0582835 21.432561755817837 21.866197562253706 11.676454660516525 -1 0 0
584 54 5 0.0582835 17.96307029518081 17.332132217438204 13.604333452531234 0 0 0
472 45 4 -0.5800835 20.516716915639684 17.37157642386679 14.515059087527495 0 0 0
469 45 1 0.1266165 20.677191719686824 18.684100713039072 12.241397684586937 0 0 0
477 45 5 0.0582835 20.275495844587137 17.745759599720717 11.960988023437427 0 0 0
476 45 5 0.0582835 20.92974094636483 19.306748094518586 11.363782401067509 0 0 0
651 60 3 0.7551165 15.275416986738431 21.946078834698547 14.030702859827024 0 0 0
471 45 3 0.7551165 21.61473298728127 17.80749372789564 14.225108431325133 0 0 0
470 45 2 -0.3889835 21.839828003414805 18.509718622046726 13.066212835982254 0 0 0
475 45 5 0.0582835 19.855988584441477 19.251019910520434 12.792762623540765 0 0 0
650 60 2 -0.3889835 15.708470089503795 22.071738927542825 15.26316737282342 0 0 0
280 28 5 0.0798 1.5034531577600139 22.578466351688057 18.295402231754835 0 0 0
307 31 5 0.0582835 5.309588508943408 14.998805202821318 14.494350154540035 0 0 0
308 31 5 0.0582835 6.818426806457957 14.393084040736525 14.861710838648753 0 0 0
259 26 5 0.0798 0.39750075199264623 12.994932330823339 15.547238451076927 0 0 0
301 31 1 0.1266165 5.811431633051109 14.50635934988906 15.329817293184727 0 0 0
252 26 1 0.0955 1.267991948909537 12.510413528481015 16.061111612775676 0 0 0
309 31 5 0.0582835 5.391513147360242 13.527925342831338 15.726732641573312 0 0 0
260 26 5 0.0798 2.2273746000512076 12.956619005377624 15.888117602336957 0 0 0
174 18 3 0.8478 6.561081877292767 11.436624496440997 17.405446539696683 0 0 0
175 18 4 -0.5484 5.556338678948989 11.885694092544894 17.83907178194456 0 0 0
251 26 1 0.0955 1.0034077603397609 12.50198363069015 17.56178352402314 0 0 0
258 26 5 0.0798 1.7063142114359933 13.228608688399365 17.99994012524985 0 0 0
787 71 5 0.0582835 7.313302531499065 11.45045127886 20.053693818238045 0 0 0
29 3 5 0.0798 4.507247594538051 12.822948092599233 20.50944473817627 0 0 0
22 3 1 0.0955 3.5907908511918762 13.421839286724145 20.47301835545573 0 0 0
27 3 5 0.0798 2.740213903722872 11.331623544351677 20.922379283302035 0 0 0
21 3 1 0.0955 2.568555894757805 12.39193535101843 20.984448626974192 0 0 0
23 3 2 -0.4048 3.736498386192432 14.428433007336 21.553655888783545 0 0 0
30 3 5 0.0798 3.61863293510822 13.752253219972717 19.467357718779255 0 0 0
257 26 5 0.0798 -0.04113355262875318 12.786463562994157 17.769239651287812 0 0 0
28 3 5 0.0798 1.5846177389720968 12.539412709139825 20.382558017037887 0 0 0
176 18 2 -0.4048 7.546543572547193 12.16007295807338 16.691836349561463 0 0 0
24 3 3 0.8478 2.910885117598882 14.074708499358016 22.606696248027433 0 0 0
26 3 2 -0.4048 2.2450930864107845 12.89932033431297 22.276499422011213 0 0 0
332 33 5 0.0582835 11.854484321816587 13.430728566926732 22.373665630725398 0 0 -1
582 54 1 0.1266165 15.086953103339537 12.58680953017533 15.034168071694461 0 0 0
789 71 5 0.0582835 7.430685956602079 11.896154847278614 21.63903278328938 0 0 0
215 22 4 -0.5484 14.630765813173213 15.620556049448423 21.397129624264394 0 0 0
588 54 5 0.0582835 14.401537333697402 12.941388662923778 15.749292943609438 0 0 0
178 18 5 0.0798 9.525142542022751 11.42306736708148 16.854235137411088 0 0 0
783 71 3 0.7551165 9.853401610581724 11.50017601565377 20.417605802257732 0 0 0
784 71 4 -0.5800835 9.476636707138802 12.55400835173839 19.855080387588714 0 0 0
786 71 1 0.1266165 12.116230493259852 11.932300368806759 19.752286799934637 0 0 0
790 71 5 0.0582835 12.043777965462283 12.908928998527857 20.22392476503377 0 0 0
791 71 5 0.0582835 13.127819144431854 11.44900145966882 19.859209859028944 0 0 0
792 71 5 0.0582835 11.781152634585842 12.04247725875895 18.730701429102687 0 0 0
216 22 2 -0.4048 15.039972337583773 14.377204970789597 19.51491676952267 0 0 0
168 17 5 0.0798 11.583598543142696 13.345244752718026 16.655388650891005 0 0 0
161 17 1 0.0955 11.696256774320203 14.26150177032907 16.117930952509028 0 0 0
167 17 5 0.0798 12.750165208322741 14.660699210626355 16.046804410325173 0 0 0
538 50 5 0.0582835 8.00963685079707 14.421326983247175 20.2946171285757 0 0 0
540 50 5 0.0582835 7.976793149470025 14.848247766367978 18.65360880715952 0 0 0
751 68 5 0.0582835 18.446890460260004 12.769895351484909 16.18313670312677 0 0 0
752 68 5 0.0582835 20.23381726677629 12.837364541027288 16.232248270962444 0 0 0
478 45 5 0.0582835 22.18148074942686 15.855687524923137 16.11849009646113 0 0 0
587 54 5 0.0582835 15.437202721840377 11.6332736683493 15.29624417432371 0 0 0
218 22 5 0.0798 16.70331967884384 13.873778356196464 18.54091022859786 0 0 0
214 22 3 0.8478 15.277139485958031 14.770432170832924 20.78070428940184 0 0 0
211 22 1 0.0955 16.01174064978425 13.343850214072445 19.152045849572573 0 0 0
217 22 5 0.0798 15.706811663971498 12.407744175116216 18.561879166108916 0 0 0
1012 100 7 -0.5 19.47526401161552 14.547376097512238 18.441634088562473 0 0 0
745 68 1 0.1266165 19.34832257680231 12.215011462415097 16.133872473025086 0 0 0
213 22 2 -0.4048 16.326648092072944 14.144721518293746 21.397123917420863 0 0 0
212 22 1 0.0955 16.881960487975732 13.186746110027444 20.43886674279792 0 0 0
219 22 5 0.0798 16.68584247168108 12.147461474241542 20.89308334604828 0 0 0
1013 100 7 -0.5 21.671126559887718 14.743430716402369 18.57239015340155 0 0 0
139 14 5 0.0798 20.403360832105577 11.79596863329975 20.290396387277838 0 0 0
1011 100 8 1 20.51504722029571 15.156797388276722 19.136009870569694 0 0 0
220 22 5 0.0798 17.951946183850044 13.367685335873503 20.24330664087384 0 0 0
1014 100 7 -0.5 20.409825722191584 14.810957744284245 20.478936170935654 0 0 0
600 55 5 0.0582835 6.640237503441996 22.330379999416735 20.59530148642083 0 0 -1
474 45 1 0.1266165 22.627167102591844 16.840444853848588 16.347808672866726 0 0 0
392 38 5 0.0582835 6.142240514139895 22.865933626921613 16.013357311081393 0 -1 0
391 38 5 0.0582835 4.558257163605697 22.45656425594774 16.632503680273608 0 -1 0
393 38 5 0.0582835 5.856979895360945 22.7415517129969 17.874377879142777 0 -1 0
302 31 2 -0.3889835 5.966572469148135 15.362632069928862 16.48345587023308 0 0 0
592 55 4 -0.5800835 4.093222843361024 21.163217409004012 21.167305528533312 0 0 -1
648 59 5 0.0582835 2.2439976012274943 20.79394950437726 14.58003905896434 0 0 0
990 96 7 -0.5 4.272012023063637 18.55655794365603 16.33055058636645 0 0 0
479 45 5 0.0582835 0.42610015284194636 16.743611480080716 16.907875112731027 1 0 0
646 59 5 0.0582835 1.0748181119183031 19.463865544629265 14.774236933594091 0 0 0
992 96 7 -0.5 5.87084594328257 17.78938812209705 14.819161644732388 0 0 0
304 31 4 -0.5800835 3.647376016720974 15.222413794879854 16.68839349416728 0 0 0
597 55 5 0.0582835 2.0370656930060536 20.484871701539095 22.722880462360443 0 0 -1
279 28 5 0.0798 2.0712353030839217 22.25718786756224 19.933287269815366 0 0 0
278 28 5 0.0798 2.225330010902134 20.872279162916048 17.338583661540987 0 0 0
271 28 1 0.0955 2.2048024473025825 20.615880848607773 18.394013336231183 0 0 0
272 28 1 0.0955 1.4948243421720284 21.786535388704444 19.03031766334457 0 0 0
273 28 2 -0.4048 0.14828259198854643 21.35603243119671 19.327335202151268 0 0 0
274 28 3 0.8478 0.038362128414808794 20.051898524929996 18.91278596767515 0 0 0
276 28 2 -0.4048 1.2505741463948308 19.593545991952446 18.35428784930214 0 0 0
277 28 5 0.0798 3.2431102726293934 20.377194126436184 18.554119171068734 0 0 0
303 31 3 0.7551165 4.728962194718706 15.652506045782745 17.109811780775274 0 0 0
305 31 2 -0.3889835 4.880855664514606 16.501839664504466 18.233497920936756 0 0 0
306 31 1 0.1266165 3.660775886873283 16.841966334777776 18.937915031437733 0 0 0
310 31 5 0.0582835 3.126457209096509 16.017471605049035 19.34665602670679 0 0 0
311 31 5 0.0582835 3.9267060060439443 17.51171921830326 19.77680638344075 0 0 0
312 31 5 0.0582835 3.1058716769543997 17.436946955556923 18.278550788294183 0 0 0
696 63 5 0.0582835 5.961018071009098 18.845391982522553 20.65621364124147 0 -1 0
991 96 8 1 5.441360969616679 18.880030459153204 15.589664740609805 0 0 0
994 96 7 -0.5 6.575931342915869 19.18161544675764 16.372934000915535 0 0 0
993 96 7 -0.5 5.207597036486458 19.98527357634439 14.769107650111865 0 0 0
768 69 5 0.0582835 0.5880243029720705 17.309494721106187 20.545927218934374 0 0 -1
355 35 5 0.0582835 11.823556890519727 21.59015297460079 21.986025326903885 0 0 -1
539 50 5 0.0582835 6.998663858208014 15.681759136278057 19.800631750912977 0 0 0
979 93 6 1 7.378209596102245 17.56386521476978 16.26727001895783 0 0 0
166 17 2 -0.4048 10.80097278461959 15.191196035995958 16.705870934375845 0 0 0
164 17 3 0.8478 9.838879803767021 15.526297535317722 15.692660726819266 0 0 0
165 17 4 -0.5484 8.910311209403583 16.27144687177432 15.743574607260632 0 0 0
694 63 5 0.0582835 7.403326181339625 19.8168071392005 20.65402330616515 0 -1 0
695 63 5 0.0582835 7.590746824703688 18.118003935162303 21.063287179189018 0 -1 0
690 63 1 0.1266165 6.948399911458168 18.928562249662686 21.104177565310522 0 -1 0
534 50 1 0.1266165 7.986102494447932 15.293962486860055 19.634723313560812 0 0 0
800 72 5 0.0582835 11.973997433812167 17.02305944167858 18.018510920256027 0 0 0
793 72 1 0.1266165 12.967112351409146 17.401015013014714 18.339708095850305 0 0 0
794 72 2 -0.3889835 14.00163196237993 16.64807969504212 17.61661410173054 0 0 0
533 50 2 -0.3889835 9.05762389345226 16.26789988680594 19.699183100077946 0 0 0
799 72 5 0.0582835 13.012658163943113 18.42949231476767 18.067050389907905 0 0 0
801 72 5 0.0582835 13.102765637325152 17.32857304610849 19.46970253161183 0 0 0
535 50 5 0.0582835 9.052382600285176 20.064138623785528 18.41849967708052 0 0 0
528 49 5 0.0582835 14.165775591627348 20.41881156332791 18.7437238643155 0 -1 0
529 50 1 0.1266165 9.907042766007962 19.43566291050414 18.112031712913563 0 0 0
530 50 2 -0.3889835 9.990611772649949 18.286592824366892 18.937057252957622 0 0 0
531 50 3 0.7551165 8.933757143696194 17.356615725691547 18.89852864620037 0 0 0
532 50 4 -0.5800835 7.977438151029167 17.580391337354836 18.151402480286677 0 0 0
536 50 5 0.0582835 10.881578334560531 19.961514473134503 18.152554507350438 0 0 0
537 50 5 0.0582835 9.81636927831029 19.03050583823838 17.077488689871387 0 0 0
521 49 2 -0.3889835 12.867833902282463 21.95748450932797 19.15338727904384 0 -1 0
522 49 1 0.1266165 13.520634812361337 20.69192546005105 19.558076115140857 0 -1 0
527 49 5 0.0582835 12.752584306084977 19.88147669967622 19.61741879817105 0 -1 0
526 49 5 0.0582835 14.114189146021094 20.781034976617054 20.42436872616672 0 -1 0
760 69 4 -0.5800835 -0.033081847354790195 19.525233767738413 21.921618036809782 0 0 -1
759 69 3 0.7551165 22.115146760446176 18.83773738637357 22.17969028764236 -1 0 -1
758 69 2 -0.3889835 20.93160870919481 19.46339438329001 22.629635440115344 -1 0 -1
762 69 1 0.1266165 0.3015392181018962 16.94462890315328 21.566759819856294 0 0 -1
761 69 2 -0.3889835 22.160341169227564 17.47796601174497 22.033388184035992 -1 0 -1
978 92 6 1 21.88819046412477 22.1082208158999 14.717394729434679 0 0 0
520 49 4 -0.5800835 14.960636198757474 22.757436004891343 18.798859380385814 0 -1 0
743 67 5 0.0582835 17.884264325398007 15.859507943604338 22.23572927928523 0 0 -1
1010 100 7 -0.5 20.426333225556384 16.578531006639043 18.972180326819633 0 0 0
767 69 5 0.0582835 0.14819008451378723 15.79996996565626 21.51710169808719 0 0 -1
742 67 5 0.0582835 19.22942199972239 16.765015227517416 21.63645578580939 0 0 -1
738 67 1 0.1266165 18.171824529272342 16.552537706736 21.51273781754069 0 0 -1
275 28 4 -0.5484 22.13527118173779 19.3660132597561 19.019003943858173 -1 0 0
795 72 3 0.7551165 15.242602587156638 17.239949992212093 17.730755066480896 0 0 0
796 72 4 -0.5800835 15.367053011788148 18.308811448926107 18.403792651261313 0 0 0
797 72 2 -0.3889835 16.257047105419254 16.530175352969703 17.06780352427672 0 0 0
480 45 5 0.0582835 21.910921045886067 17.323060981528855 17.03814150311281 0 0 0
802 72 5 0.0582835 17.95604942268762 16.85056007685361 18.150659105721914 0 0 0
763 69 5 0.0582835 21.135524048707584 21.38622990754637 21.825713868876143 -1 0 -1
657 60 5 0.0582835 15.078271178004504 20.414497127040754 16.31553128150511 0 0 0
804 72 5 0.0582835 17.68827270801811 18.134089549019805 16.933494803650078 0 0 0
656 60 5 0.0582835 16.415113152532825 21.233788672549302 17.15186762767486 0 0 0
649 60 1 0.1266165 16.028560063324647 20.972293837394226 16.119230263634194 0 0 0
744 67 5 0.0582835 18.03965144129743 16.07288997509421 20.523874145974595 0 0 -1
983 94 7 -0.5 21.1309871257749 20.49504730510653 15.47565518921356 0 0 0
798 72 1 0.1266165 17.56741800526503 17.077747923123116 17.162780749518717 0 0 0
803 72 5 0.0582835 18.253815493270753 16.520464770587232 16.490282159905632 0 0 0
733 67 1 0.1266165 17.456309506201393 21.11078716279953 20.162980715564657 0 0 -1
734 67 2 -0.3889835 17.03662468111429 19.95048651649489 21.02839565066175 0 0 -1
737 67 2 -0.3889835 17.38947898020785 17.77693222363145 21.643881401841924 0 0 -1
740 67 5 0.0582835 16.724709656915763 21.889704825680628 20.175197706991938 0 0 -1
741 67 5 0.0582835 18.432982638064612 21.503944361755146 20.453411397644672 0 0 -1
655 60 5 0.0582835 16.687340950445616 20.217591011565492 15.649721021527416 0 0 0
982 94 7 -0.5 18.90392781333263 19.957745675770276 15.276143478792545 0 0 0
739 67 5 0.0582835 17.44873903544695 20.74562959821654 19.111750801224524 0 0 -1
735 67 3 0.7551165 17.799636774225487 18.860168525285975 20.86955664111691 0 0 -1
736 67 4 -0.5800835 18.76000078739828 18.785758588397265 20.10108452484296 0 0 -1
976 90 6 1 20.42107995368871 18.360634148972686 18.715272283911396 -1 0 0
980 94 7 -0.5 19.7604813997026 21.75924519092939 16.68556091271897 0 0 0
981 94 8 1 19.87578289869504 20.443629056095105 16.14073018739513 0 0 0
984 94 7 -0.5 19.989297049127597 19.57765269705026 17.245020658479703 0 0 0

Velocities

82 -0.002328301141415349 -0.00376273568929328 -0.005237968357161137
83 -0.004331453839941226 -0.006593074970470425 0.00411101180648082
84 0.0037904979610498997 0.0005351766199911123 0.0018977915456636445
85 0.004803129529598657 0.001989253147520925 0.0026702155454241317
86 -0.002674239189537958 0.0004436186534709164 5.4653298582148765e-05
90 -0.02086363583998494 0.024609286824874718 0.016695996365617326
81 -0.007323210181406225 0.004765387222330361 -0.012948985472627763
88 -0.03698348862890303 0.005939387992426336 -0.007944676237363767
89 0.005062795343841384 -0.028582479555483258 -0.0007451195072495722
87 -0.015228714901728663 -0.022979138898906327 -0.0019379253294324443
919 0.0049020173052248435 -0.023842028081705574 0.005504122032378883
668 -0.016099079769511672 -0.0005868859905487835 -0.013991159595513005
665 0.0010547043756237435 -0.0028855899960707463 -0.006391873719654507
663 0.0042114237220973755 0.0007909115589592099 0.0049668471975094575
662 0.006822229159043838 0.00037506810548201705 -0.0028550174589076775
48 -0.009631735778119386 0.0029555178324552236 0.0268504183953829
669 -0.01946476003040512 -0.0148979176372759 -0.015490130029135598
661 5.4633095303658394e-05 -0.00028440839482922974 -0.0025141482561046604
667 -0.013356133271373596 0.005825239802109021 -0.00537332833951927
548 0.01760730262880427 -0.011144805409554077 -0.00995788179217263
549 0.00217379378108665 0.0025769839869610464 -0.022563487152772625
541 -0.003970366528186402 0.0009305810214179003 -0.0007471971352052384
907 0.01597275836625555 -0.02564235430071392 -0.000533263825828103
989 0.0007698017022826807 0.003791408349535285 -0.0016592844783503212
431 0.017324537748661897 0.010739378976488561 -0.006159485959808059
988 -0.00015272776357801044 -0.00868612376060121 -0.008800342770011616
560 -0.00649362762578557 0.014286016156572493 -0.0038998904949710802
732 -0.01670361111678272 0.014890570739168035 -0.02039423916835744
731 -0.00831207535761087 -0.0005745511485804866 0.01207240868365785
725 0.006670240422642716 -0.0011422250109025932 -0.0077761811989315605
726 -0.004038062920900755 -0.0023801179115593503 0.003718856678987365
723 -0.003208275248442325 0.00032510301226510726 -0.006268732781365973
730 0.0014504712261071031 0.0075076978662884765 -0.0373260309633669
915 0.005584380749129911 0.0023785654596563013 -0.0004286536990969104
917 -0.006623008978051809 0.0022409523930058796 2.5039067948672363e-05
918 0.004078723489608675 -0.0024445233898317724 0.0007158101734274896
922 -0.02449311160426106 0.03922710641909379 0.011278701204630181
923 -0.011080117487583918 0.0024062251342107893 -0.018127557430551677
924 -0.0006905189074329405 -0.005525549516352374 -0.017112992754637815
961 0.004838689178264045 -0.0015006189606587563 0.0012969619630836997
968 0.014368260899928553 -0.027380303279910135 -0.001229622554537412
1000 0.0018058440336872544 0.002048568988278217 -0.000617636470389463
724 -0.0017419065127644191 -0.0030189503296495944 -0.00226002053441858
1001 0.00041549417671798365 0.002020635860543727 -0.0024852445127357165
1003 0.0015521623995863655 0.0050557686124316215 -0.0069743865184634145
1002 2.765440303300638e-05 0.008275261341748517 -0.003177620857717907
65 0.0007554577295157158 0.003592742857711673 0.005701463146541065
916 0.006016882677392502 -0.0031817127856804774 -0.007982992787493275
240 -0.000994385934278092 0.04152680284130013 -0.02252080674845639
914 -0.0007682696398710461 0.002684251339302716 -0.0007973814607027058
1004 -0.0022508419288276814 -0.0006476916700049714 0.0003576570877497108
962 0.00212499576265598 3.452739242861883e-07 -0.004969719479938432
232 -0.005651497877854156 0.001316575221609658 0.00915653781222017
239 -0.00611131615192038 -0.0034596612908114267 -0.024239827089489515
70 0.009574043369603175 -0.023940248878701997 0.018924401574909783
63 -0.0029270599011453013 0.0019145144648053624 0.00993192019988295
62 0.0013697808531105886 -0.0016103605635608515 0.0030317770441820424
100 0.014133058843049164 -0.00693677667132849 -0.01661852583691225
233 0.005182403646651886 0.0012109009583120597 0.004177776338704738
974 0.0054578692424116886 0.0036418622880096934 -0.007803764726989716
18 -0.00041419962544511835 -0.009885051210531657 -0.013369978319249073
20 -0.008847064458640561 -0.011474834801674372 0.013106914384186739
69 0.00711603099591426 0.03121100300173987 -0.00437829910547026
967 -0.024892400646941912 -0.011928028373688436 -0.01634319668373615
969 0.03163565004465151 -0.02248284302035741 -0.009162425410898088
231 -0.004891675287704831 0.005563797939165222 0.006747658892118902
237 -0.005499587852396627 0.008788194637423287 0.024858662024939943
419 -0.0071036140626352644 0.010305897887404932 -0.015466763020230345
418 0.032270806264054486 -0.003940903554904085 0.006223229056606754
420 0.012483480991979616 0.005864662528562305 0.0009862798675204585
414 0.0055984615810431996 -0.006471513559493347 0.0033976006516398555
813 0.0009777003941484497 0.012668906313870583 -0.01576587511247087
805 0.010206145420901949 -0.005781465197893514 -0.004702296536574416
806 0.00414065189940796 -0.0028110615327668342 -0.0010830163393352565
811 0.023353826346517816 -0.03238334807738135 0.004815411686496041
812 0.01680523410193353 0.004114203416810459 0.0013048883829897945
910 0.003968058063032681 0.015398311354912087 -0.02078717680110376
410 -0.0012056380800036532 0.000727911898708575 0.0009629862325079805
411 -0.0003182802707793682 -0.0098280394305743 0.005201794455763736
413 -0.005593612553064346 -0.004847736617299385 0.001015996875105195
412 -0.00525286102535391 -0.002631559726890741 -0.0013971002900013785
905 0.0013866634560003737 -0.001758835320234145 -0.005846379698949377
906 -0.0014679124705217856 0.003535034785812048 -0.008272094125074365
911 0.013908682927826791 -0.013340662407972013 0.0030396356576071703
807 -0.006121823537626944 0.002112385503588577 -0.0023979813661868378
903 -0.001844936976884935 0.003715693527199131 0.004487120088274215
904 -0.0069481255377786995 0.00046754994418945616 0.0025564632783376244
912 0.013011499655824448 0.00226371102240419 -0.007022835983476716
156 0.006696381814565904 0.0012161532967724193 0.003105766020475583
33 -0.003812353445694937 -0.003407847432354241 -0.0010728685762403957
154 0.00566304412340995 0.0033503356450505727 0.00025667823777114857
155 0.004116787404986066 -0.0013903080614434827 0.002900261367759805
238 -0.027477003023314447 0.006129130917656805 0.0059941336428259336
902 0.004756341390086633 0.002291375019100338 0.003384055717700186
40 0.024850080480334606 0.0327384746455714 -0.020482167838280572
32 0.0015147460534535603 -0.004706959619495444 0.0025762910149264356
236 -0.005431893446751552 0.005436357718427917 -0.0006903972702176718
909 0.004910286508193555 0.004367748302538676 -0.025965140505774517
46 -0.0029754186732950483 -0.006528506939720237 -0.00293803449641455
808 0.010027800730728748 0.0014247787998974606 -0.0022552460701322683
901 0.0017498654108490358 0.0012383066949779638 0.0006687388351959546
39 -0.024076091452507945 0.00047306122818127985 0.007540112228037953
157 -0.009162742911726897 0.007467609648423356 -0.002216280920285488
234 0.01211888281184721 0.0014522049480647826 0.0018207172965347045
720 -0.015800914258433628 0.013120638627025314 0.030698874688038034
719 -0.015092253170420046 -0.027588435295571694 0.003490109094178658
714 -0.001969141951070867 0.0008746870594552465 0.005413534407658567
713 0.0027992190387774443 -0.004709538734536177 0.004938762993136896
718 0.013461203493714397 0.004333705775786349 -0.003634495579179358
712 -0.0030555153988183884 -0.002605734229052553 0.001329452872488121
973 0.0013436867232348838 0.002638205408892937 -0.002409676670204074
505 -0.0019065047204884112 -0.002523178813253394 -0.0009831243974710215
506 -0.0030410482847507635 -0.0005194124134992103 0.0007749064625845626
511 -0.02960695195371196 -0.002501534130402466 0.021251486838612475
711 -0.002857832600712381 0.0016188193869670431 0.0011933672627909748
987 -8.569567409018731e-05 -0.004152496992890692 0.0016325404175036961
513 -0.008179652906216547 -0.009193130461369797 0.00046995354775827077
1008 -0.004825197214579742 0.006852115891690855 0.0010606996991469515
512 -0.0012659941966839592 -0.002922995540940981 0.004268691882106184
986 -0.004632452911090528 -0.0020568359844652636 -0.00022151234048981426
64 0.00016618627590136425 0.005598241797832329 -0.0012549647039118146
68 -0.013629828850085636 -0.00563681794306883 -0.019653492468959595
66 -0.006518794143942303 -0.0037665796528844166 -0.004779227866586899
61 0.004360927864197122 -0.004796412177149461 0.00029669794006352226
727 -0.006547285757079629 -0.010947407558679602 -0.001601411734157719
19 0.002551409669110665 -0.006548160050322265 0.008505341024372974
722 -0.007080605874625694 0.0006326290410447592 0.0013507835764340688
17 -0.0005234127791153378 0.004164124232159943 0.00200222506821169
728 0.0227253137710084 0.026683692394950193 -0.00523063758084077
721 0.004726224949197868 0.003242185748820096 -0.006874305384196241
729 -0.007558647958356704 0.008966349764321221 -0.015661609759161425
11 0.0076512196182825665 -4.066601684360018e-06 -0.0029614942485772654
12 -0.0012725661359027829 0.0006167499647764639 0.004299089729278312
67 1.4665591280312052e-05 -0.0007199544554167965 0.02181902714680559
334 0.01624340413299437 -0.013302949101772503 0.0051396498534450235
16 -0.0011136723488399528 0.007513930636196324 0.0006163448124650831
13 -0.001437936264121269 0.004185132171414927 0.006618638253292771
14 -0.0033904638009443796 -0.00044349705904026405 0.0012162191812861718
985 0.0020833496705042987 0.004088189039912723 0.002931908175939757
1007 0.000351877070999695 -0.0012095648189467392 0.0023420243310239715
409 -0.0022052562549721108 -0.0005530685063686306 -0.0018468558586637869
415 -0.006163050824486478 0.025383308527265905 -0.016047565625322252
151 0.0027081827641468868 0.0045785639156970875 0.004847840723949843
417 -0.014172743611649472 -0.0003437378221111651 0.009810518116740117
158 0.0018236568860497094 -0.022861939761599982 0.00544114498567848
74 0.005536786386065683 -0.004662049552185382 -0.005100904450593077
71 -0.0023453344720945173 -0.00644636294895727 -0.007583095338075184
72 -0.0007049801526214474 -0.006919035292748397 0.0029683343500510303
76 0.004834452473190783 0.005455276675404469 -0.00015150641715483843
77 -0.011697121978115906 -0.019406329422801672 -0.008900019230094272
78 0.01766203840661326 0.00863332790211095 0.02602565348436615
79 0.049249975554058995 -0.0021457914578279814 0.012015922049933356
1006 -0.006382696214220128 0.0068448112965605245 0.007609877515792456
75 -0.00048255679521141205 -0.004240147780615519 0.0026477172861620996
73 -0.007554857056294811 0.0002788804347742312 0.0016521164602888998
152 -0.001238844132642017 0.0068740761241325565 -0.00707477957898551
160 0.007254606261834255 0.009776135697126095 -0.028956808736310354
45 -0.003959306990398495 0.0058563070580542305 0.0008527999024875054
44 0.0003742843769847392 -0.0006785319629609395 0.0010655672264071505
666 0.00835914307577629 -0.0023249298643225206 -0.012187158827137943
671 0.030409059744696595 0.026127904640467423 -0.0036453119658726237
670 -0.022457189102238487 0.018650364224685346 0.013506209098446218
672 0.010378837544323347 -0.015290588303044816 -0.008447453674174037
664 -0.002250316377828071 -0.008249160137284474 -0.0013612211753121738
464 0.012744850796012598 -0.019004249367416376 0.0023667012034292545
457 -0.0001919640065196737 -0.001967721163941321 -0.005212551800637674
465 0.017247495240592683 -0.01463758766258258 0.00012876133399326284
438 0.008770083859366378 0.002424824095501257 0.0011707513429426663
442 0.022397269615839793 0.001899863840281351 0.005448274951814811
444 0.014778494396810067 0.00042196945101 0.0055326708867248844
443 -0.008690839058218951 0.01882373742680463 -0.009266023703083078
971 -0.0036031597983154783 -0.003733498089455744 -0.004737454258520461
972 0.005317592771950774 -0.012002371631473135 0.0008418087889271003
458 0.004027107665148649 -0.002056572669508021 -0.002054128496099254
966 0.0031161501641955853 0.0013973023075688404 0.0004417919837870602
965 -0.007663377360580688 0.00019625597951441166 0.002043079513555126
561 -0.006039755381642846 0.02358955747519564 0.005588104598846841
553 -0.0020270196941196174 0.0005403918856696415 -0.0037042823743411698
559 0.007767245939322874 0.010515499484085986 0.008960063599409252
970 -0.00015319744279719517 -0.011525321434804139 0.0012463976722103527
379 0.04067810172742298 -0.012648886423955858 -0.004945496593411533
244 -0.0034458839008269498 0.003211684684476265 0.003237762850525242
245 -0.001966102572364148 0.0025267589287634425 -0.00043950172493154136
246 -0.0004988401985398811 0.00467444646592293 0.003135670707492566
247 0.009966338987053243 -0.0038083680307394964 0.0232181466498396
373 0.004471407348342034 -0.0052741125933868024 0.00030189123323417605
381 0.03305175313926442 -0.005656495815580442 -0.010056659920744799
963 -0.005066291335832684 -0.00026739724551583656 -0.0018815308970397948
964 -0.0023196213949144206 -0.0012421382775689412 -0.002921941289467702
241 -0.0006240593563078173 0.005187211995325341 0.0027929551584146787
380 0.0015530324704217911 -0.02898032432586203 0.007452859120254708
243 0.003251730195295062 0.0007028243359550068 -0.001691213495175605
242 0.006925779531081507 0.0030061187785054844 -0.0004556974468549013
249 0.01025600464228281 0.006089524411044478 -0.005806432919476605
250 0.0032083664269842225 0.0018570178257013587 0.01254485914928681
384 0.01287841141855471 -0.01430163885831582 0.021298321117555384
153 -0.0014195946914835767 0.000607523723716796 0.0013288951088452324
374 -0.002597971175561387 0.0002578953124585291 0.00163753133202952
378 0.0002653684769162722 -0.005184032444087799 0.0014151515143636106
285 -0.0005869258683895696 -0.00244869895737274 0.006705292736336515
908 0.009004758097144398 0.012844861973243799 0.007930140798108288
375 0.0012362731140024988 0.009085877464794329 0.0024376624233431263
376 0.00954405354164841 0.0008467490955531213 -0.003926504899640244
377 0.003047090159956332 0.003294756159063361 -0.0003080640868614013
382 0.025415335868264114 0.010381361017128412 0.00441218791687356
554 -0.0013833164613897 0.0002682008527534446 -0.0014053165185871758
555 0.004758164394305729 -0.005617809526732498 -0.0035571409488382565
557 0.004427462791028401 0.004510426531752892 0.0028199263632053355
364 -0.004113388051892927 -0.002661552900427329 -0.0024553006588325078
372 -0.03290280198009816 -0.023320725535555066 -0.004758553514716401
556 -0.0035756022998254685 0.0018477662652121546 0.0030985698658751236
710 -0.003513361481304394 -0.004376939385942973 -0.005900904675947096
717 0.03036317060548797 -0.0031840245862372624 0.0069380544477291375
709 0.004764576463636506 0.0015811434400876234 0.0002807436949055531
715 -0.008053657432200365 0.017508249839472478 0.005716620281455588
716 0.009774906939393205 0.008596450354915047 -0.015577335391894416
863 0.0035316892281700317 0.0032766720108189425 -0.00683786071198281
858 0.0027595020437311073 0.004510448724374689 0.00417568893865043
862 0.006714213197748434 0.01611988172463168 0.011007207228818823
15 0.0020785076533166437 0.0009433102967416411 -0.005405640025473594
370 0.005476560728999725 -0.0019446574342383534 -0.009889076612349171
366 0.003418728505846824 -0.005204555679590084 -0.009459607755371207
371 -0.020994376453715255 -0.014724745260756806 -0.034811936153437854
159 -0.010311322646989175 -0.018252336216029338 0.012918708534761982
562 -0.009814325170109738 -0.020447796790017184 -0.009338753256537416
365 0.006678740060451741 0.003832062970616689 0.0005791321588473565
558 0.0007534583840543625 0.0006061216560856435 0.0040541952101473145
563 -0.01909306391548612 -0.004728785382171324 0.008566063387188749
485 -0.0003164906922215435 0.0003273322838255555 0.0037691552725398073
486 0.000344922772132029 -0.0005898362838821026 -0.0018469267847307969
490 0.00705534042424643 0.054374354617082066 -0.02582844874668343
491 -0.00815365736159854 0.021934047668827592 0.012211143106270946
602 0.0067782173750300075 0.0004467713192564517 -0.0029262965902175993
426 -0.008179855808155004 -0.005383121793226037 -0.002654623193603787
547 -0.0006257918057728183 -0.024081871251225247 -0.006925150410258727
913 -0.0006518289866881673 0.000984672916198314 -0.0017685192663304992
425 -0.0062392645392958185 0.0018234176551787443 0.00224427909908346
977 -0.004138952835035818 -0.0006476547459121686 0.0016348856016739867
573 0.023225495543701746 0.004263190582078695 -0.007781040931921029
703 -0.0008877536719891717 -0.008763215893461953 -0.018584711234169545
705 -0.015954626636798183 -0.005778757842695346 -0.009702524077548307
235 0.0026836522124885354 0.008434005515453036 -0.001521584728203538
700 0.004121630173723061 0.001063325103563473 -0.006049118106491702
542 -0.004252634503138748 -0.002513955486541671 -0.002949680320520779
599 -0.02623762111629639 0.000917772867713683 0.001222565022855033
594 -0.007686388228843214 -0.0057072856338740065 0.0025811281948949372
38 0.0002713916610663821 0.025939655790582595 0.02410212714968932
135 -0.005169780347730622 -0.003958994515668211 -0.0026976093174299466
430 0.006659398502886231 0.007036536157020129 -0.010408431481442394
416 -0.010091683781507207 -0.008064285386702248 -0.003906326627745211
708 0.010243107897913425 -0.0004255548879520209 0.018027898060079983
463 -0.002783968811079908 0.029614068883569575 -0.013709749350304315
436 -0.004785277794590412 -0.008372869050598041 0.006550205035995867
435 0.00485320422763317 0.00033163237693424873 -0.00037284797994099645
631 -0.006416660445076899 0.00951382248245682 -0.006005764708498105
287 -0.012075347324323709 -0.03184537731452675 0.007469875705232162
434 -0.0024236294007884975 0.0009346248318790669 0.001505362696202792
437 0.011062887852527776 0.0036097155959190575 -0.0029550446846869846
459 -0.0008335583181921091 -0.004026937102171236 0.0005950041440844973
230 -0.0034705323989673623 -0.0022702459409850865 -0.015456805907622183
223 0.0043378132907218375 0.0015671201297324338 0.0006054437379497357
288 0.02103038299245326 -0.01289711185168478 -0.011279415261505972
281 -0.0023682759061619783 0.003995641245323143 -0.0007593448314829315
439 -0.012298591406297443 0.020867307543284558 0.00770741998939421
222 -0.003315297434856041 -0.00015853439412970042 -0.0033182119136847513
229 0.02604386169656893 -0.013230160842890337 0.02007683814799674
460 0.0026536638606585584 0.0078977792478694 0.0006441777423177756
643 0.030905048586710733 0.0026201760561514157 -0.0028274630940944632
227 -0.018133782106259107 0.014041257910095207 -0.019769983856940787
224 -0.004849291113691537 0.004056606471753208 -0.005100004303747726
225 0.0029029000527732098 -7.646812891719898e-05 -0.006408918513340748
221 0.004130140795611218 0.0035076700245078012 -0.006374190717148889
228 -0.006190213294499549 -0.015384166824965646 0.0188149877597075
226 0.00567446466504417 -0.005293005679875553 0.003792321476561362
102 -0.0002722320336088305 0.002381280251391528 -0.001564844390495333
103 0.0032640422018341735 -0.0015385973895686185 0.0009492573970983291
109 0.02257608939645581 0.027873183633768808 0.00660121572745283
110 -0.010955247721083134 0.005504319109502093 -0.006126170016850061
844 -0.0010444868626226112 -0.005106255947769505 0.0036757650408720823
850 0.004440537381402839 0.0010455716699036743 0.002203270600283381
847 0.007157020869729358 0.0013336964256109238 0.0016425695921365063
248 0.015183572841067715 -0.0002064581083867991 -0.023612516260758734
843 0.0033848550594057733 0.005673930748354682 -0.007194279558883616
845 -0.004188618287148638 0.0018118185244430831 -0.00039564641686206563
846 0.0037321696737190107 0.0032509152125022407 0.000896666147730632
849 -0.0044626505218290655 -0.00986168305635488 0.010347721615249274
841 -0.00035448125962440967 0.008212823643479252 0.0042990291111696015
842 0.0026004371862693985 -0.0010170221540071439 0.0006657874368432098
286 0.007028856189414284 0.0017676942869801584 -0.00033652609457254155
848 0.014372742155183997 -0.0007334285961419724 0.01804912118485736
367 0.000565447725778756 0.017066659448309495 0.0010993893373959117
383 0.016763641460765696 0.01634987924215882 -0.017568946080635955
284 0.004132841591607366 -0.0046001712922480635 0.0028480398912953874
282 0.006926070074485926 -0.0001372171664203387 0.0014731900554432172
283 0.0027650606761430796 0.00410427459051922 0.0016580351339560236
290 0.01644390375358034 0.014038755256941402 -0.017199458030612517
111 -0.01531465339087467 0.0035232043137452154 0.005803905287965377
112 0.004589740419541865 -0.0018476877613824664 0.0041347446770286025
117 -0.005872901170727176 -0.029223076479424234 -0.005503831829916272
118 -0.005189375217542483 0.01567299356350832 0.025357485973108457
116 0.0026871129022571 -0.005743200107427737 -0.0018290916095645943
119 0.009619730486189136 0.0374460761772608 0.0025115762177981794
289 0.02196581471981806 -0.013399368057771295 0.003880005479132231
113 0.000494717260620764 -0.0009691305084303329 -0.0024268497645163235
120 -0.025556065237292175 -0.026764408627606727 -0.008899705938405892
564 0.013512896077607164 0.020600893885783386 -0.026071493377389576
114 0.0018047455368030178 -0.0017057082438754563 0.012321038014509133
115 -0.005370602525719544 -0.007932042185347583 0.0020307017981495384
886 0.027426505981550067 -0.02258938936560778 -0.006959981807388131
453 -0.0009610237624936213 0.011032854991726267 0.04018140680472066
445 0.00873677772285721 0.0019216359539972348 0.000488716114664372
446 -0.004768620057579915 -0.003928569449200036 0.005806599231516911
447 -0.0072142945838207465 -0.0015532650052035022 0.0006335813202776343
448 -0.008940337513231146 -0.002184327223075061 0.0012689284601412594
451 -0.03142328167988191 0.002421486431327846 -0.01340173438723618
823 0.002577895826856849 0.009134309420567463 -0.021935491162873726
864 0.004108439323725353 -0.006420787386438604 -0.00015356647745392188
824 -0.002856681731771601 0.03155333407079766 -0.0013391250550720615
817 -0.0022729845425336318 -0.007512285168694748 0.007373327813556957
818 -0.0031370806056366615 -0.002472783270626944 0.00425116210647158
825 -0.023391666061933963 -0.017662252017494738 -0.009261130004887765
452 0.020157883734701947 -0.023666084352977297 -0.025531813914827787
860 -0.01892555071282072 -0.003923450081881239 -0.008467021430633118
856 -0.001179176128792922 0.004603175423038567 -0.0028894517810447383
853 -0.0034655654601279725 -0.0060086129797347135 0.001881521327026398
854 0.00034777282383934233 -0.008000941035570808 0.0023556023794429875
855 0.0023000647216521036 -0.002757949841706853 0.008495529806471551
857 -0.0010860606391986532 -0.0021853056048598287 0.0016722921623172023
859 0.011436035185191316 -0.02727380050822593 -0.008243351844230137
861 -0.002208041322375689 -0.027109144968770958 0.000657035300191315
369 -0.015533710364207004 -0.008022207134451861 0.010187165324788534
956 -0.021296389496706192 0.03150383938538213 -0.009652318492079329
995 0.0019616103283705806 -0.001578604781197864 0.0002673641948727394
361 0.001400127387247078 -0.004977953705782109 -0.0012956866406630275
368 -0.0012981028216283881 -0.0017965234236012738 0.011324473318368663
819 0.0009037323595048939 -0.004854466786009723 0.0009628645210563827
820 0.0013775199160544172 -0.006685798980577432 -0.006762684272552357
363 0.00202838915619418 0.00604344295991914 -0.0007977058694123765
362 -0.0014693498645313625 -0.00320185639129587 -0.0034039374475507414
821 0.0020796675279823687 0.004910000797253233 -0.0036216367750265864
826 -0.003242183492408296 0.01228777026961576 0.008278756714476972
822 0.002483298902682735 0.003666424673830181 0.004756620905039142
601 0.0024503776773911095 0.007189576938689574 0.010975665812479789
608 0.0034023518516545378 0.0031634277197375845 -0.0006475556874224546
659 0.0034392372265469352 0.014396996135847861 0.01686220179519119
654 -0.006542958721507829 0.0030081037299362367 -0.004414175277612276
653 -0.00014311411867456834 -0.003468088263376661 0.00029344422908077883
632 0.013027206996993917 -0.007868323133679038 -0.0021740373642866154
625 -0.002284889234583232 -0.005114876664259954 0.006241598401819622
633 0.0016131846603140763 0.004707393497809599 -0.012041520721467915
598 -0.02152839421915733 -0.013161065324769738 0.008802031397261335
433 -0.008292040880259047 -0.0057150885373836585 0.007078251275452332
544 0.0006490124449944556 -0.0068822247207065155 -0.004784578809799996
441 -0.009908687389719936 -0.013482211326121568 0.018997394830465916
626 0.0004962464128567525 0.0037597647264652674 0.001860179624688263
627 -0.0005809156108253935 0.006609448647985548 0.0025075764790808345
386 -0.0017264346028601038 0.00043005506736075504 0.0037678186043168253
387 -0.002001612117664438 0.0031871446036926864 0.00472053834402485
389 -0.005746700282638527 0.001350099881900119 0.0029583831132038254
396 -0.015277424045065345 -0.010048426754086801 0.0019896369816746464
629 0.0007793917384338211 -0.0048152218968122405 -0.0007715536005400297
390 0.0016501656809116477 0.003767646258910432 -0.0022490665651450554
394 0.017845637163396835 0.0019046157030247525 -0.0010955606021001056
395 0.01726447301383963 -0.007962754340786065 -0.016461607805103706
58 -0.0008226754485746604 0.005350804715306349 -0.020251799641729018
920 -0.008736939330524638 -0.005985384895624012 -0.034673368233832456
57 -0.03471377584033762 -0.01950364638833216 0.022964288595809606
440 -0.013113235940862864 0.006801104983036244 -0.009525403398102759
628 0.0025061970556627114 0.0003849093549446868 0.009747123111839198
51 -0.003447289382540925 -0.008223929050834638 -0.0021186863283738817
59 -0.006778468803178503 -0.007719307669201039 0.006349409328921601
56 -0.0024673396793326446 -0.000425245839319691 -0.00023100927974528765
52 0.001615831254937821 0.0006712830355444138 0.000715339937181431
921 -0.017481418905825608 -0.0029022709000466338 -0.007325950619631205
191 0.006301298555487401 -0.003426527011730067 0.014184768509794825
388 -0.0038587776911846975 0.0049480903512265605 0.0025834599686039156
192 -0.0013492137328910137 0.0031987817660274875 -0.00659239898245625
199 -0.011624794105730274 0.010662420527263626 0.015814716594000036
200 -0.001864421479857304 -0.007494301598331578 -0.010887032677455662
35 -0.005330521673697117 -0.0019688888144148127 -0.0009458403459177191
198 0.0025212211972218687 0.01632897421745594 0.02836169558694076
852 -0.012932388622939389 -0.01832003191561682 0.014275026737910753
568 0.0026665298107634086 -0.009601251228692724 0.009032046617034283
104 0.00499102118495406 -0.00019393928902134165 -0.0002227173360637484
101 0.0059599877135934854 0.0040869318473783865 -0.0006482035848576355
107 -0.02328338802808568 -0.005148347813010029 -0.031072083018004737
108 0.01634681080730943 -0.008790814811440619 -0.0221666927169497
565 -0.0017413766464729275 0.005071887497172502 -0.0012105098949504588
571 0.01236121690565471 -0.01957887435586409 -0.003716470878286888
105 0.002121562274487924 -0.002637054377222855 -0.004268664752257188
106 -0.0001600124390172542 0.003365864233480054 -0.003209356950264787
524 -0.007063381677074288 0.00785910804085417 0.00884701479145496
883 -0.014137547678961263 -0.01484401019512931 0.005041139623669582
2 -0.0005194459476165249 0.002265638423392252 0.0018578054152245905
9 -0.014112945490002434 -0.011515872872314802 -0.0049536373513758445
10 0.006545105439532893 0.0037103295115186417 -0.016734859324043134
193 -0.0019953604445596966 -0.00031663600020687 -0.00042543660925449317
194 0.0008150456607723761 -0.007704008442586321 -0.001811472779911861
195 0.005452183019093489 -0.00024171360453661536 -0.0005112717639078748
517 -0.001916425305404677 0.0015936701211327231 -0.002125960630647622
518 -0.006494618660231611 -0.004580528810884076 -0.002841452363626517
566 0.00035450231570034957 -0.002365261023166652 -0.0005276674993811262
567 -0.002627130133632637 0.005536975274965275 -0.006169332446853804
3 0.001082022679948648 0.006517625634538013 0.001620932844279919
572 -0.0015769545596740387 -0.005696838302872874 -0.011174159241812849
569 -0.006123730060950713 -0.004929536619784747 0.0006365239292621299
4 0.0034002916496581152 0.006133161658274655 -0.004043145168985147
5 -0.0034587815686388814 -0.009595251240878162 0.007943860257206352
8 0.0033623663744985757 0.004735144142212029 0.013279541552229565
1 0.004513187099573971 -0.006459726380912504 0.00405098203383981
7 -0.0067085587416447255 0.022139599510947964 -0.021243174543584285
570 0.006093928383099723 -0.00042457634347676664 0.004242829364560554
576 -0.01180410657747316 -0.01796524112879875 -0.025281437678203792
877 -0.009747639794666646 -0.0037471014594082446 0.0068013176894829094
885 0.018828134820419902 -0.003760409982565918 -0.021777094084415135
6 0.000989006955820231 -0.001385320147034523 0.00030241449296168843
422 -0.004348270216975241 0.0013707319001798795 -0.005911865669118699
423 0.0033426023255756364 0.0034793315476009524 -0.0015678699016163004
53 0.0011948120786154062 -0.003564124964269252 0.0030174277805127335
523 0.0032596942045720312 0.022352490789979508 -0.0142654124136002
525 -0.004030887994307254 0.01924874860291534 0.017244866712384035
878 -0.0015256414213352277 0.0041567244913318325 0.0005084891973821239
880 0.004561294234487037 0.0037779807683896334 -0.0009379432072076655
879 0.004686725579164557 0.0021218969435632656 -0.0015894245800420084
34 -0.0003830982879380474 0.0004546206923956273 -0.002885198550905814
55 -4.228482302643058e-05 0.00020677820589716937 -0.004037583443218323
37 0.0015172437168951786 -0.026951413994070212 -0.015187605958322678
31 0.006936742676001872 -0.0023019265197594236 -0.003029718329933797
636 0.005945601412808921 0.004591980949825747 0.02625314631440812
630 0.009010791380196547 0.00367765659062461 0.0015525617265258133
635 0.008514747584826255 0.023212086446587926 -0.009307629552124927
634 0.009052135874726454 -0.007401440463466436 0.015505719654349279
421 -0.007359123521740335 -0.004345096905577432 -0.0059900531228482485
428 -0.0038175832784777437 -0.004770885313747286 0.010182952706332779
429 0.017320989440337883 0.0037756583661988927 -0.006869509211021023
54 -0.008508595149096649 0.0031043425281891955 0.002398316461043714
888 -0.019556892235259596 -0.01749157417117126 -0.02381374881103404
881 0.005828836014977047 -0.0036425514699492062 0.00663796975718801
882 -0.0049747549540679606 -0.0015818227213206207 -0.001765060017553708
887 -0.0027158863461340453 0.021266529371655456 -0.004543663528189015
36 0.0011864068658460913 0.0015307806841510384 -0.004715836611010619
427 0.003938370854295591 0.010588545053821143 -0.00715641780430068
697 0.0009498619622995546 -0.004220784657785138 -0.006908689099648489
704 -0.0047025480722854805 -0.023515369325130226 -0.02151808946542437
698 0.0009806086504583502 -0.007164758965482263 -0.008661270467672524
424 0.010414760442311956 -0.003298625504605031 0.0009246081435491884
253 0.005906438572968233 0.0009268384644279139 0.006459204959260731
197 0.020412512288073142 -0.0016215591716458356 -0.004413617380834712
60 0.007038958452834245 0.002181045619661301 0.01782409096161902
543 -0.009047838764633886 -0.0006631716134292174 -0.002830116911311731
545 0.0038609114838151167 0.0022960070096912097 -0.005433579773474895
552 0.03699868521825835 0.0013911491569778044 -0.01771474418077402
432 -0.0034652286926945414 -0.02417526395377607 -0.013342000490113373
255 0.002688219683486727 0.0015950518721564034 0.000749408159227931
551 0.018152575939458265 -0.011112594513153197 0.01354830403345197
546 -0.006598321990907007 -0.0027047874563930576 -0.004647952582112414
550 0.007651410275766289 -0.00046900503050971535 0.008432804913317132
173 -4.2150787710520124e-05 0.004641711568997414 -0.0017266923954488153
254 0.005684692164954062 0.0004499203653587444 -0.0003431625289020757
256 -0.0045703820314302104 -0.003151248213408395 0.002353704676116296
788 -4.5344678243920226e-05 -0.020677076528253457 0.01231715640046223
136 -0.0015493188514143625 -0.003989209158926676 0.0014090275319908448
196 -0.0055954346003889086 0.0013551807962140913 -0.0034368533993782507
574 0.009200065112429856 0.0069579891096387585 0.01946711579430212
575 -0.020109851770132067 -0.006787222407767849 -0.012634071887592224
781 -0.0002537985884474394 -0.005245053048505396 -0.0017557991636562662
707 0.023457122508997775 0.011182171101088103 0.013769851473794645
177 -0.02646653675386403 0.009442593838549684 0.00681493180270215
998 0.004872393368471346 0.004704656746889874 -0.0008557841556114439
999 0.0012345708577764102 0.006535552639977612 -0.0035752307445020724
179 -0.003867207040160582 0.03751816385338391 0.024776722615137664
172 -0.00442565962529725 -0.0047787958904128725 0.0006587867684845753
180 0.011278167087360012 0.0014817308859553704 -0.007007052027923458
782 0.009597584693067714 0.0033237056566407137 0.009390458706810574
996 0.001261461892433787 -0.0018303002240250721 0.0035109133461730486
171 -0.0026898227295983007 0.005985366189305341 -0.00020552909932308576
785 0.005662051665701309 0.0005887696513808994 -0.0025714189799566586
997 0.0024204145965058517 0.0012443715364101346 -0.0011817575875468758
884 0.021594842560332228 -0.019032274649867526 0.005357733790184868
706 -0.017761688751647735 -0.0034867064959810926 -0.00042076656392241564
702 -0.000248231309235518 0.007455862243755066 -0.00016310462940282924
827 -0.011559997444435673 0.00029536729269713394 0.011285826908077166
134 0.0043598511799067645 0.00227326149075757 0.0007384306431171145
701 0.004298942974884654 -0.0030737365874581955 -0.012438525905015933
756 0.008909093386558488 -0.019963605833357136 0.013698849967689658
755 -0.005628513180598401 0.029195885591693355 0.022098924792931234
828 -0.011052089718294626 -0.00389851139513063 0.00584041339828316
754 0.0026284215124601925 0.012565119327719775 0.011549001930286238
750 0.00046536969324801263 -0.0027531470191882778 -0.0003937084419181886
748 -0.005492349863753437 -0.0014349502918591319 -0.000630899850606713
699 0.0012832724090557795 -0.0015999309553753247 -0.0030452431583005025
140 0.0014418068404696716 0.010731204814216076 -0.028748738967203192
133 -0.004815628642398579 0.0020608165219759096 0.0008376887401019995
746 0.0023254349405014176 0.006762435124630217 0.001586367433661196
138 -0.0038785635317661275 0.01651034085031665 -0.01864482169311541
131 -0.0012473121584986465 0.0014947028264841698 0.0034341165500931152
747 -0.004014641496108691 0.0014206060250040006 0.0011308862017313825
749 -0.003834064597323006 0.004515134440486165 -0.0036381121891576303
137 -0.001504094214499942 0.021949913231950176 -0.032266207720933596
132 0.001810854687795359 -0.0003219859018645193 -0.005751640968432765
385 0.00023994030431820568 -0.00566415872206405 -0.0011988684518099417
851 -0.01735011728891387 -0.05543774950059828 -0.01998412925576703
519 -0.0004173001400347881 0.002877913873112444 -0.0028900705229546924
871 0.010391125918583523 -0.0213063352274446 -0.012186717197901658
873 -0.013580073336608989 0.002645534042303973 0.012878013455418544
93 -0.006053799103258371 0.000845970021642998 0.002164704763565726
99 0.003998180652831015 0.011561648901114888 -0.010748980851523142
92 -0.007230238339485952 -0.003136560610408439 -0.002216099119966849
401 -0.0018512623666534496 9.442717937250397e-05 -0.004525294209587014
402 0.00660003235536686 0.006301791422611346 0.0007308226841570463
406 0.03299676115318509 -0.0019054843373822392 -0.011836739647451897
407 -0.023276034723502297 0.002354435453607584 -0.009728212924490413
408 0.016479490751510804 0.008018086964795428 -0.0030285359930493053
507 0.0021148890054394982 -0.0011779267562949704 0.00019913364022008294
508 0.002369275378252456 -0.0018563183907774848 -0.0012036777550273204
399 0.002955021025955727 0.0021056244968168307 -0.0008361885844773289
400 -0.0027265574266024887 0.004209234515569208 -0.0020387581927785773
150 0.004871145262707005 0.0033000733611982924 -0.014963186520404691
398 0.00410111467797506 -0.010169030073421792 0.0015588928242514964
142 -0.00233969327232879 -0.009881338012863278 -0.003164184753360178
143 0.004622301489202907 0.0035619575458311578 -0.0017920535293792412
149 0.007684697385690598 -0.021961651398640453 0.0037535777796963037
148 -0.004839156161551598 -0.03710619498936867 -0.030671500873852703
509 -0.0014739068218681112 -0.0032624766302076277 0.008533364910111156
141 -0.0008121754004047552 0.0014284813818804098 0.001391065829258886
147 0.0091115650615702 0.00786432037020209 -0.02393385008402946
516 -0.00754311756608853 0.0011761127868960388 -0.03695501309602481
947 0.009521266767968798 -0.02727464679882402 0.005954806442446947
325 -0.008237567337326255 -0.004451739623349174 -0.0020439842277068733
326 -0.0019000067703435848 0.0041670924245387105 0.003258017437059953
327 0.0014585373367675494 0.009511013130153805 0.004205415724001661
328 -0.00040849522915009987 0.005761107423260242 -0.0038880337780527506
329 0.006032487683501982 0.0026026480550866028 0.0010014306687653836
330 -0.0022776282065049137 0.00038714607120809313 0.007961203735016409
331 -0.010059850343251306 -0.009931162052134509 -0.013427928075256145
335 0.0004747858324045208 0.02438843265751388 0.00031529011267235953
336 -0.026177549489664536 0.001846849535529858 -0.01087840453157184
959 -0.0037810819984497226 -0.004194760967623669 0.015951915312168437
954 -0.0019795238475924493 0.004507789959645597 0.0014509970233744889
397 -0.001293111189284541 -0.009233527924923437 0.007736163770805336
403 -0.01008733588657792 -0.0018003673637498046 -0.009004431623356656
333 0.012798741998577867 0.009925707733795187 -0.007247389714626018
129 -0.0056819334970540526 0.011428797804443773 -0.0028038069204909285
404 -0.012429091703079927 0.008435248210119145 0.0072111759934848875
405 0.018931036550830057 0.011010379757481824 0.012195561922890735
358 -0.004279736055097278 0.016010450402534463 0.016487374189816283
354 -0.0015335385000815568 -0.004509729447813228 0.01252097699032048
359 0.0039217140906425765 0.002989439795401416 0.029491773133842297
496 0.006910053846544575 -0.0008813766199510672 3.575777259839432e-05
360 -0.01155291541419504 -0.04749455416835289 -0.001217448262340844
130 -0.018662653324268225 -0.011104504484901662 0.027215941743652376
123 -0.0008048766184976028 0.00043992823854577994 -0.0010467867337835622
122 0.0007229717445115074 0.00025076486798200376 0.0005616578199945689
299 -0.0015140586706676629 0.01893872324215483 0.003326010754965343
295 -0.006133762537852076 -0.004232057926180883 0.008773592178095414
80 0.02355286307633596 -0.013366153576476227 -0.0029452838527274715
291 -0.008668722967779123 0.0015801731338255796 0.001784230115592247
292 0.012599953265537416 0.0010821095008473236 0.0024942289168697726
294 0.004093826382623917 -0.0033895033344541565 -0.0011972363353752432
296 0.0024888754189413853 0.0074059815204160166 0.003500053514728192
297 0.0018137512051083283 -0.005891773942838876 0.00817914211441776
298 -0.0052551030796440384 0.004262267009606721 -0.024212371709315596
838 -0.011511779652102823 0.015413813750523968 0.01967953969751387
1005 -1.245365852297617e-05 0.0056643307370513075 -0.0023032493399916558
834 -0.003548991400057681 -0.0007708739204819312 -0.0010618503562974855
839 0.003127461505341276 -0.012008236911268896 0.003644577678535899
832 0.002245258645121178 -0.000866296595600368 0.00475847817651383
840 -0.010228317029944473 0.008501181785566192 -0.01706912193921097
872 -0.008358428227429934 0.013636030146357506 0.009513724985393584
50 0.04428466913179026 -0.006933601838077612 -0.010510156139226805
41 -0.004402483357204358 -0.007752864141598015 -0.0018741525067712543
47 0.018863108513774346 -0.015775235628204553 0.007273605545828142
865 -0.002112625614982954 -0.012304239488290777 -0.002360613457250265
187 0.015686931782272966 0.019865393083812268 -0.008786504315732593
42 -0.012620194783408601 -7.012266071229323e-05 0.001144188327019447
510 -0.003299629714548274 0.0021946419034618043 0.0005760203648500849
515 -0.010156428169615499 0.009489357764501157 0.016077880373971242
514 -0.007484057030283326 -0.024562441065587585 -0.01721973141470664
692 -0.002343142875533809 -0.011062991616093393 -0.000962784136132019
686 -0.0003306403677314861 -0.007725753905347166 0.003650771297727995
146 0.0007383384424112637 0.0026379525162213103 -0.0006963169089983112
186 0.0004935968565318952 -0.0012093140074710801 0.004198503654606615
144 0.0024634351532548536 -0.0021485938765819232 0.001840962100203073
184 -0.006427493310896466 0.00013732558989829077 0.005762831557989404
185 -0.007100906448467087 -0.006521737876301821 0.009465323903032823
590 -0.002665390580619414 -0.004526229747194976 -0.006299337221224968
778 -0.002016186035727611 0.005409154902103666 0.022346236984001205
779 -0.026982362553807517 -0.03821322951329417 0.0013302978625403844
774 -0.004162174264032555 -0.001830976289706167 -0.0031075531061111107
780 0.0268823234769508 0.010543891322686356 0.013410352693395355
866 0.0027026632066756554 -0.0045713140493328025 0.001011125914972587
49 -0.005235942041038846 -0.0024395612309059517 -0.004553976752270762
596 0.0031397577814888827 -0.0004451430155648228 -0.005414044851972356
589 0.0030755789164800974 0.0019212169031260114 0.0016812585366900443
687 0.007496337864354082 0.009847832686409598 -0.00591642321500214
685 0.0025796548885012433 0.002672536469135629 -0.0019282760503144783
691 0.005100012857328901 0.018022212524863163 -0.005273748734369477
693 0.03379060395846852 -0.014454711147534332 0.004846448265744769
688 0.0017610357742025736 -0.0010308181160753557 -0.0022761087530763996
181 0.0032530437470540464 0.004886200620243491 -0.0019181120779787927
183 -0.0014361761442409403 -0.0020925107620487046 -0.004535302359744582
189 -0.004583568405799465 -0.01539887522353998 -0.006724546224426471
25 0.0010888489466791135 -0.002070440530265252 -0.0008434967031664301
95 -0.0034326461567917247 -0.000731889918384826 -0.001215046960904162
501 0.02804903198781045 -0.006515734513456496 -0.0037864211582689473
499 -0.01883361037834629 0.018156060927844705 -0.002495700633445323
94 0.002727576921230818 -0.008132034923921654 -0.00021901077396812215
97 0.026388159522930086 0.011376912916444451 -0.012324716965726009
353 -0.0006013820777913904 -0.0025084938566560674 0.0025403926336685255
613 0.003480315999773319 -0.0036675782994281263 0.0022206782143843837
620 -0.010800796197571717 -0.004324644032551044 0.004462984697412166
621 -0.00024839214226933266 0.008556262060040861 0.002674213661006531
96 -0.0016194894622274649 0.0064261628971421 -0.005389369725741824
356 0.01146615457439294 -0.023186499249604718 0.031578501802301095
614 0.0016134365950970955 0.002927686856757073 -0.003719470593815887
615 0.009462264646293432 -0.0004045991757024207 -0.005725008795383561
616 -0.0029554281484041366 -0.0037118548744408497 0.0014604402060239888
617 -0.000597170335610967 -0.006877004147355195 -8.5021980189204e-05
622 -0.013463490461698095 -0.004085836310187713 -0.013201543016381507
679 0.01109810790336198 -0.003127705629396709 -0.0074528975430916316
619 0.015556202595761504 -0.009533741305481588 0.019663756929639037
91 -0.00350336389799541 0.0015788330362872791 -0.002287287605794965
98 -0.012885707846873286 -0.015277313968083203 0.0017202044111472613
673 0.0011844120276329753 0.000496981099143994 0.0003973596509637479
674 -0.00045782544323390756 -0.004283440399668137 -0.0007127779541864057
675 -0.0016711487311509249 0.0007620682981214627 0.00029469314398646046
680 0.009887514566527597 0.015994489906990553 0.0067692708382274935
618 0.0033949361483942867 -0.009483536178806259 -0.008283849110307218
623 -0.004423855118017583 0.00010190605663670536 -0.011643452030381852
624 0.029744105520622736 0.0007700750588915005 -0.011041933687134702
681 0.0009703333375146504 0.019138136792956534 0.020065280644360743
676 0.0006035908256067391 0.001412678816246358 -0.004607282141448813
349 0.00044885004755220803 0.0014787041708156628 -0.00040664954106084183
350 -0.000303739858979118 0.005929328911195098 0.0006651684133629444
351 0.0017996154186492113 -0.0023435299088983173 0.0034495847347969615
127 -0.0052226160709886215 -0.025225633707322084 -0.014820299554408745
125 -0.002419270173512306 0.0003938097119983882 -0.0005086858351028711
124 -0.0017498205903652328 0.008169798476126963 -0.0010980204458371405
126 -0.0026938232346525913 0.00046970824283970613 0.004180588293035498
121 -0.002527448620598065 0.0021757033326127227 0.00043831584615387125
145 -0.0020373866708158655 0.00019557379139670017 0.0012959559869264038
773 -0.00032889956001609525 0.0023698302123119955 0.008787864112776683
43 -0.00016309007332364505 -0.0032152480472537642 0.0008684191924464372
677 -0.005510095718044517 -0.0032546133983619805 0.006197662031105598
816 0.007989750672662797 0.004212364597700717 -0.020606583812522228
809 -0.003185576090889726 -0.0016014802518447117 0.002077317878644554
810 -0.0043304468484341024 -0.0010419564272163757 -6.403020269534775e-05
814 0.00045633111466312023 -0.014967914015182139 0.008680083877906468
765 0.0026736473411691454 0.016665867264731394 -0.007534050155619797
775 -0.012100366868906982 0.0020196585770679088 0.008463242995800282
776 0.032989126043321465 -0.009121926440248881 0.0052762264035881344
777 -0.0346644356129957 -0.009078166662945433 0.004367702022809205
769 0.0010238841978810272 0.0012053027569476574 -0.0031462657993110064
770 0.0033096003656298565 -0.0034085261876764727 0.007523663879165222
771 -0.0009789955008937946 -0.00673452123697079 0.006126703610927794
772 -0.013547021934795624 -0.0016896291755718112 -0.0005504768415834063
829 -0.010223929357890526 0.0008655418965428618 -0.0017146028108633948
830 -0.0015698351382470604 -0.0026413042913446343 0.002517007431307395
831 -0.008915559937880775 0.0016028176813109405 0.002703750018335398
836 0.011564311593108683 0.00968822120459403 0.0010938354010134753
837 -0.010820616425084485 -0.016622116466853645 0.011393386131016531
975 -0.0009835817581370443 0.006728449866582285 -0.005166680632864406
345 -0.005804430719477007 0.009542804177293305 0.04453704850683111
343 -0.010606562613889 0.014597279715730119 -0.009887289446243392
337 0.005097051733963651 -0.0004755771024169596 0.003435712209634039
344 -0.005794439419620209 0.00027138590245385423 0.01730662132315581
764 0.005585525280312416 0.02829953679067893 -0.015039464913359618
835 -0.001661093006188072 -0.0007266629387023945 0.0026012739828461936
833 0.0004961038112664824 -0.0069247495504221965 -0.0005041823844343389
340 -0.0003896053951002366 -0.0007972369058113494 -0.002952991211098046
678 -0.002033737942528157 0.004989696057342358 0.0007180638065151096
682 0.010357368841262192 -0.0005313619213178247 0.009153519798214884
683 0.0029780864241501976 -0.006380627757816867 -0.004706843955047775
461 -0.0035193593257174024 0.0023586622801581433 0.0018738857797862077
938 0.0013424061583607624 0.0010240529283309366 0.0033711294206372434
939 -0.0007868433624094575 0.0029421139170102465 0.0029041800550403266
941 0.003609808434894712 0.0050852415018566985 0.0013123408944934695
937 -1.0323651984214304e-05 0.0031972883246354808 -0.0020754390505804336
945 -0.005464532389938212 0.0030051242172722185 0.020324882585249802
944 0.021037846041992762 -0.01636236169860705 0.01136675567923422
943 0.01650233542083962 -0.02203409888621316 0.026871937219019787
940 0.0065604477555068815 0.003680779520762114 -0.001827134447082347
942 0.006266348836724473 0.0016476531009801088 0.007782234951752478
948 0.02168721148687953 0.004045352148572903 -0.02205857133444534
953 0.004640144437230351 0.0003865471429067668 0.00896721232600557
951 -0.0009117195249759549 0.0013789455947575858 0.0015771185748127174
946 -0.023767140106147274 0.0024136563729108638 -0.016384423113923102
495 0.00311086362190216 8.70824837433085e-05 -0.004380386814096068
497 0.0004024664530968623 0.002087238040314665 0.0007149055503996644
498 0.007352180061830664 0.0011438008686530993 0.012305543683278498
502 -0.001033291871261282 0.005501434934317204 0.000979254126346777
504 0.0004723662558397965 0.005924363823287048 -0.009125025597882731
950 0.00046523301223273393 0.0020313198685091263 0.002473311650374637
952 -0.0004324957702424921 -0.002910779436422845 0.01152621303313373
900 0.017517020788060635 0.01166166535724002 -0.004581592166393751
1009 -0.004604929631723814 0.0038249774153893746 -0.003161031501134919
492 -0.02160980515828389 -0.008990038033884264 0.025623200227457153
483 -0.011113303661407165 -0.00029097580787043587 -0.002661898792047784
484 -0.0006518928283049165 -0.00023240473052857613 -0.0005841275286680204
867 0.0025825856719550347 0.0025001429830408257 0.003737820600067295
868 -0.003693450805439933 0.0031995929262460788 -0.0011370550472780436
188 0.006609951347255358 -0.022038332558488534 0.014298323531257408
182 -0.004515747281419119 -0.009871751241280636 -0.006150904098199654
612 -0.0003701878997175081 0.026289395204030844 -0.02616283677486909
190 -0.0035706578882459352 0.01583064322602764 -0.0094531870640909
611 -0.013976806030247776 0.0034794885431730493 0.005124081802755879
606 -0.002474859199571974 0.0006574771479806874 0.005299103825198806
610 0.023481711225658994 -0.009340189234068454 -0.025879873137894874
869 0.0002102021006405226 0.0018183811144866179 -0.004915813799992365
870 5.432198628583714e-07 0.007943999034573058 0.006081097841336936
874 0.012613510029559098 -0.0028971817544449704 0.010566867565338641
876 0.008459343570402317 0.0064879357196877515 -0.001727823886936606
875 0.0028316622185397735 -0.01510192930285248 -0.014407141666140372
637 0.0015796737395810995 0.008160055126490562 0.003012148846703108
644 0.0027415665175598413 -0.009654936866730045 0.0047117143343631505
605 -0.0001731490226440123 0.0010560746931949114 0.00042096215554115676
265 0.0008477399533746724 0.004484347759300153 0.007521360905432545
264 0.0006773484287620033 0.0029518719357783823 -0.0027273152712048838
263 -0.002645435056009424 0.0035920350432919494 -0.0021188221276728925
346 0.006836309899139523 -0.02393414579848513 -0.017735826982698853
960 -0.017507452347700857 -0.0031990929896459006 -0.012840704416820411
493 -0.003518682037982837 -0.002858984769172532 -0.0025184793572106978
500 -0.0031621914324965372 -0.019913774673006274 -0.01656242556682077
205 -0.00401043327826124 -0.003110756043814071 -0.003020330493664074
958 0.030881655184221365 0.008041914318481471 0.012388053062629264
607 0.0013666966702018022 0.017617591238434618 -0.022136574733060646
494 0.004438024008256364 -0.004338952909984355 -0.0007135189059999319
207 0.006040290272866783 -0.0007062922294336864 -0.002220696027795533
604 -0.0018629221152937135 -3.70246772490829e-05 -0.002885802873262568
603 -0.0010140716273089295 0.0012945158616981612 0.00015948954094552103
270 0.02378527295972596 -0.001758032910561707 -0.001082539411227971
202 -0.0039490433176675305 0.004465487074488353 0.0011149728334605554
209 0.009696153136450015 -0.01442898139081324 -0.012943254473782828
210 0.008155383669790866 -0.013562587958138306 0.007354073519049259
201 0.010320161639467767 0.011568186924450774 0.0009964285693279656
203 -0.009930288148547742 -0.0042157740565092194 0.006210804543511665
204 -0.003557069523145916 0.0008329266950110512 -0.003853861651697958
206 0.0009218830085628485 0.004577972424029962 -0.002348234883286613
323 -0.016805988660158956 0.008700282648998232 0.02853321590235986
815 0.007979838195116037 -0.007684657310179978 -0.000741546467292782
347 -0.0038181074905176498 -0.023694098426116098 0.011386293076090225
341 -0.0016803991505016849 0.005079123943347915 0.00039217508391449577
342 0.005821770323708133 0.005205470136195933 -0.0002789747490232665
320 -0.002929448897132834 -0.0023676984912939 0.0042666851248479845
321 0.004438358614973784 -0.021405302464277933 -0.018978357890368103
338 -0.003294099000839367 0.001758478866541063 -0.003259542139481144
339 0.0025648111823776167 0.0026662924953157873 0.0023287942444286305
348 0.007035954827286455 -0.001113491391176967 -0.006169228716216662
313 0.0036375375228352184 0.0007370278648881613 -0.004976734977673069
314 0.006134686508856955 -0.00032533512856903584 0.0018562220672531636
315 0.002092094037999944 0.0011502891187493527 -0.0008468243553614263
316 -0.0082385062145022 0.0033326666808310714 -0.0026905546257259007
317 -0.0029976563886655533 0.002769941358302664 -0.004414740004701523
318 0.0001703978399470306 0.010488188483378813 -0.0014127757620779392
319 0.002044256975503941 0.017178730171001303 -0.005254429505649221
322 0.016900537028625456 0.025747384995344662 -0.024336270486526302
324 -0.00837045502519684 0.008191808395330858 0.0027549750600772195
128 0.010676274489226333 0.012352523345452622 -0.01636370918481271
595 0.004620289755349857 -0.01407872965144239 0.005153999411305902
684 -0.007373238387741722 -0.004533990300269871 0.011445425296193653
300 0.007591553219132183 0.008589476225419338 0.0006038372082971894
293 4.565864720213741e-05 -0.004440928945154092 0.0018086627715176256
591 -0.005393110286593489 0.00518608946044529 -0.004430492824452305
593 0.002224019810086141 0.0018643837213515682 -0.005271520341535205
766 -0.007114832810218042 -0.03135458343092712 0.015903650386910946
689 -0.0029811850756388926 -0.01243574260528915 -0.005205379548605537
357 -0.005617351223270313 -0.0005650120991488439 0.004670673896626404
352 0.0003196150872627349 -0.0023698634023383712 0.0031705612490704567
757 0.00856117701938518 0.0005629310079063608 0.004473457881766411
898 -0.01715528991602736 0.00749705194967042 0.009276908916199407
893 0.003511341583901226 0.0005909797027750372 -0.005524235065276602
449 -0.004509456706400242 0.0015955830290683424 -0.004027450369106324
456 -0.003809893061459343 -0.003657069339366555 0.011393784658229007
450 0.004168899704683977 -0.005129205473320438 0.002422674824542617
454 0.021551046746579722 0.005408434311152376 0.005797774485668216
455 0.007814445254056312 0.012221575019084031 0.016364203926970106
891 -0.0030957935647714352 0.008395878521218382 0.006294700741830821
890 -0.0022509460717205537 -0.002880069032160992 -0.0029863213694677772
892 -0.0001751919993086904 0.0018144766814227288 0.0011693152342442225
503 0.011713372460864808 -0.008769733889279175 -0.00045926485773005763
170 -0.0004729181198649977 -0.0002260259516500287 0.009037600028639054
586 -0.02637972152863411 -0.008036892297495931 0.005506743126960897
162 0.007298135971825569 0.00633814171309413 0.005266040561764335
169 0.00648409101249886 0.022727160916069918 0.008475805274215379
163 -0.0010854498370982716 -0.0016321106327768916 -0.0033385793583165044
580 -0.00777314862229136 0.0020215395305601294 0.002519825330307892
955 -0.02772368248301806 -0.009287422278693228 -0.006318558594142166
949 -0.0012702629326600756 0.0031025856015186462 0.0003429669046544005
579 -0.0015669964606147317 0.0001044459151705979 -0.01241237278711983
894 0.003445839777057819 0.004862384520143259 -0.005112081534593119
899 0.015635692117706056 0.012263256571377616 0.010473068821688903
581 0.0016052008997958368 -0.004612869025688843 -0.001250389675449404
482 0.0017558150861008619 0.0023056541810545896 0.005036820415652519
481 -0.002743501128807249 0.0023048424287089187 0.002009903253362365
488 -0.018465346155351562 0.011635741996531963 -0.017042748448806752
489 -0.025444004845332033 0.008609611039144023 0.019502797981761074
957 0.019356097195243324 0.030054969096917846 0.020263945235342175
487 -0.0029361889327837987 -0.004553105417306326 0.011409169081426626
578 2.845649296595869e-05 -0.0005826997498559155 -0.00019609364106756364
753 -0.01863762973148752 -0.022638446534402612 0.011431244735005303
468 0.0033376288515490904 -0.020553871072530504 -0.00842153871772441
467 0.0022023370201116207 0.00690586600004836 0.0027666448083512136
462 -0.0025161989813974306 -0.0012116650835805134 -0.0060057032658542946
466 0.01045447537080527 -0.027795461235873842 -0.018786760274314127
889 0.006451485787524732 0.00046794641158333475 0.0024195862591393285
895 0.03008791787921638 0.005637935264376194 0.001968614375477495
897 0.007708355114245362 0.0031076540602516228 0.009760308545870476
641 0.003359764631912278 -0.0003125283206769299 -0.0013187825657386926
896 -0.0151274985730121 -0.005837508149583234 0.0019398285960040445
642 0.0008572067897167746 0.002749585796477504 -0.0033889559401723856
639 -0.0047205689995288794 0.0002934718323657206 0.0006955517164930292
638 -0.0034341973429161884 0.0038837946259788684 0.0056614296343793025
267 0.0180031495137151 -0.02318167946359196 0.001382083600464342
266 -0.0013693918720185938 0.00014738221978588903 -0.004973975192405153
640 -0.0031782994475223953 0.001922760181937895 -0.003383012730696292
268 0.004972233478484187 0.01628280639803672 0.019398787396348885
261 0.0024464280659905265 -0.0007240557977447451 0.002206353558935161
262 -0.0018327125741928092 -0.003294705292934008 -0.007905859706793994
473 0.004591157048866486 -0.0011149709676731105 0.0025947414494835335
647 -0.004992037772511766 -0.0008256581323448293 -0.01197712949618759
935 0.008886630613195156 0.013418702464253253 -0.026360557282896088
930 0.008757270716097259 0.002196187283643817 -0.0013026507412910204
936 -0.004991714517132104 0.00959452263165934 0.017932976644165283
934 -0.022715947272754392 0.025058163923606262 0.05641231171870255
929 -0.0030943621198884505 0.0062321067279628665 0.0009739545941131858
609 -0.00010703137800560819 0.013567406665207114 -0.006592552891463532
269 -0.01023663084162676 0.00785644250022967 0.016752532552205247
928 -0.0020226589710321506 0.001258140418478707 0.0009632527659117787
208 0.05037918969958314 0.03526719934313718 -0.015950408873584017
927 -0.0003074366188841756 0.0033484242456114925 -0.0012839146105884409
658 0.010149508811615518 -0.004346161299284345 -0.020800917261843944
660 0.010431104946811239 -0.0009183454027996903 -0.007489259678841621
652 -0.0044485384686580145 0.0015313897534480084 -0.007081933196670809
931 -0.01041612330472698 -0.013081560464376129 0.03005938174083128
925 0.0015820828825847968 -0.0014184159777669274 0.004698090050670874
926 -0.0026640379179686804 -0.0005054870137750902 -0.0007532332121841462
933 0.0010936333678992604 -0.024704277673182506 0.005416049433957139
932 0.003008424636374478 -0.013044651831133335 0.014463381693173358
583 -0.020651038865478342 0.006153828802802209 0.003983497397363727
585 0.027937665610536594 -0.007248787540480604 -0.008436854618177706
577 0.005187363045855271 0.0005205482299057884 0.0006033302013960894
645 0.0020221236908712008 0.01362807177764104 0.0014905403650529632
584 0.01351066725146843 -0.00037337145503196746 -0.0005421009541207826
472 0.0075105530072445475 -1.2966492555594794e-05 -0.001574944000343935
469 0.007069123261420032 -0.008362974467000524 -0.0007600084413922883
477 0.0017312244077353361 -0.007965148774043897 0.026354247558109202
476 -0.00454335261560333 -0.015181539570313936 0.007441607366947693
651 0.0020310415506311313 0.01043674532960886 0.002880182547777186
471 0.0062619336647047694 0.0006609627348920036 0.001556286566863033
470 0.0029862689391058324 -0.0010223923866812055 -0.0011971906132165475
475 -0.018749977431645814 -0.003856166291824039 -0.003018687313093955
650 0.00040300476967710275 0.0022960194220999403 -5.871615625889962e-05
280 0.028117153178863222 -0.01580094146344437 -0.00860290787620376
307 -0.02406209038581485 -0.01124490098311978 0.0011841155755824544
308 -0.0030024240952060753 -0.01799638415421468 0.03477278531957966
259 -0.010264053447621664 -0.017759911839951213 -0.003134801408193441
301 -0.006645619508220067 -0.0034527067662016124 0.0002799316035280174
252 -0.0023838299642273382 -0.004823886191919392 0.0013395645901315425
309 -0.021950076616964916 0.0017634344876835805 0.02400173724527799
260 -0.0058484537242949365 -0.013928359315781949 0.015598474917368562
174 0.006121746836094917 -0.0011685345941081023 -0.0038913355400720826
175 0.0044839400428284895 -0.004046350667397679 -0.004372835149638224
251 0.004438290046330891 0.003242750187865323 0.002844842200177903
258 -0.01389429311858024 -0.00901378348287481 0.022334654810331468
787 0.026262686183644662 0.005246546344657872 0.0008950565726729765
29 0.012462757407807518 -0.007241037518812738 0.020644116765826875
22 -0.009937268069733078 0.004881533158304697 -0.00567607751780802
27 0.011321804606338613 -0.01306076367545653 0.014941246469225743
21 0.0005755918991063173 0.005734704788271414 -0.002208559630209218
23 -0.0006367278052542468 -0.0005347287660344668 -0.000845042395116805
30 0.007569363739304785 -0.015661924607460267 0.01349588022725018
257 0.028074594804737063 -0.01713687028523551 -0.01135832998723906
28 -0.01754256718324525 -0.009605465664766713 0.00680220238525081
176 -0.003543470364415667 0.000196258027838275 0.003746637000950652
24 0.008910354493972629 -0.001154665962918851 0.003772066025504704
26 0.003937059522577752 -0.0014822030475495122 -6.719280601545996e-05
332 -0.004569383115700387 0.029340546957716398 0.017409432131138394
582 0.004097102476548389 0.0011612121455786344 -0.003928439193645383
789 0.02068412448455163 -0.004496067711246094 0.013547977236353025
215 0.0018183554821003779 0.0009112912408255474 0.006253900031116022
588 0.008543830506807851 5.9802900856843686e-05 -0.006609234943032736
178 -0.006195362801226326 0.01058849212769385 -0.01037565597068367
783 0.0009102255014199744 0.0007679740960226018 0.005572089851951156
784 -0.002384455029364583 -0.005837127293503656 0.0050802986971542445
786 -0.0015630616583572393 -0.0006711247409837253 -0.0001541658211798561
790 0.009358998211974993 -0.007635283500262535 -0.015183453028544822
791 -1.6531684427213585e-05 -0.0004213634856058204 -0.002410053848557918
792 0.01224163524858854 -0.0014033212081860495 0.0005218574001932408
216 0.004030806941910054 -0.0008723550987073528 0.006808102670437313
168 -0.003310331293065079 -0.023355690943981874 0.011371522749269069
161 -0.006152719721574274 0.002618952539633061 -0.0014520089555484135
167 -0.0030035420293357405 -0.020347652540204014 0.0031654414411638934
538 0.017118391437081673 0.01001767821313101 0.008591345442252575
540 -0.02781405485610512 0.033383238058926 -0.01467255493091178
751 0.011236245688875776 0.0038108383732284538 -0.027136276053215995
752 0.0023252805644831506 -0.007982279814460716 -0.025767780808289634
478 0.014281553858367487 0.003269158943962104 -0.0013638349728512219
587 -0.0202532469564524 0.01541441206784259 -0.014917855354218797
218 0.0013832852000172043 0.005551457486067287 0.004253059632377874
214 -0.004064352418873397 -1.6783996890062743e-06 -0.005598917161647946
211 0.0019355708997013826 -0.0007602995408980865 0.010165653875049847
217 -0.002215070187248381 0.007147204122528342 -0.007791882985760303
1012 -0.005802409469810542 0.002647654611395757 0.002413615760846971
745 -0.0037765524232421994 -0.0034577057013085283 0.006950263417649441
213 0.003568483411267967 -0.0029457069901860883 -0.0037847555443746225
212 0.00010560649713746239 0.001524125964736218 -0.0009558257451086903
219 -0.018238481067620216 -0.00012428330569337823 -0.0063463961472864094
1013 -0.0019141802245415983 0.0006386900833080568 -0.003344222162329228
139 0.02401560266432482 0.015996513005968806 0.018714615586899002
1011 -0.003405092425958226 -0.0016882262270250254 0.00019996894075802237
220 0.018225494409770712 -0.0024828653144185996 0.02257001287120991
1014 -0.00042925086581698256 0.0002474166097587976 0.0032283190688561472
600 0.012642171066635018 -0.022939648898784498 -0.017396389463890403
474 -0.008348765325272055 -0.009788827225799891 -0.004379646384822432
392 -0.0335630370687863 0.005102291697800574 -0.00012348564704659035
391 -0.014011299630624075 -0.014306671817465408 -0.028115743431016436
393 -0.0022500719827826445 -0.021276617249397996 -0.0162148478797372
302 -0.004124175556245869 -0.004421330210324959 -0.005668945707298049
592 -0.0036214538539736892 0.006003825281419869 0.0012165319363008588
648 0.007105489406522654 -0.007663908932370295 -0.006466921405123316
990 -0.0025312251341595305 0.0043460247597803545 0.00197452020260635
479 0.00643731059527124 -0.006965656503040666 0.019155353896345696
646 0.02595664445378445 -0.025775060923987583 0.00429627072643933
992 0.0012169220384301322 0.006987118922694545 -0.004869750212838039
304 -0.00078698059884159 0.0013349161244174562 0.008936584648854341
597 -0.01921459309998456 -0.022613699814139698 0.00041904697535156434
279 4.234312585978899e-05 0.012664907522101393 -0.011138087246407854
278 0.001531819906073333 -0.008972722909425001 -0.037169741378958995
271 0.001107929412377177 0.002510207543832881 -0.002925255675855058
272 -0.002668795931757675 0.003589321890735046 -0.0046910505520652065
273 -0.0050481156569734086 -0.004674874155273205 -0.009943283364601097
274 0.000351368118521719 0.003816986284920406 0.002645807766281046
276 -0.004941228669690969 -0.00044260922613456474 -0.004644974299997515
277 0.007833935602827895 0.014129827112964215 0.016674700908361383
303 0.0050873404947664215 0.00610739687360739 0.00039271985534101897
305 -0.007102907913911081 0.004193200061497998 0.0038874849764896366
306 0.0004744514201518544 -0.004363609504499488 -0.0012520570456920452
310 -0.0447325805081293 -0.006588359603082947 0.00038989284926318416
311 -0.024652496144612582 -0.003989145720852928 -0.021850012671277598
312 0.003104815375502599 -0.028592963026995863 0.003399608232674959
696 -0.0008313517247159511 -0.00873328649740805 -0.005853967302670697
991 -0.0004772711588075941 -0.0008040400712381874 -0.002208945570529779
994 -0.0013269652174891407 -0.004281303477772098 -0.0013192992559758036
993 -0.0026454545568646774 0.002575546682641103 0.0011313670827007372
768 0.005569089155140274 0.032703320711360805 -0.016120412805772994
355 -0.018510484744917764 -0.012896489070299465 -0.017084881875822442
539 -0.017512573986330396 -0.014473824589869885 0.0384722623123722
979 -0.001167334659168411 0.005026626928566422 -0.0001680712253757022
166 -0.00231273148984269 -0.0008418459507406349 0.006222674635871342
164 -0.0014512356167377713 -0.003741062890147036 0.005091175112827538
165 -0.0023829009542614054 -0.0033298630324314835 -0.0026416444318327166
694 -0.00821587538644987 0.005466505979720724 -0.022091965125912463
695 -0.0019248875294939993 0.030090076087816733 -0.0038363899998739657
690 0.00013336695402339338 -0.001135868708423822 0.0006963151881823826
534 -0.008588209462676497 -0.004904702177612201 0.00487547615171989
800 0.01156679821378828 0.00694471788912681 -0.028223466409256888
793 0.0011790622745284525 0.0013529226857771502 0.005805467685990537
794 0.010672215806153814 -0.001138484407000692 0.0017393511470717242
533 -0.0077296327766588615 -0.0007593596740446735 -0.000825805813196332
799 -0.014548499257344102 -0.001143801009249798 -0.018807835654103097
801 -0.019171225985925917 -0.012859880813269135 -0.004729755847397902
535 -0.01645834628115084 -0.0034098990491832344 0.005883043526492589
528 -0.017770561175818437 -0.012815328852406747 0.006040707628208004
529 0.0018508209667939411 0.0009133678622040458 -0.006752117219683732
530 0.004350783210610429 -0.0015282344612611283 0.0002735147160525378
531 -0.007069039643623041 0.003110101016672088 0.0038726786534111946
532 0.00032626793247658194 0.0003441771211748594 -0.002185686646726549
536 -0.010409181593077589 -0.012226884794765577 0.011082476384329106
537 0.020696474174481148 -0.007347006053943309 -0.0021970863620043653
521 -1.7220051285768046e-05 -0.0016876171207326853 -0.0015575624357993473
522 -0.003366218009674842 -0.001318175971680077 -0.006878656365635536
527 -0.02910118238724106 -0.010493284760090631 0.015341905624720997
526 0.017627193869068806 -0.013992848575999486 -0.012751341851591314
760 0.005361473656681483 -0.005990655376413468 -0.006959449913862429
759 0.001707950467544839 -0.005036674239270147 0.007506647707409118
758 0.0006855273503149834 -0.002509214050786648 0.001593504580655041
762 0.00019795883034414945 -0.0015608078039126042 0.002254412042619484
761 -0.0055957280878968785 0.003262489084657008 0.005806470292291319
978 0.006271545320899573 -0.0018527154849619803 -0.005326109365912493
520 0.0005283944412377456 0.006003328788714796 0.005033417361169901
743 -0.004896893171979683 0.009721668111187314 -0.008614220359237576
1010 0.009470396457668945 -0.002865372851114 -0.001160779875901916
767 -0.02802455585862906 -0.0008430803927441105 -0.033213712334685515
742 -0.0033448789893702428 -0.0005198003339069562 0.0012656393801835804
738 0.008908064060381395 0.0012654344871752556 -0.001782167618947755
275 0.0003152515943548043 -0.0005321897541536162 0.0035551901482506385
795 0.006104387501067543 -0.0033285201464785933 0.00574434481290685
796 0.0028224956715117515 0.0032886083372075507 -0.005495183976176606
797 0.0005324394189196767 0.0052870163817018805 0.0005318250392476756
480 0.029169927675508665 0.0009821187242767114 0.01712928542960169
802 0.014335547223919436 0.010901380737487682 0.010785646686613094
763 -0.003694220701873351 0.004623812040404765 -0.024101791083298477
657 -0.028747431791447734 0.008592548615756864 0.002182947471319415
804 -0.00248887879409466 -0.008553235575847758 -0.0006604201729217778
656 0.0044257190634210825 0.020296646037137798 -0.003002790405084296
649 -0.0022121541280203214 0.004961566898642249 0.0031106854793406884
744 0.009528380995889558 -0.005231495805438497 -0.019652100886216956
983 0.005642758932981138 -0.00010714674233794903 0.0036607991223332084
798 0.0006988450753019652 -0.00456330409857597 -0.00321713431964418
803 -0.022796051040155235 -0.010739229232414799 0.004484578875736114
733 -0.004075399614902888 3.543812055423588e-05 0.002040430403657761
734 0.0007357458859818906 -0.0032624980014560436 -0.0039052606107637744
737 0.00016999434740925384 0.004815775181973635 -0.0027353829440141847
740 -0.011725643172355766 -0.004391114438439833 -0.0005127749302303185
741 -0.003568105568641806 -0.01526035944658045 -0.00011840074704074698
655 0.008303486916636854 0.019740511548835625 -0.016551913396223555
982 -0.004209288847385487 0.0005634062959067582 -0.005229119009509429
739 -0.007905289865850379 0.002930681600225592 0.019982215959997218
735 0.0032688945440901944 0.0020740733316588467 -0.002731097194440099
736 -0.005667576047880221 0.003090371795317495 0.0017428554846766278
976 -0.002413796094420452 -0.00531306089623145 -0.002111488961347082
980 -0.004450724690546976 -0.0075925088671389505 -0.00679161575549609
981 0.009083613681583235 -0.0023882465790121474 0.004853198780818621
984 0.006265275525885512 -0.00026882422643592055 -0.009465087422694253

Bonds

1 2 82 83
2 3 82 89
3 3 82 90
4 4 83 84
5 5 84 85
6 4 84 86
7 1 81 82
8 2 81 86
9 3 81 87
10 3 81 88
11 2 665 666
12 5 663 664
13 4 663 665
14 4 662 663
15 2 661 662
16 3 661 667
17 3 661 668
18 3 661 669
19 2 541 542
20 3 541 547
21 3 541 548
22 3 541 549
23 2 725 726
24 3 726 730
25 3 726 731
26 3 726 732
27 5 723 724
28 4 723 725
29 5 915 916
30 4 915 917
31 2 917 918
32 3 918 922
33 3 918 923
34 3 918 924
35 2 961 962
36 3 961 967
37 3 961 968
38 3 961 969
39 6 1000 1001
40 6 1001 1002
41 6 1001 1003
42 6 1001 1004
43 4 914 915
44 4 962 963
45 2 232 233
46 3 232 239
47 3 232 240
48 4 63 64
49 2 62 63
50 3 62 69
51 3 62 70
52 4 233 234
53 1 231 232
54 2 231 236
55 3 231 237
56 3 231 238
57 3 414 418
58 3 414 419
59 3 414 420
60 2 805 806
61 3 805 811
62 3 805 812
63 3 805 813
64 4 806 807
65 4 410 411
66 5 411 412
67 4 411 413
68 2 413 414
69 2 905 906
70 3 906 910
71 3 906 911
72 3 906 912
73 5 807 808
74 4 807 809
75 5 903 904
76 4 903 905
77 4 33 34
78 5 154 155
79 4 154 156
80 4 902 903
81 2 32 33
82 3 32 39
83 3 32 40
84 2 901 902
85 3 901 907
86 3 901 908
87 3 901 909
88 5 234 235
89 4 234 236
90 3 714 718
91 3 714 719
92 3 714 720
93 2 713 714
94 2 505 506
95 3 505 511
96 3 505 512
97 3 505 513
98 4 506 507
99 5 711 712
100 4 711 713
101 6 986 987
102 6 986 988
103 6 986 989
104 5 64 65
105 4 64 66
106 1 61 62
107 2 61 66
108 3 61 67
109 3 61 68
110 4 722 723
111 2 721 722
112 3 721 727
113 3 721 728
114 3 721 729
115 1 11 12
116 2 11 16
117 3 11 17
118 3 11 18
119 2 12 13
120 3 12 19
121 3 12 20
122 4 13 14
123 5 14 15
124 4 14 16
125 6 985 986
126 2 409 410
127 3 409 415
128 3 409 416
129 3 409 417
130 1 151 152
131 2 151 156
132 3 151 157
133 3 151 158
134 5 74 75
135 4 74 76
136 1 71 72
137 2 71 76
138 3 71 77
139 3 71 78
140 2 72 73
141 3 72 79
142 3 72 80
143 6 1006 1007
144 6 1006 1008
145 6 1006 1009
146 4 73 74
147 2 152 153
148 3 152 159
149 3 152 160
150 5 44 45
151 4 44 46
152 3 666 670
153 3 666 671
154 3 666 672
155 2 457 458
156 3 457 463
157 3 457 464
158 3 457 465
159 3 438 442
160 3 438 443
161 3 438 444
162 4 458 459
163 3 966 970
164 3 966 971
165 3 966 972
166 2 965 966
167 2 553 554
168 3 553 559
169 3 553 560
170 3 553 561
171 5 244 245
172 4 244 246
173 2 373 374
174 3 373 379
175 3 373 380
176 3 373 381
177 5 963 964
178 4 963 965
179 1 241 242
180 2 241 246
181 3 241 247
182 3 241 248
183 4 243 244
184 2 242 243
185 3 242 249
186 3 242 250
187 4 153 154
188 4 374 375
189 3 378 382
190 3 378 383
191 3 378 384
192 5 375 376
193 4 375 377
194 2 377 378
195 4 554 555
196 5 555 556
197 4 555 557
198 2 557 558
199 4 710 711
200 2 709 710
201 3 709 715
202 3 709 716
203 3 709 717
204 3 858 862
205 3 858 863
206 3 858 864
207 3 366 370
208 3 366 371
209 3 366 372
210 2 365 366
211 3 558 562
212 3 558 563
213 3 558 564
214 2 485 486
215 3 486 490
216 3 486 491
217 3 486 492
218 4 602 603
219 3 426 430
220 3 426 431
221 3 426 432
222 2 913 914
223 3 913 919
224 3 913 920
225 3 913 921
226 2 425 426
227 4 542 543
228 3 594 598
229 3 594 599
230 3 594 600
231 5 435 436
232 4 435 437
233 4 434 435
234 2 437 438
235 5 459 460
236 4 459 461
237 4 223 224
238 1 281 282
239 2 281 286
240 3 281 287
241 3 281 288
242 2 222 223
243 3 222 229
244 3 222 230
245 5 224 225
246 4 224 226
247 1 221 222
248 2 221 226
249 3 221 227
250 3 221 228
251 2 102 103
252 3 102 109
253 3 102 110
254 4 103 104
255 5 843 844
256 4 843 845
257 2 845 846
258 3 846 850
259 3 846 851
260 3 846 852
261 2 841 842
262 3 841 847
263 3 841 848
264 3 841 849
265 4 842 843
266 5 284 285
267 4 284 286
268 2 282 283
269 3 282 289
270 3 282 290
271 4 283 284
272 1 111 112
273 2 111 116
274 3 111 117
275 3 111 118
276 2 112 113
277 3 112 119
278 3 112 120
279 4 113 114
280 5 114 115
281 4 114 116
282 2 445 446
283 3 445 451
284 3 445 452
285 3 445 453
286 4 446 447
287 5 447 448
288 4 447 449
289 2 817 818
290 3 817 823
291 3 817 824
292 3 817 825
293 4 818 819
294 2 853 854
295 3 853 859
296 3 853 860
297 3 853 861
298 4 854 855
299 5 855 856
300 4 855 857
301 2 857 858
302 6 995 996
303 2 361 362
304 3 361 367
305 3 361 368
306 3 361 369
307 5 819 820
308 4 819 821
309 5 363 364
310 4 363 365
311 4 362 363
312 2 821 822
313 3 822 826
314 3 822 827
315 3 822 828
316 2 601 602
317 3 601 607
318 3 601 608
319 3 601 609
320 3 654 658
321 3 654 659
322 3 654 660
323 2 653 654
324 2 625 626
325 3 625 631
326 3 625 632
327 3 625 633
328 2 433 434
329 3 433 439
330 3 433 440
331 3 433 441
332 4 626 627
333 5 627 628
334 4 627 629
335 4 386 387
336 5 387 388
337 4 387 389
338 2 389 390
339 2 629 630
340 3 390 394
341 3 390 395
342 3 390 396
343 1 51 52
344 2 51 56
345 3 51 57
346 3 51 58
347 2 52 53
348 3 52 59
349 3 52 60
350 1 191 192
351 2 191 196
352 3 191 197
353 3 191 198
354 2 192 193
355 3 192 199
356 3 192 200
357 5 104 105
358 4 104 106
359 1 101 102
360 2 101 106
361 3 101 107
362 3 101 108
363 2 565 566
364 3 565 571
365 3 565 572
366 3 565 573
367 2 2 3
368 3 2 9
369 3 2 10
370 4 193 194
371 5 194 195
372 4 194 196
373 2 517 518
374 3 517 523
375 3 517 524
376 3 517 525
377 4 518 519
378 4 566 567
379 5 567 568
380 4 567 569
381 4 3 4
382 2 569 570
383 5 4 5
384 4 4 6
385 1 1 2
386 2 1 6
387 3 1 7
388 3 1 8
389 3 570 574
390 3 570 575
391 3 570 576
392 2 877 878
393 3 877 883
394 3 877 884
395 3 877 885
396 4 422 423
397 5 423 424
398 4 423 425
399 4 53 54
400 4 878 879
401 5 879 880
402 4 879 881
403 5 34 35
404 4 34 36
405 1 31 32
406 2 31 36
407 3 31 37
408 3 31 38
409 3 630 634
410 3 630 635
411 3 630 636
412 2 421 422
413 3 421 427
414 3 421 428
415 3 421 429
416 5 54 55
417 4 54 56
418 2 881 882
419 3 882 886
420 3 882 887
421 3 882 888
422 2 697 698
423 3 697 703
424 3 697 704
425 3 697 705
426 4 698 699
427 4 253 254
428 5 543 544
429 4 543 545
430 2 545 546
431 3 546 550
432 3 546 551
433 3 546 552
434 4 173 174
435 5 254 255
436 4 254 256
437 2 781 782
438 3 781 787
439 3 781 788
440 3 781 789
441 2 172 173
442 3 172 179
443 3 172 180
444 4 782 783
445 6 996 997
446 6 996 998
447 6 996 999
448 1 171 172
449 2 171 176
450 3 171 177
451 3 171 178
452 2 785 786
453 3 702 706
454 3 702 707
455 3 702 708
456 5 134 135
457 4 134 136
458 2 701 702
459 3 750 754
460 3 750 755
461 3 750 756
462 5 699 700
463 4 699 701
464 4 133 134
465 4 746 747
466 1 131 132
467 2 131 136
468 3 131 137
469 3 131 138
470 5 747 748
471 4 747 749
472 2 749 750
473 2 132 133
474 3 132 139
475 3 132 140
476 2 385 386
477 3 385 391
478 3 385 392
479 3 385 393
480 5 519 520
481 4 519 521
482 4 93 94
483 2 92 93
484 3 92 99
485 3 92 100
486 2 401 402
487 3 402 406
488 3 402 407
489 3 402 408
490 5 507 508
491 4 507 509
492 5 399 400
493 4 399 401
494 4 398 399
495 2 142 143
496 3 142 149
497 3 142 150
498 4 143 144
499 2 509 510
500 1 141 142
501 2 141 146
502 3 141 147
503 3 141 148
504 2 325 326
505 3 325 331
506 3 325 332
507 3 325 333
508 4 326 327
509 5 327 328
510 4 327 329
511 2 329 330
512 3 330 334
513 3 330 335
514 3 330 336
515 3 954 958
516 3 954 959
517 3 954 960
518 2 397 398
519 3 397 403
520 3 397 404
521 3 397 405
522 3 354 358
523 3 354 359
524 3 354 360
525 4 123 124
526 2 122 123
527 3 122 129
528 3 122 130
529 1 291 292
530 2 291 296
531 3 291 297
532 3 291 298
533 2 292 293
534 3 292 299
535 3 292 300
536 5 294 295
537 4 294 296
538 6 1005 1006
539 3 834 838
540 3 834 839
541 3 834 840
542 1 41 42
543 2 41 46
544 3 41 47
545 3 41 48
546 2 865 866
547 3 865 871
548 3 865 872
549 3 865 873
550 2 42 43
551 3 42 49
552 3 42 50
553 3 510 514
554 3 510 515
555 3 510 516
556 4 686 687
557 5 144 145
558 4 144 146
559 5 184 185
560 4 184 186
561 4 590 591
562 3 774 778
563 3 774 779
564 3 774 780
565 4 866 867
566 2 589 590
567 3 589 595
568 3 589 596
569 3 589 597
570 5 687 688
571 4 687 689
572 2 685 686
573 3 685 691
574 3 685 692
575 3 685 693
576 1 181 182
577 2 181 186
578 3 181 187
579 3 181 188
580 4 183 184
581 5 94 95
582 4 94 96
583 2 353 354
584 2 613 614
585 3 613 619
586 3 613 620
587 3 613 621
588 4 614 615
589 5 615 616
590 4 615 617
591 2 617 618
592 1 91 92
593 2 91 96
594 3 91 97
595 3 91 98
596 2 673 674
597 3 673 679
598 3 673 680
599 3 673 681
600 4 674 675
601 5 675 676
602 4 675 677
603 3 618 622
604 3 618 623
605 3 618 624
606 2 349 350
607 3 349 355
608 3 349 356
609 3 349 357
610 4 350 351
611 5 351 352
612 4 351 353
613 5 124 125
614 4 124 126
615 1 121 122
616 2 121 126
617 3 121 127
618 3 121 128
619 2 773 774
620 4 43 44
621 2 677 678
622 2 809 810
623 3 810 814
624 3 810 815
625 3 810 816
626 2 769 770
627 3 769 775
628 3 769 776
629 3 769 777
630 4 770 771
631 5 771 772
632 4 771 773
633 2 829 830
634 3 829 835
635 3 829 836
636 3 829 837
637 4 830 831
638 5 831 832
639 4 831 833
640 2 337 338
641 3 337 343
642 3 337 344
643 3 337 345
644 2 833 834
645 3 678 682
646 3 678 683
647 3 678 684
648 2 461 462
649 4 938 939
650 5 939 940
651 4 939 941
652 2 941 942
653 2 937 938
654 3 937 943
655 3 937 944
656 3 937 945
657 3 942 946
658 3 942 947
659 3 942 948
660 2 953 954
661 5 951 952
662 4 951 953
663 5 495 496
664 4 495 497
665 2 497 498
666 3 498 502
667 3 498 503
668 3 498 504
669 4 950 951
670 5 483 484
671 4 483 485
672 5 867 868
673 4 867 869
674 2 182 183
675 3 182 189
676 3 182 190
677 3 606 610
678 3 606 611
679 3 606 612
680 2 869 870
681 3 870 874
682 3 870 875
683 3 870 876
684 2 637 638
685 3 637 643
686 3 637 644
687 3 637 645
688 2 605 606
689 5 264 265
690 4 264 266
691 4 263 264
692 2 493 494
693 3 493 499
694 3 493 500
695 3 493 501
696 4 494 495
697 5 603 604
698 4 603 605
699 2 202 203
700 3 202 209
701 3 202 210
702 1 201 202
703 2 201 206
704 3 201 207
705 3 201 208
706 4 203 204
707 5 204 205
708 4 204 206
709 2 341 342
710 3 342 346
711 3 342 347
712 3 342 348
713 4 338 339
714 5 339 340
715 4 339 341
716 2 313 314
717 3 313 319
718 3 313 320
719 3 313 321
720 4 314 315
721 5 315 316
722 4 315 317
723 2 317 318
724 3 318 322
725 3 318 323
726 3 318 324
727 4 293 294
728 5 591 592
729 4 591 593
730 2 593 594
731 2 689 690
732 2 757 758
733 3 757 763
734 3 757 764
735 3 757 765
736 2 893 894
737 2 449 450
738 3 450 454
739 3 450 455
740 3 450 456
741 5 891 892
742 4 891 893
743 4 890 891
744 2 162 163
745 3 162 169
746 3 162 170
747 4 163 164
748 2 949 950
749 3 949 955
750 3 949 956
751 3 949 957
752 5 579 580
753 4 579 581
754 3 894 898
755 3 894 899
756 3 894 900
757 2 581 582
758 4 482 483
759 2 481 482
760 3 481 487
761 3 481 488
762 3 481 489
763 4 578 579
764 3 462 466
765 3 462 467
766 3 462 468
767 2 889 890
768 3 889 895
769 3 889 896
770 3 889 897
771 2 641 642
772 3 642 646
773 3 642 647
774 3 642 648
775 5 639 640
776 4 639 641
777 4 638 639
778 1 261 262
779 2 261 266
780 3 261 267
781 3 261 268
782 2 262 263
783 3 262 269
784 3 262 270
785 2 473 474
786 3 930 934
787 3 930 935
788 3 930 936
789 2 929 930
790 5 927 928
791 4 927 929
792 2 925 926
793 3 925 931
794 3 925 932
795 3 925 933
796 4 926 927
797 2 577 578
798 3 577 583
799 3 577 584
800 3 577 585
801 2 469 470
802 3 469 475
803 3 469 476
804 3 469 477
805 5 651 652
806 4 651 653
807 5 471 472
808 4 471 473
809 4 470 471
810 4 650 651
811 2 301 302
812 3 301 307
813 3 301 308
814 3 301 309
815 2 252 253
816 3 252 259
817 3 252 260
818 5 174 175
819 4 174 176
820 1 251 252
821 2 251 256
822 3 251 257
823 3 251 258
824 2 22 23
825 3 22 29
826 3 22 30
827 1 21 22
828 2 21 26
829 3 21 27
830 3 21 28
831 4 23 24
832 5 24 25
833 4 24 26
834 3 582 586
835 3 582 587
836 3 582 588
837 5 783 784
838 4 783 785
839 3 786 790
840 3 786 791
841 3 786 792
842 1 161 162
843 2 161 166
844 3 161 167
845 3 161 168
846 5 214 215
847 4 214 216
848 1 211 212
849 2 211 216
850 3 211 217
851 3 211 218
852 2 745 746
853 3 745 751
854 3 745 752
855 3 745 753
856 4 213 214
857 2 212 213
858 3 212 219
859 3 212 220
860 6 1011 1012
861 6 1011 1013
862 6 1011 1014
863 3 474 478
864 3 474 479
865 3 474 480
866 4 302 303
867 6 990 991
868 1 271 272
869 2 271 276
870 3 271 277
871 3 271 278
872 2 272 273
873 3 272 279
874 3 272 280
875 4 273 274
876 5 274 275
877 4 274 276
878 5 303 304
879 4 303 305
880 2 305 306
881 3 306 310
882 3 306 311
883 3 306 312
884 6 991 992
885 6 991 993
886 6 991 994
887 5 164 165
888 4 164 166
889 3 690 694
890 3 690 695
891 3 690 696
892 3 534 538
893 3 534 539
894 3 534 540
895 2 793 794
896 3 793 799
897 3 793 800
898 3 793 801
899 4 794 795
900 2 533 534
901 2 529 530
902 3 529 535
903 3 529 536
904 3 529 537
905 4 530 531
906 5 531 532
907 4 531 533
908 2 521 522
909 3 522 526
910 3 522 527
911 3 522 528
912 5 759 760
913 4 759 761
914 4 758 759
915 3 762 766
916 3 762 767
917 3 762 768
918 2 761 762
919 6 1010 1011
920 3 738 742
921 3 738 743
922 3 738 744
923 5 795 796
924 4 795 797
925 2 797 798
926 2 649 650
927 3 649 655
928 3 649 656
929 3 649 657
930 3 798 802
931 3 798 803
932 3 798 804
933 2 733 734
934 3 733 739
935 3 733 740
936 3 733 741
937 4 734 735
938 2 737 738
939 5 735 736
940 4 735 737
941 6 980 981
942 6 981 982
943 6 981 983
944 6 981 984

Angles

1 1 81 82 83
2 2 81 82 89
3 2 81 82 90
4 2 83 82 89
5 2 83 82 90
6 4 89 82 90
7 1 82 83 84
8 3 83 84 85
9 1 83 84 86
10 3 85 84 86
11 1 81 86 84
12 1 82 81 86
13 2 82 81 87
14 2 82 81 88
15 2 86 81 87
16 2 86 81 88
17 4 87 81 88
18 5 663 665 666
19 3 662 663 664
20 6 662 663 665
21 3 664 663 665
22 5 661 662 663
23 2 662 661 667
24 2 662 661 668
25 2 662 661 669
26 4 667 661 668
27 4 667 661 669
28 4 668 661 669
29 2 542 541 547
30 2 542 541 548
31 2 542 541 549
32 4 547 541 548
33 4 547 541 549
34 4 548 541 549
35 5 723 725 726
36 2 725 726 730
37 2 725 726 731
38 2 725 726 732
39 4 730 726 731
40 4 730 726 732
41 4 731 726 732
42 3 722 723 724
43 6 722 723 725
44 3 724 723 725
45 3 914 915 916
46 6 914 915 917
47 3 916 915 917
48 5 915 917 918
49 2 917 918 922
50 2 917 918 923
51 2 917 918 924
52 4 922 918 923
53 4 922 918 924
54 4 923 918 924
55 2 962 961 967
56 2 962 961 968
57 2 962 961 969
58 4 967 961 968
59 4 967 961 969
60 4 968 961 969
61 7 1000 1001 1002
62 7 1000 1001 1003
63 7 1000 1001 1004
64 7 1002 1001 1003
65 7 1002 1001 1004
66 7 1003 1001 1004
67 5 913 914 915
68 5 961 962 963
69 1 231 232 233
70 2 231 232 239
71 2 231 232 240
72 2 233 232 239
73 2 233 232 240
74 4 239 232 240
75 1 62 63 64
76 1 61 62 63
77 2 61 62 69
78 2 61 62 70
79 2 63 62 69
80 2 63 62 70
81 4 69 62 70
82 1 232 233 234
83 1 232 231 236
84 2 232 231 237
85 2 232 231 238
86 2 236 231 237
87 2 236 231 238
88 4 237 231 238
89 2 413 414 418
90 2 413 414 419
91 2 413 414 420
92 4 418 414 419
93 4 418 414 420
94 4 419 414 420
95 2 806 805 811
96 2 806 805 812
97 2 806 805 813
98 4 811 805 812
99 4 811 805 813
100 4 812 805 813
101 5 805 806 807
102 5 409 410 411
103 3 410 411 412
104 6 410 411 413
105 3 412 411 413
106 5 411 413 414
107 5 903 905 906
108 2 905 906 910
109 2 905 906 911
110 2 905 906 912
111 4 910 906 911
112 4 910 906 912
113 4 911 906 912
114 3 806 807 808
115 6 806 807 809
116 3 808 807 809
117 3 902 903 904
118 6 902 903 905
119 3 904 903 905
120 1 151 156 154
121 1 32 33 34
122 3 153 154 155
123 1 153 154 156
124 3 155 154 156
125 5 901 902 903
126 1 31 32 33
127 2 31 32 39
128 2 31 32 40
129 2 33 32 39
130 2 33 32 40
131 4 39 32 40
132 1 231 236 234
133 1 41 46 44
134 2 902 901 907
135 2 902 901 908
136 2 902 901 909
137 4 907 901 908
138 4 907 901 909
139 4 908 901 909
140 3 233 234 235
141 1 233 234 236
142 3 235 234 236
143 2 713 714 718
144 2 713 714 719
145 2 713 714 720
146 4 718 714 719
147 4 718 714 720
148 4 719 714 720
149 5 711 713 714
150 2 506 505 511
151 2 506 505 512
152 2 506 505 513
153 4 511 505 512
154 4 511 505 513
155 4 512 505 513
156 5 505 506 507
157 3 710 711 712
158 6 710 711 713
159 3 712 711 713
160 7 985 986 987
161 7 985 986 988
162 7 985 986 989
163 7 987 986 988
164 7 987 986 989
165 7 988 986 989
166 3 63 64 65
167 1 63 64 66
168 3 65 64 66
169 1 61 66 64
170 1 62 61 66
171 2 62 61 67
172 2 62 61 68
173 2 66 61 67
174 2 66 61 68
175 4 67 61 68
176 5 721 722 723
177 2 722 721 727
178 2 722 721 728
179 2 722 721 729
180 4 727 721 728
181 4 727 721 729
182 4 728 721 729
183 1 12 11 16
184 2 12 11 17
185 2 12 11 18
186 2 16 11 17
187 2 16 11 18
188 4 17 11 18
189 1 11 12 13
190 2 11 12 19
191 2 11 12 20
192 2 13 12 19
193 2 13 12 20
194 4 19 12 20
195 1 11 16 14
196 1 12 13 14
197 3 13 14 15
198 1 13 14 16
199 3 15 14 16
200 2 410 409 415
201 2 410 409 416
202 2 410 409 417
203 4 415 409 416
204 4 415 409 417
205 4 416 409 417
206 1 152 151 156
207 2 152 151 157
208 2 152 151 158
209 2 156 151 157
210 2 156 151 158
211 4 157 151 158
212 3 73 74 75
213 1 73 74 76
214 3 75 74 76
215 1 72 71 76
216 2 72 71 77
217 2 72 71 78
218 2 76 71 77
219 2 76 71 78
220 4 77 71 78
221 1 71 72 73
222 2 71 72 79
223 2 71 72 80
224 2 73 72 79
225 2 73 72 80
226 4 79 72 80
227 1 71 76 74
228 7 1005 1006 1007
229 7 1005 1006 1008
230 7 1005 1006 1009
231 7 1007 1006 1008
232 7 1007 1006 1009
233 7 1008 1006 1009
234 1 72 73 74
235 1 151 152 153
236 2 151 152 159
237 2 151 152 160
238 2 153 152 159
239 2 153 152 160
240 4 159 152 160
241 3 43 44 45
242 1 43 44 46
243 3 45 44 46
244 2 665 666 670
245 2 665 666 671
246 2 665 666 672
247 4 670 666 671
248 4 670 666 672
249 4 671 666 672
250 2 458 457 463
251 2 458 457 464
252 2 458 457 465
253 4 463 457 464
254 4 463 457 465
255 4 464 457 465
256 2 437 438 442
257 2 437 438 443
258 2 437 438 444
259 4 442 438 443
260 4 442 438 444
261 4 443 438 444
262 5 457 458 459
263 2 965 966 970
264 2 965 966 971
265 2 965 966 972
266 4 970 966 971
267 4 970 966 972
268 4 971 966 972
269 5 963 965 966
270 2 554 553 559
271 2 554 553 560
272 2 554 553 561
273 4 559 553 560
274 4 559 553 561
275 4 560 553 561
276 3 243 244 245
277 1 243 244 246
278 3 245 244 246
279 1 241 246 244
280 2 374 373 379
281 2 374 373 380
282 2 374 373 381
283 4 379 373 380
284 4 379 373 381
285 4 380 373 381
286 3 962 963 964
287 6 962 963 965
288 3 964 963 965
289 1 242 241 246
290 2 242 241 247
291 2 242 241 248
292 2 246 241 247
293 2 246 241 248
294 4 247 241 248
295 1 242 243 244
296 1 241 242 243
297 2 241 242 249
298 2 241 242 250
299 2 243 242 249
300 2 243 242 250
301 4 249 242 250
302 1 152 153 154
303 5 373 374 375
304 2 377 378 382
305 2 377 378 383
306 2 377 378 384
307 4 382 378 383
308 4 382 378 384
309 4 383 378 384
310 3 374 375 376
311 6 374 375 377
312 3 376 375 377
313 5 375 377 378
314 5 553 554 555
315 3 554 555 556
316 6 554 555 557
317 3 556 555 557
318 5 555 557 558
319 5 709 710 711
320 2 710 709 715
321 2 710 709 716
322 2 710 709 717
323 4 715 709 716
324 4 715 709 717
325 4 716 709 717
326 2 857 858 862
327 2 857 858 863
328 2 857 858 864
329 4 862 858 863
330 4 862 858 864
331 4 863 858 864
332 2 365 366 370
333 2 365 366 371
334 2 365 366 372
335 4 370 366 371
336 4 370 366 372
337 4 371 366 372
338 5 363 365 366
339 2 557 558 562
340 2 557 558 563
341 2 557 558 564
342 4 562 558 563
343 4 562 558 564
344 4 563 558 564
345 5 483 485 486
346 2 485 486 490
347 2 485 486 491
348 2 485 486 492
349 4 490 486 491
350 4 490 486 492
351 4 491 486 492
352 5 601 602 603
353 2 425 426 430
354 2 425 426 431
355 2 425 426 432
356 4 430 426 431
357 4 430 426 432
358 4 431 426 432
359 2 914 913 919
360 2 914 913 920
361 2 914 913 921
362 4 919 913 920
363 4 919 913 921
364 4 920 913 921
365 5 423 425 426
366 5 541 542 543
367 2 593 594 598
368 2 593 594 599
369 2 593 594 600
370 4 598 594 599
371 4 598 594 600
372 4 599 594 600
373 3 434 435 436
374 6 434 435 437
375 3 436 435 437
376 5 433 434 435
377 5 435 437 438
378 3 458 459 460
379 6 458 459 461
380 3 460 459 461
381 1 222 223 224
382 1 282 281 286
383 2 282 281 287
384 2 282 281 288
385 2 286 281 287
386 2 286 281 288
387 4 287 281 288
388 1 221 222 223
389 2 221 222 229
390 2 221 222 230
391 2 223 222 229
392 2 223 222 230
393 4 229 222 230
394 3 223 224 225
395 1 223 224 226
396 3 225 224 226
397 1 222 221 226
398 2 222 221 227
399 2 222 221 228
400 2 226 221 227
401 2 226 221 228
402 4 227 221 228
403 1 221 226 224
404 1 101 102 103
405 2 101 102 109
406 2 101 102 110
407 2 103 102 109
408 2 103 102 110
409 4 109 102 110
410 1 102 103 104
411 3 842 843 844
412 6 842 843 845
413 3 844 843 845
414 5 843 845 846
415 2 845 846 850
416 2 845 846 851
417 2 845 846 852
418 4 850 846 851
419 4 850 846 852
420 4 851 846 852
421 2 842 841 847
422 2 842 841 848
423 2 842 841 849
424 4 847 841 848
425 4 847 841 849
426 4 848 841 849
427 5 841 842 843
428 1 281 286 284
429 3 283 284 285
430 1 283 284 286
431 3 285 284 286
432 1 281 282 283
433 2 281 282 289
434 2 281 282 290
435 2 283 282 289
436 2 283 282 290
437 4 289 282 290
438 1 282 283 284
439 1 112 111 116
440 2 112 111 117
441 2 112 111 118
442 2 116 111 117
443 2 116 111 118
444 4 117 111 118
445 1 111 112 113
446 2 111 112 119
447 2 111 112 120
448 2 113 112 119
449 2 113 112 120
450 4 119 112 120
451 1 111 116 114
452 1 112 113 114
453 3 113 114 115
454 1 113 114 116
455 3 115 114 116
456 2 446 445 451
457 2 446 445 452
458 2 446 445 453
459 4 451 445 452
460 4 451 445 453
461 4 452 445 453
462 5 445 446 447
463 3 446 447 448
464 6 446 447 449
465 3 448 447 449
466 2 818 817 823
467 2 818 817 824
468 2 818 817 825
469 4 823 817 824
470 4 823 817 825
471 4 824 817 825
472 5 817 818 819
473 2 854 853 859
474 2 854 853 860
475 2 854 853 861
476 4 859 853 860
477 4 859 853 861
478 4 860 853 861
479 5 853 854 855
480 3 854 855 856
481 6 854 855 857
482 3 856 855 857
483 5 855 857 858
484 2 362 361 367
485 2 362 361 368
486 2 362 361 369
487 4 367 361 368
488 4 367 361 369
489 4 368 361 369
490 3 818 819 820
491 6 818 819 821
492 3 820 819 821
493 3 362 363 364
494 6 362 363 365
495 3 364 363 365
496 5 361 362 363
497 5 819 821 822
498 2 821 822 826
499 2 821 822 827
500 2 821 822 828
501 4 826 822 827
502 4 826 822 828
503 4 827 822 828
504 2 602 601 607
505 2 602 601 608
506 2 602 601 609
507 4 607 601 608
508 4 607 601 609
509 4 608 601 609
510 2 653 654 658
511 2 653 654 659
512 2 653 654 660
513 4 658 654 659
514 4 658 654 660
515 4 659 654 660
516 5 651 653 654
517 2 626 625 631
518 2 626 625 632
519 2 626 625 633
520 4 631 625 632
521 4 631 625 633
522 4 632 625 633
523 2 434 433 439
524 2 434 433 440
525 2 434 433 441
526 4 439 433 440
527 4 439 433 441
528 4 440 433 441
529 5 625 626 627
530 3 626 627 628
531 6 626 627 629
532 3 628 627 629
533 5 385 386 387
534 3 386 387 388
535 6 386 387 389
536 3 388 387 389
537 5 387 389 390
538 5 627 629 630
539 2 389 390 394
540 2 389 390 395
541 2 389 390 396
542 4 394 390 395
543 4 394 390 396
544 4 395 390 396
545 1 52 51 56
546 2 52 51 57
547 2 52 51 58
548 2 56 51 57
549 2 56 51 58
550 4 57 51 58
551 1 51 56 54
552 1 51 52 53
553 2 51 52 59
554 2 51 52 60
555 2 53 52 59
556 2 53 52 60
557 4 59 52 60
558 1 192 191 196
559 2 192 191 197
560 2 192 191 198
561 2 196 191 197
562 2 196 191 198
563 4 197 191 198
564 1 191 192 193
565 2 191 192 199
566 2 191 192 200
567 2 193 192 199
568 2 193 192 200
569 4 199 192 200
570 3 103 104 105
571 1 103 104 106
572 3 105 104 106
573 1 102 101 106
574 2 102 101 107
575 2 102 101 108
576 2 106 101 107
577 2 106 101 108
578 4 107 101 108
579 2 566 565 571
580 2 566 565 572
581 2 566 565 573
582 4 571 565 572
583 4 571 565 573
584 4 572 565 573
585 1 101 106 104
586 1 1 2 3
587 2 1 2 9
588 2 1 2 10
589 2 3 2 9
590 2 3 2 10
591 4 9 2 10
592 1 192 193 194
593 3 193 194 195
594 1 193 194 196
595 3 195 194 196
596 2 518 517 523
597 2 518 517 524
598 2 518 517 525
599 4 523 517 524
600 4 523 517 525
601 4 524 517 525
602 5 517 518 519
603 5 565 566 567
604 3 566 567 568
605 6 566 567 569
606 3 568 567 569
607 1 2 3 4
608 5 567 569 570
609 3 3 4 5
610 1 3 4 6
611 3 5 4 6
612 1 2 1 6
613 2 2 1 7
614 2 2 1 8
615 2 6 1 7
616 2 6 1 8
617 4 7 1 8
618 2 569 570 574
619 2 569 570 575
620 2 569 570 576
621 4 574 570 575
622 4 574 570 576
623 4 575 570 576
624 2 878 877 883
625 2 878 877 884
626 2 878 877 885
627 4 883 877 884
628 4 883 877 885
629 4 884 877 885
630 1 1 6 4
631 5 421 422 423
632 3 422 423 424
633 6 422 423 425
634 3 424 423 425
635 1 52 53 54
636 5 877 878 879
637 3 878 879 880
638 6 878 879 881
639 3 880 879 881
640 3 33 34 35
641 1 33 34 36
642 3 35 34 36
643 1 32 31 36
644 2 32 31 37
645 2 32 31 38
646 2 36 31 37
647 2 36 31 38
648 4 37 31 38
649 2 629 630 634
650 2 629 630 635
651 2 629 630 636
652 4 634 630 635
653 4 634 630 636
654 4 635 630 636
655 2 422 421 427
656 2 422 421 428
657 2 422 421 429
658 4 427 421 428
659 4 427 421 429
660 4 428 421 429
661 3 53 54 55
662 1 53 54 56
663 3 55 54 56
664 5 879 881 882
665 2 881 882 886
666 2 881 882 887
667 2 881 882 888
668 4 886 882 887
669 4 886 882 888
670 4 887 882 888
671 1 31 36 34
672 2 698 697 703
673 2 698 697 704
674 2 698 697 705
675 4 703 697 704
676 4 703 697 705
677 4 704 697 705
678 5 697 698 699
679 1 252 253 254
680 3 542 543 544
681 6 542 543 545
682 3 544 543 545
683 5 543 545 546
684 2 545 546 550
685 2 545 546 551
686 2 545 546 552
687 4 550 546 551
688 4 550 546 552
689 4 551 546 552
690 1 172 173 174
691 3 253 254 255
692 1 253 254 256
693 3 255 254 256
694 1 251 256 254
695 1 131 136 134
696 1 191 196 194
697 2 782 781 787
698 2 782 781 788
699 2 782 781 789
700 4 787 781 788
701 4 787 781 789
702 4 788 781 789
703 1 171 172 173
704 2 171 172 179
705 2 171 172 180
706 2 173 172 179
707 2 173 172 180
708 4 179 172 180
709 5 781 782 783
710 7 995 996 997
711 7 995 996 998
712 7 995 996 999
713 7 997 996 998
714 7 997 996 999
715 7 998 996 999
716 1 172 171 176
717 2 172 171 177
718 2 172 171 178
719 2 176 171 177
720 2 176 171 178
721 4 177 171 178
722 5 783 785 786
723 2 701 702 706
724 2 701 702 707
725 2 701 702 708
726 4 706 702 707
727 4 706 702 708
728 4 707 702 708
729 3 133 134 135
730 1 133 134 136
731 3 135 134 136
732 5 699 701 702
733 2 749 750 754
734 2 749 750 755
735 2 749 750 756
736 4 754 750 755
737 4 754 750 756
738 4 755 750 756
739 3 698 699 700
740 6 698 699 701
741 3 700 699 701
742 1 132 133 134
743 5 745 746 747
744 1 132 131 136
745 2 132 131 137
746 2 132 131 138
747 2 136 131 137
748 2 136 131 138
749 4 137 131 138
750 3 746 747 748
751 6 746 747 749
752 3 748 747 749
753 5 747 749 750
754 1 131 132 133
755 2 131 132 139
756 2 131 132 140
757 2 133 132 139
758 2 133 132 140
759 4 139 132 140
760 2 386 385 391
761 2 386 385 392
762 2 386 385 393
763 4 391 385 392
764 4 391 385 393
765 4 392 385 393
766 3 518 519 520
767 6 518 519 521
768 3 520 519 521
769 1 92 93 94
770 1 91 92 93
771 2 91 92 99
772 2 91 92 100
773 2 93 92 99
774 2 93 92 100
775 4 99 92 100
776 5 399 401 402
777 2 401 402 406
778 2 401 402 407
779 2 401 402 408
780 4 406 402 407
781 4 406 402 408
782 4 407 402 408
783 3 506 507 508
784 6 506 507 509
785 3 508 507 509
786 3 398 399 400
787 6 398 399 401
788 3 400 399 401
789 5 397 398 399
790 1 141 142 143
791 2 141 142 149
792 2 141 142 150
793 2 143 142 149
794 2 143 142 150
795 4 149 142 150
796 1 142 143 144
797 5 507 509 510
798 1 142 141 146
799 2 142 141 147
800 2 142 141 148
801 2 146 141 147
802 2 146 141 148
803 4 147 141 148
804 2 326 325 331
805 2 326 325 332
806 2 326 325 333
807 4 331 325 332
808 4 331 325 333
809 4 332 325 333
810 5 325 326 327
811 3 326 327 328
812 6 326 327 329
813 3 328 327 329
814 5 327 329 330
815 2 329 330 334
816 2 329 330 335
817 2 329 330 336
818 4 334 330 335
819 4 334 330 336
820 4 335 330 336
821 2 953 954 958
822 2 953 954 959
823 2 953 954 960
824 4 958 954 959
825 4 958 954 960
826 4 959 954 960
827 2 398 397 403
828 2 398 397 404
829 2 398 397 405
830 4 403 397 404
831 4 403 397 405
832 4 404 397 405
833 2 353 354 358
834 2 353 354 359
835 2 353 354 360
836 4 358 354 359
837 4 358 354 360
838 4 359 354 360
839 1 122 123 124
840 1 121 122 123
841 2 121 122 129
842 2 121 122 130
843 2 123 122 129
844 2 123 122 130
845 4 129 122 130
846 1 292 291 296
847 2 292 291 297
848 2 292 291 298
849 2 296 291 297
850 2 296 291 298
851 4 297 291 298
852 1 291 292 293
853 2 291 292 299
854 2 291 292 300
855 2 293 292 299
856 2 293 292 300
857 4 299 292 300
858 3 293 294 295
859 1 293 294 296
860 3 295 294 296
861 1 291 296 294
862 2 833 834 838
863 2 833 834 839
864 2 833 834 840
865 4 838 834 839
866 4 838 834 840
867 4 839 834 840
868 1 42 41 46
869 2 42 41 47
870 2 42 41 48
871 2 46 41 47
872 2 46 41 48
873 4 47 41 48
874 2 866 865 871
875 2 866 865 872
876 2 866 865 873
877 4 871 865 872
878 4 871 865 873
879 4 872 865 873
880 1 41 42 43
881 2 41 42 49
882 2 41 42 50
883 2 43 42 49
884 2 43 42 50
885 4 49 42 50
886 2 509 510 514
887 2 509 510 515
888 2 509 510 516
889 4 514 510 515
890 4 514 510 516
891 4 515 510 516
892 5 685 686 687
893 1 141 146 144
894 1 181 186 184
895 3 143 144 145
896 1 143 144 146
897 3 145 144 146
898 3 183 184 185
899 1 183 184 186
900 3 185 184 186
901 5 589 590 591
902 2 773 774 778
903 2 773 774 779
904 2 773 774 780
905 4 778 774 779
906 4 778 774 780
907 4 779 774 780
908 5 865 866 867
909 2 590 589 595
910 2 590 589 596
911 2 590 589 597
912 4 595 589 596
913 4 595 589 597
914 4 596 589 597
915 3 686 687 688
916 6 686 687 689
917 3 688 687 689
918 2 686 685 691
919 2 686 685 692
920 2 686 685 693
921 4 691 685 692
922 4 691 685 693
923 4 692 685 693
924 1 182 181 186
925 2 182 181 187
926 2 182 181 188
927 2 186 181 187
928 2 186 181 188
929 4 187 181 188
930 1 182 183 184
931 3 93 94 95
932 1 93 94 96
933 3 95 94 96
934 5 351 353 354
935 2 614 613 619
936 2 614 613 620
937 2 614 613 621
938 4 619 613 620
939 4 619 613 621
940 4 620 613 621
941 1 91 96 94
942 5 613 614 615
943 3 614 615 616
944 6 614 615 617
945 3 616 615 617
946 5 615 617 618
947 1 92 91 96
948 2 92 91 97
949 2 92 91 98
950 2 96 91 97
951 2 96 91 98
952 4 97 91 98
953 2 674 673 679
954 2 674 673 680
955 2 674 673 681
956 4 679 673 680
957 4 679 673 681
958 4 680 673 681
959 5 673 674 675
960 3 674 675 676
961 6 674 675 677
962 3 676 675 677
963 2 617 618 622
964 2 617 618 623
965 2 617 618 624
966 4 622 618 623
967 4 622 618 624
968 4 623 618 624
969 2 350 349 355
970 2 350 349 356
971 2 350 349 357
972 4 355 349 356
973 4 355 349 357
974 4 356 349 357
975 5 349 350 351
976 3 350 351 352
977 6 350 351 353
978 3 352 351 353
979 3 123 124 125
980 1 123 124 126
981 3 125 124 126
982 1 121 126 124
983 1 122 121 126
984 2 122 121 127
985 2 122 121 128
986 2 126 121 127
987 2 126 121 128
988 4 127 121 128
989 5 771 773 774
990 1 42 43 44
991 5 675 677 678
992 5 807 809 810
993 2 809 810 814
994 2 809 810 815
995 2 809 810 816
996 4 814 810 815
997 4 814 810 816
998 4 815 810 816
999 2 770 769 775
1000 2 770 769 776
1001 2 770 769 777
1002 4 775 769 776
1003 4 775 769 777
1004 4 776 769 777
1005 5 769 770 771
1006 3 770 771 772
1007 6 770 771 773
1008 3 772 771 773
1009 2 830 829 835
1010 2 830 829 836
1011 2 830 829 837
1012 4 835 829 836
1013 4 835 829 837
1014 4 836 829 837
1015 5 829 830 831
1016 3 830 831 832
1017 6 830 831 833
1018 3 832 831 833
1019 2 338 337 343
1020 2 338 337 344
1021 2 338 337 345
1022 4 343 337 344
1023 4 343 337 345
1024 4 344 337 345
1025 5 831 833 834
1026 2 677 678 682
1027 2 677 678 683
1028 2 677 678 684
1029 4 682 678 683
1030 4 682 678 684
1031 4 683 678 684
1032 5 459 461 462
1033 5 937 938 939
1034 3 938 939 940
1035 6 938 939 941
1036 3 940 939 941
1037 5 939 941 942
1038 2 938 937 943
1039 2 938 937 944
1040 2 938 937 945
1041 4 943 937 944
1042 4 943 937 945
1043 4 944 937 945
1044 2 941 942 946
1045 2 941 942 947
1046 2 941 942 948
1047 4 946 942 947
1048 4 946 942 948
1049 4 947 942 948
1050 5 951 953 954
1051 3 950 951 952
1052 6 950 951 953
1053 3 952 951 953
1054 3 494 495 496
1055 6 494 495 497
1056 3 496 495 497
1057 5 495 497 498
1058 2 497 498 502
1059 2 497 498 503
1060 2 497 498 504
1061 4 502 498 503
1062 4 502 498 504
1063 4 503 498 504
1064 5 949 950 951
1065 3 482 483 484
1066 6 482 483 485
1067 3 484 483 485
1068 3 866 867 868
1069 6 866 867 869
1070 3 868 867 869
1071 1 181 182 183
1072 2 181 182 189
1073 2 181 182 190
1074 2 183 182 189
1075 2 183 182 190
1076 4 189 182 190
1077 2 605 606 610
1078 2 605 606 611
1079 2 605 606 612
1080 4 610 606 611
1081 4 610 606 612
1082 4 611 606 612
1083 5 867 869 870
1084 2 869 870 874
1085 2 869 870 875
1086 2 869 870 876
1087 4 874 870 875
1088 4 874 870 876
1089 4 875 870 876
1090 2 638 637 643
1091 2 638 637 644
1092 2 638 637 645
1093 4 643 637 644
1094 4 643 637 645
1095 4 644 637 645
1096 5 603 605 606
1097 3 263 264 265
1098 1 263 264 266
1099 3 265 264 266
1100 1 262 263 264
1101 2 494 493 499
1102 2 494 493 500
1103 2 494 493 501
1104 4 499 493 500
1105 4 499 493 501
1106 4 500 493 501
1107 5 493 494 495
1108 3 602 603 604
1109 6 602 603 605
1110 3 604 603 605
1111 1 201 202 203
1112 2 201 202 209
1113 2 201 202 210
1114 2 203 202 209
1115 2 203 202 210
1116 4 209 202 210
1117 1 202 201 206
1118 2 202 201 207
1119 2 202 201 208
1120 2 206 201 207
1121 2 206 201 208
1122 4 207 201 208
1123 1 202 203 204
1124 3 203 204 205
1125 1 203 204 206
1126 3 205 204 206
1127 1 201 206 204
1128 5 339 341 342
1129 2 341 342 346
1130 2 341 342 347
1131 2 341 342 348
1132 4 346 342 347
1133 4 346 342 348
1134 4 347 342 348
1135 5 337 338 339
1136 3 338 339 340
1137 6 338 339 341
1138 3 340 339 341
1139 2 314 313 319
1140 2 314 313 320
1141 2 314 313 321
1142 4 319 313 320
1143 4 319 313 321
1144 4 320 313 321
1145 5 313 314 315
1146 3 314 315 316
1147 6 314 315 317
1148 3 316 315 317
1149 5 315 317 318
1150 2 317 318 322
1151 2 317 318 323
1152 2 317 318 324
1153 4 322 318 323
1154 4 322 318 324
1155 4 323 318 324
1156 1 292 293 294
1157 3 590 591 592
1158 6 590 591 593
1159 3 592 591 593
1160 5 591 593 594
1161 5 687 689 690
1162 2 758 757 763
1163 2 758 757 764
1164 2 758 757 765
1165 4 763 757 764
1166 4 763 757 765
1167 4 764 757 765
1168 5 891 893 894
1169 5 447 449 450
1170 2 449 450 454
1171 2 449 450 455
1172 2 449 450 456
1173 4 454 450 455
1174 4 454 450 456
1175 4 455 450 456
1176 3 890 891 892
1177 6 890 891 893
1178 3 892 891 893
1179 5 889 890 891
1180 1 161 162 163
1181 2 161 162 169
1182 2 161 162 170
1183 2 163 162 169
1184 2 163 162 170
1185 4 169 162 170
1186 1 162 163 164
1187 2 950 949 955
1188 2 950 949 956
1189 2 950 949 957
1190 4 955 949 956
1191 4 955 949 957
1192 4 956 949 957
1193 3 578 579 580
1194 6 578 579 581
1195 3 580 579 581
1196 2 893 894 898
1197 2 893 894 899
1198 2 893 894 900
1199 4 898 894 899
1200 4 898 894 900
1201 4 899 894 900
1202 5 579 581 582
1203 5 481 482 483
1204 2 482 481 487
1205 2 482 481 488
1206 2 482 481 489
1207 4 487 481 488
1208 4 487 481 489
1209 4 488 481 489
1210 5 577 578 579
1211 2 461 462 466
1212 2 461 462 467
1213 2 461 462 468
1214 4 466 462 467
1215 4 466 462 468
1216 4 467 462 468
1217 2 890 889 895
1218 2 890 889 896
1219 2 890 889 897
1220 4 895 889 896
1221 4 895 889 897
1222 4 896 889 897
1223 5 639 641 642
1224 2 641 642 646
1225 2 641 642 647
1226 2 641 642 648
1227 4 646 642 647
1228 4 646 642 648
1229 4 647 642 648
1230 3 638 639 640
1231 6 638 639 641
1232 3 640 639 641
1233 5 637 638 639
1234 1 261 266 264
1235 1 262 261 266
1236 2 262 261 267
1237 2 262 261 268
1238 2 266 261 267
1239 2 266 261 268
1240 4 267 261 268
1241 1 261 262 263
1242 2 261 262 269
1243 2 261 262 270
1244 2 263 262 269
1245 2 263 262 270
1246 4 269 262 270
1247 5 471 473 474
1248 2 929 930 934
1249 2 929 930 935
1250 2 929 930 936
1251 4 934 930 935
1252 4 934 930 936
1253 4 935 930 936
1254 5 927 929 930
1255 3 926 927 928
1256 6 926 927 929
1257 3 928 927 929
1258 2 926 925 931
1259 2 926 925 932
1260 2 926 925 933
1261 4 931 925 932
1262 4 931 925 933
1263 4 932 925 933
1264 5 925 926 927
1265 2 578 577 583
1266 2 578 577 584
1267 2 578 577 585
1268 4 583 577 584
1269 4 583 577 585
1270 4 584 577 585
1271 2 470 469 475
1272 2 470 469 476
1273 2 470 469 477
1274 4 475 469 476
1275 4 475 469 477
1276 4 476 469 477
1277 3 650 651 652
1278 6 650 651 653
1279 3 652 651 653
1280 3 470 471 472
1281 6 470 471 473
1282 3 472 471 473
1283 5 469 470 471
1284 5 649 650 651
1285 2 302 301 307
1286 2 302 301 308
1287 2 302 301 309
1288 4 307 301 308
1289 4 307 301 309
1290 4 308 301 309
1291 1 251 252 253
1292 2 251 252 259
1293 2 251 252 260
1294 2 253 252 259
1295 2 253 252 260
1296 4 259 252 260
1297 3 173 174 175
1298 1 173 174 176
1299 3 175 174 176
1300 1 252 251 256
1301 2 252 251 257
1302 2 252 251 258
1303 2 256 251 257
1304 2 256 251 258
1305 4 257 251 258
1306 1 21 22 23
1307 2 21 22 29
1308 2 21 22 30
1309 2 23 22 29
1310 2 23 22 30
1311 4 29 22 30
1312 1 22 21 26
1313 2 22 21 27
1314 2 22 21 28
1315 2 26 21 27
1316 2 26 21 28
1317 4 27 21 28
1318 1 22 23 24
1319 1 171 176 174
1320 3 23 24 25
1321 1 23 24 26
1322 3 25 24 26
1323 1 21 26 24
1324 2 581 582 586
1325 2 581 582 587
1326 2 581 582 588
1327 4 586 582 587
1328 4 586 582 588
1329 4 587 582 588
1330 3 782 783 784
1331 6 782 783 785
1332 3 784 783 785
1333 2 785 786 790
1334 2 785 786 791
1335 2 785 786 792
1336 4 790 786 791
1337 4 790 786 792
1338 4 791 786 792
1339 1 211 216 214
1340 1 162 161 166
1341 2 162 161 167
1342 2 162 161 168
1343 2 166 161 167
1344 2 166 161 168
1345 4 167 161 168
1346 3 213 214 215
1347 1 213 214 216
1348 3 215 214 216
1349 1 212 211 216
1350 2 212 211 217
1351 2 212 211 218
1352 2 216 211 217
1353 2 216 211 218
1354 4 217 211 218
1355 2 746 745 751
1356 2 746 745 752
1357 2 746 745 753
1358 4 751 745 752
1359 4 751 745 753
1360 4 752 745 753
1361 1 212 213 214
1362 1 211 212 213
1363 2 211 212 219
1364 2 211 212 220
1365 2 213 212 219
1366 2 213 212 220
1367 4 219 212 220
1368 7 1010 1011 1012
1369 7 1010 1011 1013
1370 7 1010 1011 1014
1371 7 1012 1011 1013
1372 7 1012 1011 1014
1373 7 1013 1011 1014
1374 2 473 474 478
1375 2 473 474 479
1376 2 473 474 480
1377 4 478 474 479
1378 4 478 474 480
1379 4 479 474 480
1380 5 301 302 303
1381 1 272 271 276
1382 2 272 271 277
1383 2 272 271 278
1384 2 276 271 277
1385 2 276 271 278
1386 4 277 271 278
1387 1 271 272 273
1388 2 271 272 279
1389 2 271 272 280
1390 2 273 272 279
1391 2 273 272 280
1392 4 279 272 280
1393 1 272 273 274
1394 3 273 274 275
1395 1 273 274 276
1396 3 275 274 276
1397 1 271 276 274
1398 3 302 303 304
1399 6 302 303 305
1400 3 304 303 305
1401 5 303 305 306
1402 2 305 306 310
1403 2 305 306 311
1404 2 305 306 312
1405 4 310 306 311
1406 4 310 306 312
1407 4 311 306 312
1408 7 990 991 992
1409 7 990 991 993
1410 7 990 991 994
1411 7 992 991 993
1412 7 992 991 994
1413 7 993 991 994
1414 1 161 166 164
1415 3 163 164 165
1416 1 163 164 166
1417 3 165 164 166
1418 2 689 690 694
1419 2 689 690 695
1420 2 689 690 696
1421 4 694 690 695
1422 4 694 690 696
1423 4 695 690 696
1424 2 533 534 538
1425 2 533 534 539
1426 2 533 534 540
1427 4 538 534 539
1428 4 538 534 540
1429 4 539 534 540
1430 2 794 793 799
1431 2 794 793 800
1432 2 794 793 801
1433 4 799 793 800
1434 4 799 793 801
1435 4 800 793 801
1436 5 793 794 795
1437 5 531 533 534
1438 2 530 529 535
1439 2 530 529 536
1440 2 530 529 537
1441 4 535 529 536
1442 4 535 529 537
1443 4 536 529 537
1444 5 529 530 531
1445 3 530 531 532
1446 6 530 531 533
1447 3 532 531 533
1448 5 519 521 522
1449 2 521 522 526
1450 2 521 522 527
1451 2 521 522 528
1452 4 526 522 527
1453 4 526 522 528
1454 4 527 522 528
1455 3 758 759 760
1456 6 758 759 761
1457 3 760 759 761
1458 5 757 758 759
1459 2 761 762 766
1460 2 761 762 767
1461 2 761 762 768
1462 4 766 762 767
1463 4 766 762 768
1464 4 767 762 768
1465 5 759 761 762
1466 2 737 738 742
1467 2 737 738 743
1468 2 737 738 744
1469 4 742 738 743
1470 4 742 738 744
1471 4 743 738 744
1472 3 794 795 796
1473 6 794 795 797
1474 3 796 795 797
1475 5 795 797 798
1476 2 650 649 655
1477 2 650 649 656
1478 2 650 649 657
1479 4 655 649 656
1480 4 655 649 657
1481 4 656 649 657
1482 2 797 798 802
1483 2 797 798 803
1484 2 797 798 804
1485 4 802 798 803
1486 4 802 798 804
1487 4 803 798 804
1488 2 734 733 739
1489 2 734 733 740
1490 2 734 733 741
1491 4 739 733 740
1492 4 739 733 741
1493 4 740 733 741
1494 5 733 734 735
1495 5 735 737 738
1496 3 734 735 736
1497 6 734 735 737
1498 3 736 735 737
1499 7 980 981 982
1500 7 980 981 983
1501 7 980 981 984
1502 7 982 981 983
1503 7 982 981 984
1504 7 983 981 984

Dihedrals

1 1 81 82 83 84
2 2 81 82 83 84
3 4 83 82 81 86
4 5 83 82 81 86
5 6 83 82 81 87
6 7 83 82 81 87
7 6 83 82 81 88
8 7 83 82 81 88
9 3 82 83 84 85
10 3 82 83 84 86
11 8 84 83 82 89
12 8 84 83 82 90
13 3 81 86 84 83
14 3 81 86 84 85
15 8 84 86 81 87
16 8 84 86 81 88
17 1 82 81 86 84
18 2 82 81 86 84
19 6 86 81 82 89
20 7 86 81 82 89
21 6 86 81 82 90
22 7 86 81 82 90
23 9 87 81 82 89
24 9 87 81 82 90
25 9 88 81 82 89
26 9 88 81 82 90
27 8 663 665 666 670
28 8 663 665 666 671
29 8 663 665 666 672
30 12 662 663 665 666
31 10 664 663 665 666
32 11 664 663 665 666
33 10 661 662 663 664
34 11 661 662 663 664
35 12 661 662 663 665
36 8 663 662 661 667
37 8 663 662 661 668
38 8 663 662 661 669
39 8 723 725 726 730
40 8 723 725 726 731
41 8 723 725 726 732
42 12 722 723 725 726
43 10 724 723 725 726
44 11 724 723 725 726
45 12 914 915 917 918
46 10 916 915 917 918
47 11 916 915 917 918
48 8 915 917 918 922
49 8 915 917 918 923
50 8 915 917 918 924
51 10 913 914 915 916
52 11 913 914 915 916
53 12 913 914 915 917
54 8 915 914 913 919
55 8 915 914 913 920
56 8 915 914 913 921
57 10 961 962 963 964
58 11 961 962 963 964
59 12 961 962 963 965
60 8 963 962 961 967
61 8 963 962 961 968
62 8 963 962 961 969
63 1 231 232 233 234
64 2 231 232 233 234
65 4 233 232 231 236
66 5 233 232 231 236
67 6 233 232 231 237
68 7 233 232 231 237
69 6 233 232 231 238
70 7 233 232 231 238
71 3 62 63 64 65
72 3 62 63 64 66
73 8 64 63 62 69
74 8 64 63 62 70
75 1 61 62 63 64
76 2 61 62 63 64
77 4 63 62 61 66
78 5 63 62 61 66
79 6 63 62 61 67
80 7 63 62 61 67
81 6 63 62 61 68
82 7 63 62 61 68
83 3 232 233 234 235
84 3 232 233 234 236
85 8 234 233 232 239
86 8 234 233 232 240
87 1 232 231 236 234
88 2 232 231 236 234
89 6 236 231 232 239
90 7 236 231 232 239
91 6 236 231 232 240
92 7 236 231 232 240
93 9 237 231 232 239
94 9 237 231 232 240
95 9 238 231 232 239
96 9 238 231 232 240
97 10 805 806 807 808
98 11 805 806 807 808
99 12 805 806 807 809
100 8 807 806 805 811
101 8 807 806 805 812
102 8 807 806 805 813
103 10 409 410 411 412
104 11 409 410 411 412
105 12 409 410 411 413
106 8 411 410 409 415
107 8 411 410 409 416
108 8 411 410 409 417
109 12 410 411 413 414
110 10 412 411 413 414
111 11 412 411 413 414
112 8 411 413 414 418
113 8 411 413 414 419
114 8 411 413 414 420
115 8 903 905 906 910
116 8 903 905 906 911
117 8 903 905 906 912
118 12 806 807 809 810
119 10 808 807 809 810
120 11 808 807 809 810
121 12 902 903 905 906
122 10 904 903 905 906
123 11 904 903 905 906
124 3 151 156 154 153
125 3 151 156 154 155
126 8 154 156 151 157
127 8 154 156 151 158
128 3 32 33 34 35
129 3 32 33 34 36
130 8 34 33 32 39
131 8 34 33 32 40
132 10 901 902 903 904
133 11 901 902 903 904
134 12 901 902 903 905
135 8 903 902 901 907
136 8 903 902 901 908
137 8 903 902 901 909
138 1 31 32 33 34
139 2 31 32 33 34
140 4 33 32 31 36
141 5 33 32 31 36
142 6 33 32 31 37
143 7 33 32 31 37
144 6 33 32 31 38
145 7 33 32 31 38
146 3 231 236 234 233
147 3 231 236 234 235
148 8 234 236 231 237
149 8 234 236 231 238
150 3 41 46 44 43
151 3 41 46 44 45
152 8 44 46 41 47
153 8 44 46 41 48
154 8 711 713 714 718
155 8 711 713 714 719
156 8 711 713 714 720
157 10 505 506 507 508
158 11 505 506 507 508
159 12 505 506 507 509
160 8 507 506 505 511
161 8 507 506 505 512
162 8 507 506 505 513
163 12 710 711 713 714
164 10 712 711 713 714
165 11 712 711 713 714
166 3 61 66 64 63
167 3 61 66 64 65
168 8 64 66 61 67
169 8 64 66 61 68
170 1 62 61 66 64
171 2 62 61 66 64
172 6 66 61 62 69
173 7 66 61 62 69
174 6 66 61 62 70
175 7 66 61 62 70
176 9 67 61 62 69
177 9 67 61 62 70
178 9 68 61 62 69
179 9 68 61 62 70
180 10 721 722 723 724
181 11 721 722 723 724
182 12 721 722 723 725
183 8 723 722 721 727
184 8 723 722 721 728
185 8 723 722 721 729
186 1 12 11 16 14
187 2 12 11 16 14
188 6 16 11 12 19
189 7 16 11 12 19
190 6 16 11 12 20
191 7 16 11 12 20
192 9 17 11 12 19
193 9 17 11 12 20
194 9 18 11 12 19
195 9 18 11 12 20
196 1 11 12 13 14
197 2 11 12 13 14
198 4 13 12 11 16
199 5 13 12 11 16
200 6 13 12 11 17
201 7 13 12 11 17
202 6 13 12 11 18
203 7 13 12 11 18
204 3 11 16 14 13
205 3 11 16 14 15
206 8 14 16 11 17
207 8 14 16 11 18
208 3 12 13 14 15
209 3 12 13 14 16
210 8 14 13 12 19
211 8 14 13 12 20
212 1 152 151 156 154
213 2 152 151 156 154
214 6 156 151 152 159
215 7 156 151 152 159
216 6 156 151 152 160
217 7 156 151 152 160
218 9 157 151 152 159
219 9 157 151 152 160
220 9 158 151 152 159
221 9 158 151 152 160
222 1 72 71 76 74
223 2 72 71 76 74
224 6 76 71 72 79
225 7 76 71 72 79
226 6 76 71 72 80
227 7 76 71 72 80
228 9 77 71 72 79
229 9 77 71 72 80
230 9 78 71 72 79
231 9 78 71 72 80
232 1 71 72 73 74
233 2 71 72 73 74
234 4 73 72 71 76
235 5 73 72 71 76
236 6 73 72 71 77
237 7 73 72 71 77
238 6 73 72 71 78
239 7 73 72 71 78
240 3 71 76 74 73
241 3 71 76 74 75
242 8 74 76 71 77
243 8 74 76 71 78
244 3 72 73 74 75
245 3 72 73 74 76
246 8 74 73 72 79
247 8 74 73 72 80
248 1 151 152 153 154
249 2 151 152 153 154
250 4 153 152 151 156
251 5 153 152 151 156
252 6 153 152 151 157
253 7 153 152 151 157
254 6 153 152 151 158
255 7 153 152 151 158
256 10 457 458 459 460
257 11 457 458 459 460
258 12 457 458 459 461
259 8 459 458 457 463
260 8 459 458 457 464
261 8 459 458 457 465
262 8 963 965 966 970
263 8 963 965 966 971
264 8 963 965 966 972
265 3 241 246 244 243
266 3 241 246 244 245
267 8 244 246 241 247
268 8 244 246 241 248
269 12 962 963 965 966
270 10 964 963 965 966
271 11 964 963 965 966
272 1 242 241 246 244
273 2 242 241 246 244
274 6 246 241 242 249
275 7 246 241 242 249
276 6 246 241 242 250
277 7 246 241 242 250
278 9 247 241 242 249
279 9 247 241 242 250
280 9 248 241 242 249
281 9 248 241 242 250
282 3 242 243 244 245
283 3 242 243 244 246
284 8 244 243 242 249
285 8 244 243 242 250
286 1 241 242 243 244
287 2 241 242 243 244
288 4 243 242 241 246
289 5 243 242 241 246
290 6 243 242 241 247
291 7 243 242 241 247
292 6 243 242 241 248
293 7 243 242 241 248
294 3 152 153 154 155
295 3 152 153 154 156
296 8 154 153 152 159
297 8 154 153 152 160
298 10 373 374 375 376
299 11 373 374 375 376
300 12 373 374 375 377
301 8 375 374 373 379
302 8 375 374 373 380
303 8 375 374 373 381
304 12 374 375 377 378
305 10 376 375 377 378
306 11 376 375 377 378
307 8 375 377 378 382
308 8 375 377 378 383
309 8 375 377 378 384
310 10 553 554 555 556
311 11 553 554 555 556
312 12 553 554 555 557
313 8 555 554 553 559
314 8 555 554 553 560
315 8 555 554 553 561
316 12 554 555 557 558
317 10 556 555 557 558
318 11 556 555 557 558
319 8 555 557 558 562
320 8 555 557 558 563
321 8 555 557 558 564
322 10 709 710 711 712
323 11 709 710 711 712
324 12 709 710 711 713
325 8 711 710 709 715
326 8 711 710 709 716
327 8 711 710 709 717
328 8 363 365 366 370
329 8 363 365 366 371
330 8 363 365 366 372
331 8 483 485 486 490
332 8 483 485 486 491
333 8 483 485 486 492
334 10 601 602 603 604
335 11 601 602 603 604
336 12 601 602 603 605
337 8 603 602 601 607
338 8 603 602 601 608
339 8 603 602 601 609
340 8 423 425 426 430
341 8 423 425 426 431
342 8 423 425 426 432
343 10 541 542 543 544
344 11 541 542 543 544
345 12 541 542 543 545
346 8 543 542 541 547
347 8 543 542 541 548
348 8 543 542 541 549
349 12 434 435 437 438
350 10 436 435 437 438
351 11 436 435 437 438
352 10 433 434 435 436
353 11 433 434 435 436
354 12 433 434 435 437
355 8 435 434 433 439
356 8 435 434 433 440
357 8 435 434 433 441
358 8 435 437 438 442
359 8 435 437 438 443
360 8 435 437 438 444
361 12 458 459 461 462
362 10 460 459 461 462
363 11 460 459 461 462
364 3 222 223 224 225
365 3 222 223 224 226
366 8 224 223 222 229
367 8 224 223 222 230
368 1 282 281 286 284
369 2 282 281 286 284
370 6 286 281 282 289
371 7 286 281 282 289
372 6 286 281 282 290
373 7 286 281 282 290
374 9 287 281 282 289
375 9 287 281 282 290
376 9 288 281 282 289
377 9 288 281 282 290
378 1 221 222 223 224
379 2 221 222 223 224
380 4 223 222 221 226
381 5 223 222 221 226
382 6 223 222 221 227
383 7 223 222 221 227
384 6 223 222 221 228
385 7 223 222 221 228
386 1 222 221 226 224
387 2 222 221 226 224
388 6 226 221 222 229
389 7 226 221 222 229
390 6 226 221 222 230
391 7 226 221 222 230
392 9 227 221 222 229
393 9 227 221 222 230
394 9 228 221 222 229
395 9 228 221 222 230
396 3 221 226 224 223
397 3 221 226 224 225
398 8 224 226 221 227
399 8 224 226 221 228
400 1 101 102 103 104
401 2 101 102 103 104
402 4 103 102 101 106
403 5 103 102 101 106
404 6 103 102 101 107
405 7 103 102 101 107
406 6 103 102 101 108
407 7 103 102 101 108
408 3 102 103 104 105
409 3 102 103 104 106
410 8 104 103 102 109
411 8 104 103 102 110
412 12 842 843 845 846
413 10 844 843 845 846
414 11 844 843 845 846
415 8 843 845 846 850
416 8 843 845 846 851
417 8 843 845 846 852
418 10 841 842 843 844
419 11 841 842 843 844
420 12 841 842 843 845
421 8 843 842 841 847
422 8 843 842 841 848
423 8 843 842 841 849
424 3 281 286 284 283
425 3 281 286 284 285
426 8 284 286 281 287
427 8 284 286 281 288
428 1 281 282 283 284
429 2 281 282 283 284
430 4 283 282 281 286
431 5 283 282 281 286
432 6 283 282 281 287
433 7 283 282 281 287
434 6 283 282 281 288
435 7 283 282 281 288
436 3 282 283 284 285
437 3 282 283 284 286
438 8 284 283 282 289
439 8 284 283 282 290
440 1 112 111 116 114
441 2 112 111 116 114
442 6 116 111 112 119
443 7 116 111 112 119
444 6 116 111 112 120
445 7 116 111 112 120
446 9 117 111 112 119
447 9 117 111 112 120
448 9 118 111 112 119
449 9 118 111 112 120
450 1 111 112 113 114
451 2 111 112 113 114
452 4 113 112 111 116
453 5 113 112 111 116
454 6 113 112 111 117
455 7 113 112 111 117
456 6 113 112 111 118
457 7 113 112 111 118
458 3 111 116 114 113
459 3 111 116 114 115
460 8 114 116 111 117
461 8 114 116 111 118
462 3 112 113 114 115
463 3 112 113 114 116
464 8 114 113 112 119
465 8 114 113 112 120
466 10 445 446 447 448
467 11 445 446 447 448
468 12 445 446 447 449
469 8 447 446 445 451
470 8 447 446 445 452
471 8 447 446 445 453
472 12 446 447 449 450
473 10 448 447 449 450
474 11 448 447 449 450
475 10 817 818 819 820
476 11 817 818 819 820
477 12 817 818 819 821
478 8 819 818 817 823
479 8 819 818 817 824
480 8 819 818 817 825
481 10 853 854 855 856
482 11 853 854 855 856
483 12 853 854 855 857
484 8 855 854 853 859
485 8 855 854 853 860
486 8 855 854 853 861
487 12 854 855 857 858
488 10 856 855 857 858
489 11 856 855 857 858
490 8 855 857 858 862
491 8 855 857 858 863
492 8 855 857 858 864
493 12 818 819 821 822
494 10 820 819 821 822
495 11 820 819 821 822
496 12 362 363 365 366
497 10 364 363 365 366
498 11 364 363 365 366
499 10 361 362 363 364
500 11 361 362 363 364
501 12 361 362 363 365
502 8 363 362 361 367
503 8 363 362 361 368
504 8 363 362 361 369
505 8 819 821 822 826
506 8 819 821 822 827
507 8 819 821 822 828
508 8 651 653 654 658
509 8 651 653 654 659
510 8 651 653 654 660
511 10 625 626 627 628
512 11 625 626 627 628
513 12 625 626 627 629
514 8 627 626 625 631
515 8 627 626 625 632
516 8 627 626 625 633
517 12 626 627 629 630
518 10 628 627 629 630
519 11 628 627 629 630
520 10 385 386 387 388
521 11 385 386 387 388
522 12 385 386 387 389
523 8 387 386 385 391
524 8 387 386 385 392
525 8 387 386 385 393
526 12 386 387 389 390
527 10 388 387 389 390
528 11 388 387 389 390
529 8 387 389 390 394
530 8 387 389 390 395
531 8 387 389 390 396
532 8 627 629 630 634
533 8 627 629 630 635
534 8 627 629 630 636
535 1 52 51 56 54
536 2 52 51 56 54
537 6 56 51 52 59
538 7 56 51 52 59
539 6 56 51 52 60
540 7 56 51 52 60
541 9 57 51 52 59
542 9 57 51 52 60
543 9 58 51 52 59
544 9 58 51 52 60
545 3 51 56 54 53
546 3 51 56 54 55
547 8 54 56 51 57
548 8 54 56 51 58
549 1 51 52 53 54
550 2 51 52 53 54
551 4 53 52 51 56
552 5 53 52 51 56
553 6 53 52 51 57
554 7 53 52 51 57
555 6 53 52 51 58
556 7 53 52 51 58
557 1 192 191 196 194
558 2 192 191 196 194
559 6 196 191 192 199
560 7 196 191 192 199
561 6 196 191 192 200
562 7 196 191 192 200
563 9 197 191 192 199
564 9 197 191 192 200
565 9 198 191 192 199
566 9 198 191 192 200
567 1 191 192 193 194
568 2 191 192 193 194
569 4 193 192 191 196
570 5 193 192 191 196
571 6 193 192 191 197
572 7 193 192 191 197
573 6 193 192 191 198
574 7 193 192 191 198
575 1 102 101 106 104
576 2 102 101 106 104
577 6 106 101 102 109
578 7 106 101 102 109
579 6 106 101 102 110
580 7 106 101 102 110
581 9 107 101 102 109
582 9 107 101 102 110
583 9 108 101 102 109
584 9 108 101 102 110
585 3 101 106 104 103
586 3 101 106 104 105
587 8 104 106 101 107
588 8 104 106 101 108
589 1 1 2 3 4
590 2 1 2 3 4
591 4 3 2 1 6
592 5 3 2 1 6
593 6 3 2 1 7
594 7 3 2 1 7
595 6 3 2 1 8
596 7 3 2 1 8
597 3 192 193 194 195
598 3 192 193 194 196
599 8 194 193 192 199
600 8 194 193 192 200
601 10 517 518 519 520
602 11 517 518 519 520
603 12 517 518 519 521
604 8 519 518 517 523
605 8 519 518 517 524
606 8 519 518 517 525
607 10 565 566 567 568
608 11 565 566 567 568
609 12 565 566 567 569
610 8 567 566 565 571
611 8 567 566 565 572
612 8 567 566 565 573
613 12 566 567 569 570
614 10 568 567 569 570
615 11 568 567 569 570
616 3 2 3 4 5
617 3 2 3 4 6
618 8 4 3 2 9
619 8 4 3 2 10
620 8 567 569 570 574
621 8 567 569 570 575
622 8 567 569 570 576
623 1 2 1 6 4
624 2 2 1 6 4
625 6 6 1 2 9
626 7 6 1 2 9
627 6 6 1 2 10
628 7 6 1 2 10
629 9 7 1 2 9
630 9 7 1 2 10
631 9 8 1 2 9
632 9 8 1 2 10
633 3 1 6 4 3
634 3 1 6 4 5
635 8 4 6 1 7
636 8 4 6 1 8
637 10 421 422 423 424
638 11 421 422 423 424
639 12 421 422 423 425
640 8 423 422 421 427
641 8 423 422 421 428
642 8 423 422 421 429
643 12 422 423 425 426
644 10 424 423 425 426
645 11 424 423 425 426
646 3 52 53 54 55
647 3 52 53 54 56
648 8 54 53 52 59
649 8 54 53 52 60
650 10 877 878 879 880
651 11 877 878 879 880
652 12 877 878 879 881
653 8 879 878 877 883
654 8 879 878 877 884
655 8 879 878 877 885
656 12 878 879 881 882
657 10 880 879 881 882
658 11 880 879 881 882
659 1 32 31 36 34
660 2 32 31 36 34
661 6 36 31 32 39
662 7 36 31 32 39
663 6 36 31 32 40
664 7 36 31 32 40
665 9 37 31 32 39
666 9 37 31 32 40
667 9 38 31 32 39
668 9 38 31 32 40
669 8 879 881 882 886
670 8 879 881 882 887
671 8 879 881 882 888
672 3 31 36 34 33
673 3 31 36 34 35
674 8 34 36 31 37
675 8 34 36 31 38
676 10 697 698 699 700
677 11 697 698 699 700
678 12 697 698 699 701
679 8 699 698 697 703
680 8 699 698 697 704
681 8 699 698 697 705
682 3 252 253 254 255
683 3 252 253 254 256
684 8 254 253 252 259
685 8 254 253 252 260
686 12 542 543 545 546
687 10 544 543 545 546
688 11 544 543 545 546
689 8 543 545 546 550
690 8 543 545 546 551
691 8 543 545 546 552
692 3 172 173 174 175
693 3 172 173 174 176
694 8 174 173 172 179
695 8 174 173 172 180
696 3 251 256 254 253
697 3 251 256 254 255
698 8 254 256 251 257
699 8 254 256 251 258
700 3 131 136 134 133
701 3 131 136 134 135
702 8 134 136 131 137
703 8 134 136 131 138
704 3 191 196 194 193
705 3 191 196 194 195
706 8 194 196 191 197
707 8 194 196 191 198
708 1 171 172 173 174
709 2 171 172 173 174
710 4 173 172 171 176
711 5 173 172 171 176
712 6 173 172 171 177
713 7 173 172 171 177
714 6 173 172 171 178
715 7 173 172 171 178
716 10 781 782 783 784
717 11 781 782 783 784
718 12 781 782 783 785
719 8 783 782 781 787
720 8 783 782 781 788
721 8 783 782 781 789
722 1 172 171 176 174
723 2 172 171 176 174
724 6 176 171 172 179
725 7 176 171 172 179
726 6 176 171 172 180
727 7 176 171 172 180
728 9 177 171 172 179
729 9 177 171 172 180
730 9 178 171 172 179
731 9 178 171 172 180
732 8 783 785 786 790
733 8 783 785 786 791
734 8 783 785 786 792
735 8 699 701 702 706
736 8 699 701 702 707
737 8 699 701 702 708
738 12 698 699 701 702
739 10 700 699 701 702
740 11 700 699 701 702
741 3 132 133 134 135
742 3 132 133 134 136
743 8 134 133 132 139
744 8 134 133 132 140
745 10 745 746 747 748
746 11 745 746 747 748
747 12 745 746 747 749
748 8 747 746 745 751
749 8 747 746 745 752
750 8 747 746 745 753
751 1 132 131 136 134
752 2 132 131 136 134
753 6 136 131 132 139
754 7 136 131 132 139
755 6 136 131 132 140
756 7 136 131 132 140
757 9 137 131 132 139
758 9 137 131 132 140
759 9 138 131 132 139
760 9 138 131 132 140
761 12 746 747 749 750
762 10 748 747 749 750
763 11 748 747 749 750
764 8 747 749 750 754
765 8 747 749 750 755
766 8 747 749 750 756
767 1 131 132 133 134
768 2 131 132 133 134
769 4 133 132 131 136
770 5 133 132 131 136
771 6 133 132 131 137
772 7 133 132 131 137
773 6 133 132 131 138
774 7 133 132 131 138
775 12 518 519 521 522
776 10 520 519 521 522
777 11 520 519 521 522
778 3 92 93 94 95
779 3 92 93 94 96
780 8 94 93 92 99
781 8 94 93 92 100
782 1 91 92 93 94
783 2 91 92 93 94
784 4 93 92 91 96
785 5 93 92 91 96
786 6 93 92 91 97
787 7 93 92 91 97
788 6 93 92 91 98
789 7 93 92 91 98
790 8 399 401 402 406
791 8 399 401 402 407
792 8 399 401 402 408
793 12 506 507 509 510
794 10 508 507 509 510
795 11 508 507 509 510
796 12 398 399 401 402
797 10 400 399 401 402
798 11 400 399 401 402
799 10 397 398 399 400
800 11 397 398 399 400
801 12 397 398 399 401
802 8 399 398 397 403
803 8 399 398 397 404
804 8 399 398 397 405
805 1 141 142 143 144
806 2 141 142 143 144
807 4 143 142 141 146
808 5 143 142 141 146
809 6 143 142 141 147
810 7 143 142 141 147
811 6 143 142 141 148
812 7 143 142 141 148
813 3 142 143 144 145
814 3 142 143 144 146
815 8 144 143 142 149
816 8 144 143 142 150
817 8 507 509 510 514
818 8 507 509 510 515
819 8 507 509 510 516
820 1 142 141 146 144
821 2 142 141 146 144
822 6 146 141 142 149
823 7 146 141 142 149
824 6 146 141 142 150
825 7 146 141 142 150
826 9 147 141 142 149
827 9 147 141 142 150
828 9 148 141 142 149
829 9 148 141 142 150
830 10 325 326 327 328
831 11 325 326 327 328
832 12 325 326 327 329
833 8 327 326 325 331
834 8 327 326 325 332
835 8 327 326 325 333
836 12 326 327 329 330
837 10 328 327 329 330
838 11 328 327 329 330
839 8 327 329 330 334
840 8 327 329 330 335
841 8 327 329 330 336
842 3 122 123 124 125
843 3 122 123 124 126
844 8 124 123 122 129
845 8 124 123 122 130
846 1 121 122 123 124
847 2 121 122 123 124
848 4 123 122 121 126
849 5 123 122 121 126
850 6 123 122 121 127
851 7 123 122 121 127
852 6 123 122 121 128
853 7 123 122 121 128
854 1 292 291 296 294
855 2 292 291 296 294
856 6 296 291 292 299
857 7 296 291 292 299
858 6 296 291 292 300
859 7 296 291 292 300
860 9 297 291 292 299
861 9 297 291 292 300
862 9 298 291 292 299
863 9 298 291 292 300
864 1 291 292 293 294
865 2 291 292 293 294
866 4 293 292 291 296
867 5 293 292 291 296
868 6 293 292 291 297
869 7 293 292 291 297
870 6 293 292 291 298
871 7 293 292 291 298
872 3 291 296 294 293
873 3 291 296 294 295
874 8 294 296 291 297
875 8 294 296 291 298
876 1 42 41 46 44
877 2 42 41 46 44
878 6 46 41 42 49
879 7 46 41 42 49
880 6 46 41 42 50
881 7 46 41 42 50
882 9 47 41 42 49
883 9 47 41 42 50
884 9 48 41 42 49
885 9 48 41 42 50
886 1 41 42 43 44
887 2 41 42 43 44
888 4 43 42 41 46
889 5 43 42 41 46
890 6 43 42 41 47
891 7 43 42 41 47
892 6 43 42 41 48
893 7 43 42 41 48
894 10 685 686 687 688
895 11 685 686 687 688
896 12 685 686 687 689
897 8 687 686 685 691
898 8 687 686 685 692
899 8 687 686 685 693
900 3 141 146 144 143
901 3 141 146 144 145
902 8 144 146 141 147
903 8 144 146 141 148
904 3 181 186 184 183
905 3 181 186 184 185
906 8 184 186 181 187
907 8 184 186 181 188
908 10 589 590 591 592
909 11 589 590 591 592
910 12 589 590 591 593
911 8 591 590 589 595
912 8 591 590 589 596
913 8 591 590 589 597
914 10 865 866 867 868
915 11 865 866 867 868
916 12 865 866 867 869
917 8 867 866 865 871
918 8 867 866 865 872
919 8 867 866 865 873
920 12 686 687 689 690
921 10 688 687 689 690
922 11 688 687 689 690
923 1 182 181 186 184
924 2 182 181 186 184
925 6 186 181 182 189
926 7 186 181 182 189
927 6 186 181 182 190
928 7 186 181 182 190
929 9 187 181 182 189
930 9 187 181 182 190
931 9 188 181 182 189
932 9 188 181 182 190
933 3 182 183 184 185
934 3 182 183 184 186
935 8 184 183 182 189
936 8 184 183 182 190
937 8 351 353 354 358
938 8 351 353 354 359
939 8 351 353 354 360
940 3 91 96 94 93
941 3 91 96 94 95
942 8 94 96 91 97
943 8 94 96 91 98
944 10 613 614 615 616
945 11 613 614 615 616
946 12 613 614 615 617
947 8 615 614 613 619
948 8 615 614 613 620
949 8 615 614 613 621
950 12 614 615 617 618
951 10 616 615 617 618
952 11 616 615 617 618
953 8 615 617 618 622
954 8 615 617 618 623
955 8 615 617 618 624
956 1 92 91 96 94
957 2 92 91 96 94
958 6 96 91 92 99
959 7 96 91 92 99
960 6 96 91 92 100
961 7 96 91 92 100
962 9 97 91 92 99
963 9 97 91 92 100
964 9 98 91 92 99
965 9 98 91 92 100
966 10 673 674 675 676
967 11 673 674 675 676
968 12 673 674 675 677
969 8 675 674 673 679
970 8 675 674 673 680
971 8 675 674 673 681
972 12 674 675 677 678
973 10 676 675 677 678
974 11 676 675 677 678
975 10 349 350 351 352
976 11 349 350 351 352
977 12 349 350 351 353
978 8 351 350 349 355
979 8 351 350 349 356
980 8 351 350 349 357
981 12 350 351 353 354
982 10 352 351 353 354
983 11 352 351 353 354
984 3 121 126 124 123
985 3 121 126 124 125
986 8 124 126 121 127
987 8 124 126 121 128
988 1 122 121 126 124
989 2 122 121 126 124
990 6 126 121 122 129
991 7 126 121 122 129
992 6 126 121 122 130
993 7 126 121 122 130
994 9 127 121 122 129
995 9 127 121 122 130
996 9 128 121 122 129
997 9 128 121 122 130
998 8 771 773 774 778
999 8 771 773 774 779
1000 8 771 773 774 780
1001 3 42 43 44 45
1002 3 42 43 44 46
1003 8 44 43 42 49
1004 8 44 43 42 50
1005 8 675 677 678 682
1006 8 675 677 678 683
1007 8 675 677 678 684
1008 8 807 809 810 814
1009 8 807 809 810 815
1010 8 807 809 810 816
1011 10 769 770 771 772
1012 11 769 770 771 772
1013 12 769 770 771 773
1014 8 771 770 769 775
1015 8 771 770 769 776
1016 8 771 770 769 777
1017 12 770 771 773 774
1018 10 772 771 773 774
1019 11 772 771 773 774
1020 10 829 830 831 832
1021 11 829 830 831 832
1022 12 829 830 831 833
1023 8 831 830 829 835
1024 8 831 830 829 836
1025 8 831 830 829 837
1026 12 830 831 833 834
1027 10 832 831 833 834
1028 11 832 831 833 834
1029 8 831 833 834 838
1030 8 831 833 834 839
1031 8 831 833 834 840
1032 8 459 461 462 466
1033 8 459 461 462 467
1034 8 459 461 462 468
1035 10 937 938 939 940
1036 11 937 938 939 940
1037 12 937 938 939 941
1038 8 939 938 937 943
1039 8 939 938 937 944
1040 8 939 938 937 945
1041 12 938 939 941 942
1042 10 940 939 941 942
1043 11 940 939 941 942
1044 8 939 941 942 946
1045 8 939 941 942 947
1046 8 939 941 942 948
1047 8 951 953 954 958
1048 8 951 953 954 959
1049 8 951 953 954 960
1050 12 950 951 953 954
1051 10 952 951 953 954
1052 11 952 951 953 954
1053 12 494 495 497 498
1054 10 496 495 497 498
1055 11 496 495 497 498
1056 8 495 497 498 502
1057 8 495 497 498 503
1058 8 495 497 498 504
1059 10 949 950 951 952
1060 11 949 950 951 952
1061 12 949 950 951 953
1062 8 951 950 949 955
1063 8 951 950 949 956
1064 8 951 950 949 957
1065 12 482 483 485 486
1066 10 484 483 485 486
1067 11 484 483 485 486
1068 12 866 867 869 870
1069 10 868 867 869 870
1070 11 868 867 869 870
1071 1 181 182 183 184
1072 2 181 182 183 184
1073 4 183 182 181 186
1074 5 183 182 181 186
1075 6 183 182 181 187
1076 7 183 182 181 187
1077 6 183 182 181 188
1078 7 183 182 181 188
1079 8 867 869 870 874
1080 8 867 869 870 875
1081 8 867 869 870 876
1082 8 603 605 606 610
1083 8 603 605 606 611
1084 8 603 605 606 612
1085 3 262 263 264 265
1086 3 262 263 264 266
1087 8 264 263 262 269
1088 8 264 263 262 270
1089 10 493 494 495 496
1090 11 493 494 495 496
1091 12 493 494 495 497
1092 8 495 494 493 499
1093 8 495 494 493 500
1094 8 495 494 493 501
1095 12 602 603 605 606
1096 10 604 603 605 606
1097 11 604 603 605 606
1098 1 201 202 203 204
1099 2 201 202 203 204
1100 4 203 202 201 206
1101 5 203 202 201 206
1102 6 203 202 201 207
1103 7 203 202 201 207
1104 6 203 202 201 208
1105 7 203 202 201 208
1106 1 202 201 206 204
1107 2 202 201 206 204
1108 6 206 201 202 209
1109 7 206 201 202 209
1110 6 206 201 202 210
1111 7 206 201 202 210
1112 9 207 201 202 209
1113 9 207 201 202 210
1114 9 208 201 202 209
1115 9 208 201 202 210
1116 3 202 203 204 205
1117 3 202 203 204 206
1118 8 204 203 202 209
1119 8 204 203 202 210
1120 3 201 206 204 203
1121 3 201 206 204 205
1122 8 204 206 201 207
1123 8 204 206 201 208
1124 8 339 341 342 346
1125 8 339 341 342 347
1126 8 339 341 342 348
1127 10 337 338 339 340
1128 11 337 338 339 340
1129 12 337 338 339 341
1130 8 339 338 337 343
1131 8 339 338 337 344
1132 8 339 338 337 345
1133 12 338 339 341 342
1134 10 340 339 341 342
1135 11 340 339 341 342
1136 10 313 314 315 316
1137 11 313 314 315 316
1138 12 313 314 315 317
1139 8 315 314 313 319
1140 8 315 314 313 320
1141 8 315 314 313 321
1142 12 314 315 317 318
1143 10 316 315 317 318
1144 11 316 315 317 318
1145 8 315 317 318 322
1146 8 315 317 318 323
1147 8 315 317 318 324
1148 3 292 293 294 295
1149 3 292 293 294 296
1150 8 294 293 292 299
1151 8 294 293 292 300
1152 12 590 591 593 594
1153 10 592 591 593 594
1154 11 592 591 593 594
1155 8 591 593 594 598
1156 8 591 593 594 599
1157 8 591 593 594 600
1158 8 687 689 690 694
1159 8 687 689 690 695
1160 8 687 689 690 696
1161 8 891 893 894 898
1162 8 891 893 894 899
1163 8 891 893 894 900
1164 8 447 449 450 454
1165 8 447 449 450 455
1166 8 447 449 450 456
1167 12 890 891 893 894
1168 10 892 891 893 894
1169 11 892 891 893 894
1170 10 889 890 891 892
1171 11 889 890 891 892
1172 12 889 890 891 893
1173 8 891 890 889 895
1174 8 891 890 889 896
1175 8 891 890 889 897
1176 1 161 162 163 164
1177 2 161 162 163 164
1178 4 163 162 161 166
1179 5 163 162 161 166
1180 6 163 162 161 167
1181 7 163 162 161 167
1182 6 163 162 161 168
1183 7 163 162 161 168
1184 3 162 163 164 165
1185 3 162 163 164 166
1186 8 164 163 162 169
1187 8 164 163 162 170
1188 12 578 579 581 582
1189 10 580 579 581 582
1190 11 580 579 581 582
1191 8 579 581 582 586
1192 8 579 581 582 587
1193 8 579 581 582 588
1194 10 481 482 483 484
1195 11 481 482 483 484
1196 12 481 482 483 485
1197 8 483 482 481 487
1198 8 483 482 481 488
1199 8 483 482 481 489
1200 10 577 578 579 580
1201 11 577 578 579 580
1202 12 577 578 579 581
1203 8 579 578 577 583
1204 8 579 578 577 584
1205 8 579 578 577 585
1206 8 639 641 642 646
1207 8 639 641 642 647
1208 8 639 641 642 648
1209 12 638 639 641 642
1210 10 640 639 641 642
1211 11 640 639 641 642
1212 10 637 638 639 640
1213 11 637 638 639 640
1214 12 637 638 639 641
1215 8 639 638 637 643
1216 8 639 638 637 644
1217 8 639 638 637 645
1218 3 261 266 264 263
1219 3 261 266 264 265
1220 8 264 266 261 267
1221 8 264 266 261 268
1222 1 262 261 266 264
1223 2 262 261 266 264
1224 6 266 261 262 269
1225 7 266 261 262 269
1226 6 266 261 262 270
1227 7 266 261 262 270
1228 9 267 261 262 269
1229 9 267 261 262 270
1230 9 268 261 262 269
1231 9 268 261 262 270
1232 1 261 262 263 264
1233 2 261 262 263 264
1234 4 263 262 261 266
1235 5 263 262 261 266
1236 6 263 262 261 267
1237 7 263 262 261 267
1238 6 263 262 261 268
1239 7 263 262 261 268
1240 8 471 473 474 478
1241 8 471 473 474 479
1242 8 471 473 474 480
1243 8 927 929 930 934
1244 8 927 929 930 935
1245 8 927 929 930 936
1246 12 926 927 929 930
1247 10 928 927 929 930
1248 11 928 927 929 930
1249 10 925 926 927 928
1250 11 925 926 927 928
1251 12 925 926 927 929
1252 8 927 926 925 931
1253 8 927 926 925 932
1254 8 927 926 925 933
1255 12 650 651 653 654
1256 10 652 651 653 654
1257 11 652 651 653 654
1258 12 470 471 473 474
1259 10 472 471 473 474
1260 11 472 471 473 474
1261 10 469 470 471 472
1262 11 469 470 471 472
1263 12 469 470 471 473
1264 8 471 470 469 475
1265 8 471 470 469 476
1266 8 471 470 469 477
1267 10 649 650 651 652
1268 11 649 650 651 652
1269 12 649 650 651 653
1270 8 651 650 649 655
1271 8 651 650 649 656
1272 8 651 650 649 657
1273 1 251 252 253 254
1274 2 251 252 253 254
1275 4 253 252 251 256
1276 5 253 252 251 256
1277 6 253 252 251 257
1278 7 253 252 251 257
1279 6 253 252 251 258
1280 7 253 252 251 258
1281 1 252 251 256 254
1282 2 252 251 256 254
1283 6 256 251 252 259
1284 7 256 251 252 259
1285 6 256 251 252 260
1286 7 256 251 252 260
1287 9 257 251 252 259
1288 9 257 251 252 260
1289 9 258 251 252 259
1290 9 258 251 252 260
1291 1 21 22 23 24
1292 2 21 22 23 24
1293 4 23 22 21 26
1294 5 23 22 21 26
1295 6 23 22 21 27
1296 7 23 22 21 27
1297 6 23 22 21 28
1298 7 23 22 21 28
1299 1 22 21 26 24
1300 2 22 21 26 24
1301 6 26 21 22 29
1302 7 26 21 22 29
1303 6 26 21 22 30
1304 7 26 21 22 30
1305 9 27 21 22 29
1306 9 27 21 22 30
1307 9 28 21 22 29
1308 9 28 21 22 30
1309 3 22 23 24 25
1310 3 22 23 24 26
1311 8 24 23 22 29
1312 8 24 23 22 30
1313 3 171 176 174 173
1314 3 171 176 174 175
1315 8 174 176 171 177
1316 8 174 176 171 178
1317 3 21 26 24 23
1318 3 21 26 24 25
1319 8 24 26 21 27
1320 8 24 26 21 28
1321 12 782 783 785 786
1322 10 784 783 785 786
1323 11 784 783 785 786
1324 3 211 216 214 213
1325 3 211 216 214 215
1326 8 214 216 211 217
1327 8 214 216 211 218
1328 1 162 161 166 164
1329 2 162 161 166 164
1330 6 166 161 162 169
1331 7 166 161 162 169
1332 6 166 161 162 170
1333 7 166 161 162 170
1334 9 167 161 162 169
1335 9 167 161 162 170
1336 9 168 161 162 169
1337 9 168 161 162 170
1338 1 212 211 216 214
1339 2 212 211 216 214
1340 6 216 211 212 219
1341 7 216 211 212 219
1342 6 216 211 212 220
1343 7 216 211 212 220
1344 9 217 211 212 219
1345 9 217 211 212 220
1346 9 218 211 212 219
1347 9 218 211 212 220
1348 3 212 213 214 215
1349 3 212 213 214 216
1350 8 214 213 212 219
1351 8 214 213 212 220
1352 1 211 212 213 214
1353 2 211 212 213 214
1354 4 213 212 211 216
1355 5 213 212 211 216
1356 6 213 212 211 217
1357 7 213 212 211 217
1358 6 213 212 211 218
1359 7 213 212 211 218
1360 10 301 302 303 304
1361 11 301 302 303 304
1362 12 301 302 303 305
1363 8 303 302 301 307
1364 8 303 302 301 308
1365 8 303 302 301 309
1366 1 272 271 276 274
1367 2 272 271 276 274
1368 6 276 271 272 279
1369 7 276 271 272 279
1370 6 276 271 272 280
1371 7 276 271 272 280
1372 9 277 271 272 279
1373 9 277 271 272 280
1374 9 278 271 272 279
1375 9 278 271 272 280
1376 1 271 272 273 274
1377 2 271 272 273 274
1378 4 273 272 271 276
1379 5 273 272 271 276
1380 6 273 272 271 277
1381 7 273 272 271 277
1382 6 273 272 271 278
1383 7 273 272 271 278
1384 3 272 273 274 275
1385 3 272 273 274 276
1386 8 274 273 272 279
1387 8 274 273 272 280
1388 3 271 276 274 273
1389 3 271 276 274 275
1390 8 274 276 271 277
1391 8 274 276 271 278
1392 12 302 303 305 306
1393 10 304 303 305 306
1394 11 304 303 305 306
1395 8 303 305 306 310
1396 8 303 305 306 311
1397 8 303 305 306 312
1398 3 161 166 164 163
1399 3 161 166 164 165
1400 8 164 166 161 167
1401 8 164 166 161 168
1402 10 793 794 795 796
1403 11 793 794 795 796
1404 12 793 794 795 797
1405 8 795 794 793 799
1406 8 795 794 793 800
1407 8 795 794 793 801
1408 8 531 533 534 538
1409 8 531 533 534 539
1410 8 531 533 534 540
1411 10 529 530 531 532
1412 11 529 530 531 532
1413 12 529 530 531 533
1414 8 531 530 529 535
1415 8 531 530 529 536
1416 8 531 530 529 537
1417 12 530 531 533 534
1418 10 532 531 533 534
1419 11 532 531 533 534
1420 8 519 521 522 526
1421 8 519 521 522 527
1422 8 519 521 522 528
1423 12 758 759 761 762
1424 10 760 759 761 762
1425 11 760 759 761 762
1426 10 757 758 759 760
1427 11 757 758 759 760
1428 12 757 758 759 761
1429 8 759 758 757 763
1430 8 759 758 757 764
1431 8 759 758 757 765
1432 8 759 761 762 766
1433 8 759 761 762 767
1434 8 759 761 762 768
1435 12 794 795 797 798
1436 10 796 795 797 798
1437 11 796 795 797 798
1438 8 795 797 798 802
1439 8 795 797 798 803
1440 8 795 797 798 804
1441 10 733 734 735 736
1442 11 733 734 735 736
1443 12 733 734 735 737
1444 8 735 734 733 739
1445 8 735 734 733 740
1446 8 735 734 733 741
1447 8 735 737 738 742
1448 8 735 737 738 743
1449 8 735 737 738 744
1450 12 734 735 737 738
1451 10 736 735 737 738
1452 11 736 735 737 738

Impropers

1 1 84 83 85 86
2 1 84 85 86 83
3 1 84 86 83 85
4 1 663 665 662 664
5 1 663 662 664 665
6 1 723 725 722 724
7 1 915 917 914 916
8 1 723 724 725 722
9 1 64 65 66 63
10 1 915 916 917 914
11 1 915 914 916 917
12 1 963 962 964 965
13 1 64 63 65 66
14 1 234 233 235 236
15 1 807 806 808 809
16 1 411 410 412 413
17 1 411 413 410 412
18 1 411 412 413 410
19 1 903 905 902 904
20 1 903 904 905 902
21 1 154 156 153 155
22 1 34 33 35 36
23 1 154 155 156 153
24 1 903 902 904 905
25 1 234 236 233 235
26 1 44 46 43 45
27 1 807 808 809 806
28 1 711 713 710 712
29 1 711 712 713 710
30 1 507 506 508 509
31 1 64 66 63 65
32 1 723 722 724 725
33 1 14 16 13 15
34 1 14 13 15 16
35 1 74 76 73 75
36 1 74 75 76 73
37 1 74 73 75 76
38 1 44 45 46 43
39 1 663 664 665 662
40 1 459 458 460 461
41 1 963 965 962 964
42 1 244 245 246 243
43 1 244 246 243 245
44 1 963 964 965 962
45 1 244 243 245 246
46 1 154 153 155 156
47 1 375 374 376 377
48 1 284 285 286 283
49 1 375 376 377 374
50 1 375 377 374 376
51 1 555 554 556 557
52 1 555 557 554 556
53 1 363 364 365 362
54 1 555 556 557 554
55 1 711 710 712 713
56 1 14 15 16 13
57 1 363 365 362 364
58 1 483 485 482 484
59 1 603 602 604 605
60 1 423 425 422 424
61 1 234 235 236 233
62 1 699 700 701 698
63 1 543 542 544 545
64 1 134 135 136 133
65 1 435 436 437 434
66 1 435 434 436 437
67 1 435 437 434 436
68 1 224 223 225 226
69 1 459 460 461 458
70 1 224 225 226 223
71 1 224 226 223 225
72 1 104 103 105 106
73 1 843 844 845 842
74 1 843 845 842 844
75 1 843 842 844 845
76 1 284 286 283 285
77 1 284 283 285 286
78 1 114 116 113 115
79 1 114 113 115 116
80 1 114 115 116 113
81 1 447 446 448 449
82 1 447 448 449 446
83 1 819 818 820 821
84 1 855 856 857 854
85 1 855 854 856 857
86 1 855 857 854 856
87 1 819 820 821 818
88 1 363 362 364 365
89 1 819 821 818 820
90 1 651 653 650 652
91 1 543 544 545 542
92 1 627 626 628 629
93 1 387 386 388 389
94 1 387 389 386 388
95 1 627 629 626 628
96 1 627 628 629 626
97 1 54 56 53 55
98 1 387 388 389 386
99 1 34 35 36 33
100 1 567 568 569 566
101 1 104 105 106 103
102 1 104 106 103 105
103 1 194 193 195 196
104 1 194 195 196 193
105 1 519 518 520 521
106 1 567 566 568 569
107 1 4 3 5 6
108 1 567 569 566 568
109 1 4 5 6 3
110 1 4 6 3 5
111 1 423 422 424 425
112 1 54 53 55 56
113 1 879 878 880 881
114 1 879 880 881 878
115 1 54 55 56 53
116 1 879 881 878 880
117 1 34 36 33 35
118 1 699 698 700 701
119 1 423 424 425 422
120 1 254 253 255 256
121 1 543 545 542 544
122 1 254 255 256 253
123 1 174 173 175 176
124 1 254 256 253 255
125 1 134 136 133 135
126 1 194 196 193 195
127 1 783 782 784 785
128 1 783 785 782 784
129 1 699 701 698 700
130 1 747 748 749 746
131 1 134 133 135 136
132 1 747 746 748 749
133 1 747 749 746 748
134 1 94 93 95 96
135 1 399 401 398 400
136 1 507 508 509 506
137 1 399 400 401 398
138 1 399 398 400 401
139 1 144 143 145 146
140 1 507 509 506 508
141 1 327 326 328 329
142 1 327 328 329 326
143 1 327 329 326 328
144 1 495 496 497 494
145 1 124 123 125 126
146 1 294 295 296 293
147 1 294 296 293 295
148 1 831 832 833 830
149 1 687 686 688 689
150 1 144 146 143 145
151 1 184 186 183 185
152 1 184 185 186 183
153 1 591 590 592 593
154 1 867 866 868 869
155 1 687 688 689 686
156 1 184 183 185 186
157 1 24 25 26 23
158 1 94 95 96 93
159 1 351 353 350 352
160 1 94 96 93 95
161 1 615 614 616 617
162 1 615 616 617 614
163 1 615 617 614 616
164 1 675 674 676 677
165 1 675 676 677 674
166 1 351 350 352 353
167 1 124 125 126 123
168 1 124 126 123 125
169 1 144 145 146 143
170 1 771 773 770 772
171 1 44 43 45 46
172 1 675 677 674 676
173 1 807 809 806 808
174 1 771 770 772 773
175 1 771 772 773 770
176 1 831 830 832 833
177 1 831 833 830 832
178 1 339 340 341 338
179 1 459 461 458 460
180 1 939 938 940 941
181 1 939 941 938 940
182 1 939 940 941 938
183 1 951 953 950 952
184 1 495 497 494 496
185 1 951 950 952 953
186 1 951 952 953 950
187 1 483 484 485 482
188 1 867 868 869 866
189 1 867 869 866 868
190 1 603 605 602 604
191 1 264 265 266 263
192 1 264 263 265 266
193 1 204 205 206 203
194 1 495 494 496 497
195 1 603 604 605 602
196 1 204 203 205 206
197 1 204 206 203 205
198 1 339 341 338 340
199 1 339 338 340 341
200 1 315 314 316 317
201 1 315 316 317 314
202 1 315 317 314 316
203 1 294 293 295 296
204 1 591 593 590 592
205 1 687 689 686 688
206 1 351 352 353 350
207 1 891 893 890 892
208 1 447 449 446 448
209 1 891 890 892 893
210 1 891 892 893 890
211 1 164 163 165 166
212 1 579 580 581 578
213 1 579 581 578 580
214 1 483 482 484 485
215 1 579 578 580 581
216 1 639 641 638 640
217 1 639 638 640 641
218 1 264 266 263 265
219 1 639 640 641 638
220 1 471 473 470 472
221 1 927 929 926 928
222 1 927 928 929 926
223 1 651 652 653 650
224 1 927 926 928 929
225 1 471 472 473 470
226 1 471 470 472 473
227 1 651 650 652 653
228 1 174 175 176 173
229 1 24 23 25 26
230 1 174 176 173 175
231 1 24 26 23 25
232 1 214 215 216 213
233 1 783 784 785 782
234 1 214 216 213 215
235 1 214 213 215 216
236 1 303 302 304 305
237 1 591 592 593 590
238 1 303 304 305 302
239 1 274 273 275 276
240 1 274 276 273 275
241 1 303 305 302 304
242 1 164 166 163 165
243 1 164 165 166 163
244 1 795 794 796 797
245 1 531 533 530 532
246 1 531 530 532 533
247 1 531 532 533 530
248 1 519 521 518 520
249 1 759 760 761 758
250 1 759 758 760 761
251 1 759 761 758 760
252 1 519 520 521 518
253 1 274 275 276 273
254 1 795 796 797 794
255 1 795 797 794 796
256 1 735 734 736 737
257 1 735 737 734 736
258 1 735 736 737 734
