LAMMPS data file via write_data, version 22 Jul 2025, timestep = 510844, units = real

1014 atoms
8 atom types
944 bonds
6 bond types
1504 angles
7 angle types
1452 dihedrals
12 dihedral types
258 impropers
1 improper types

-0.27163464636483425 22.866926257364675 xlo xhi
-0.23963463740313173 22.898926267373366 ylo yhi
-0.28063464241294334 22.857926267412953 zlo zhi

Masses

1 12.01078
2 15.99943
3 12.01078
4 15.99943
5 1.007947
6 6.9412
7 18.998403
8 10.8117

Pair Coeffs # lj/cut/coul/long

1 0.108841 3.37953
2 0.168465 3.02511
3 0.0868793 3.48065
4 0.210206 3.03981
5 0.0164092 2.58323
6 0.0279896 1.82634
7 0.061 3.11993
8 0.095 3.42105

Bond Coeffs # harmonic

1 215.301 1.53363
2 227.037 1.43632
3 357.819 1.09421
4 291.342 1.35606
5 762.039 1.225
6 386.59 1.394

Angle Coeffs # harmonic

1 91.5186 108.173
2 66.7563 109.938
3 63.31 123.606
4 36.7766 108.354
5 119.896 112.874
6 84.5477 120.105
7 80.005 109.5

Dihedral Coeffs # opls

1 1 0.111303 3 0
2 1 0.438911 1 180
3 1 1.76361 2 180
4 1 -0.0153377 3 0
5 1 0.41915 2 0
6 1 0.131135 3 0
7 1 0.436547 1 0
8 1 0.263111 3 0
9 1 0.227995 3 0
10 1 0.302195 2 180
11 1 1.35005 1 180
12 1 3.48187 2 180

Improper Coeffs # cvff

1 4.30523 -1 2

Atoms # full

408 39 5 0.0582835 5.485592646932735 5.93209405847451 3.4910878601017634 0 0 0
401 39 2 -0.3889835 4.484532332625194 4.269419851135046 2.8642345433701375 0 0 0
399 39 3 0.7551165 4.920553404488347 3.451044643692162 3.8976646265760073 0 0 0
398 39 2 -0.3889835 4.923702932794029 2.10467599273279 3.6601599597453474 0 0 0
400 39 4 -0.5800835 5.321801832267106 3.815077808472291 4.996616335179592 0 0 0
865 78 1 0.1266165 5.30525152007287 9.429696781770968 8.056104623519923 0 1 0
871 78 5 0.0582835 4.846258531031468 8.435014355526215 7.824648576996438 0 1 0
272 28 1 0.0955 2.8422738753529946 4.392350190777706 7.812362170965713 0 1 0
274 28 3 0.8478 4.54191676037653 3.104179822787642 8.58567009369173 0 1 0
385 38 1 0.1266165 1.7427670145273173 0.9165094706212226 6.010645941415921 0 0 1
985 95 7 -0.5 0.8612355601884709 9.812792381514454 8.901057677691474 0 0 0
276 28 2 -0.4048 4.651859207579628 4.2755491553722145 9.250698222826713 0 1 0
271 28 1 0.0955 3.5974879500030625 5.163982239980799 8.816016313036284 0 1 0
278 28 5 0.0798 4.140793212163595 6.006027962053356 8.321823422724293 0 1 0
273 28 2 -0.4048 3.4970740164138685 3.147970388145563 7.728108829631687 0 1 0
280 28 5 0.0798 2.5979862987255666 4.963456293896928 6.885899089040772 0 1 0
279 28 5 0.0798 1.9535328616726078 4.099674435659365 8.400352903337534 0 1 0
402 39 1 0.1266165 4.4890976967833405 5.61121005440977 3.129702993885338 0 0 0
275 28 4 -0.5484 5.301451655682643 2.186090196110158 8.77778909131826 0 1 0
924 82 5 0.0582835 5.908801627214054 0.7063545090701806 0.3672904199785042 0 0 0
406 39 5 0.0582835 4.138536123170883 6.172006417316247 2.1926891740720995 0 0 0
393 38 5 0.0582835 2.3012268604240957 1.194664383655525 5.1101117250179025 0 0 1
407 39 5 0.0582835 3.7424436886589243 5.833684868913007 3.8484458814244706 0 0 0
872 78 5 0.0582835 4.563994338820361 10.210431320926572 8.239879983595403 0 1 0
866 78 2 -0.3889835 6.119249471766616 9.401237095981209 9.273340546027155 0 1 0
277 28 5 0.0798 3.0572737307792215 5.622254232872685 9.699211589348815 0 1 0
403 39 5 0.0582835 4.733573175144577 1.326884587439357 5.587007977405459 0 0 0
397 39 1 0.1266165 5.382745917675579 1.2120964319066039 4.713135356876053 0 0 0
987 95 7 -0.5 1.008087724905569 7.8846409681650576 10.007212109279203 0 0 0
453 43 5 0.0582835 0.9133378219424877 1.6647669726880117 9.85147020138771 0 1 0
405 39 5 0.0582835 6.401612472133217 1.5455952980372762 4.9098995025264145 0 0 0
989 95 7 -0.5 1.3897819211119797 7.940372091915579 7.744450932330152 0 0 0
986 95 8 1 0.634495803488125 8.492129749645436 8.753949941268521 0 0 0
664 61 4 -0.5800835 4.210891145944792 9.723840095576852 3.723476448369615 0 0 0
667 61 5 0.0582835 2.8822065377566384 10.106005806265502 5.89749950745532 0 0 0
711 65 3 0.7551165 19.484711636441297 11.153832319252444 7.550533648526671 -1 0 0
66 7 2 -0.4048 13.405219177546114 10.590881133557764 -0.23226518407626973 0 0 0
404 39 5 0.0582835 5.196760518466238 0.20979018740777067 4.28526836716847 0 0 0
661 61 1 0.1266165 2.0965114210305993 10.099795196391252 5.250838794975798 0 0 0
909 81 5 0.0582835 1.2305688331722775 5.3038906175769815 2.086687344491668 1 0 0
445 43 1 0.1266165 0.8327971134009237 0.6658247787075445 9.531625862303594 0 1 0
218 22 5 0.0798 6.244251351655102 4.246291128182403 11.182701710872397 0 0 0
220 22 5 0.0798 5.639630235984455 6.433679533789773 10.745861627447537 0 0 0
391 38 5 0.0582835 0.7546191135753123 0.6623789810364257 5.6605763149006005 0 0 1
392 38 5 0.0582835 1.5610750797584372 1.7288827364651738 6.747326597510114 0 0 1
452 43 5 0.0582835 0.10571600924579139 0.6494833768848758 8.772424069762337 0 1 0
668 61 5 0.0582835 1.1413799466550623 10.402296771115568 5.743249013976287 0 0 0
863 77 5 0.0582835 7.068577598982116 5.557362690823806 8.813063528190904 0 0 0
732 66 5 0.0582835 5.634963706572711 3.5151542179287167 0.715438961169483 0 0 0
731 66 5 0.0582835 4.5315634149659605 4.738256419380306 0.09021232479872104 0 0 0
726 66 1 0.1266165 5.479625919186442 4.183205730019788 -0.18065270145354081 0 0 0
862 77 5 0.0582835 7.140317770665714 4.160845933024815 7.809332264544695 0 0 0
386 38 2 -0.3889835 2.392298422656699 -0.1753097640310584 6.686112603096526 0 0 1
1002 98 7 -0.5 18.13155289648898 2.710971369588727 5.628209361859388 0 0 0
451 43 5 0.0582835 1.7418943306792058 0.43439343716439743 9.07356509084781 0 1 0
611 56 5 0.0582835 3.2692004296077695 1.3294052449736646 0.2453072337918082 0 0 1
193 20 2 -0.4048 10.370540392422122 5.778471529041021 0.030940369839441238 0 0 1
439 42 5 0.0582835 17.383547594405222 0.005046128626148408 0.32763141257720063 -1 0 1
918 82 1 0.1266165 6.4898156737997645 -0.16202361559542033 0.5608143579503165 0 0 0
908 81 5 0.0582835 1.8558494083905754 3.647269147981715 2.0165418311309904 1 0 0
901 81 1 0.1266165 1.292388905596293 4.437688713948833 1.4511258769592927 1 0 0
195 20 4 -0.5484 10.323380302695538 3.424822515122714 0.5105719475034779 0 0 1
640 59 4 -0.5800835 7.4244982417177035 7.626485085306309 2.1970338168226227 0 1 0
27 3 5 0.0798 3.583423295431039 8.76685695165381 10.862533613622325 0 0 0
669 61 5 0.0582835 2.0721421364185635 9.115120204726749 4.773767960741226 0 0 0
779 70 5 0.0582835 20.467896555465163 3.701191587219061 0.566813566956432 0 0 0
917 82 2 -0.3889835 6.995593448151641 -0.09019912555497923 1.9262600837546877 0 0 0
384 37 5 0.0582835 16.4536361728101 0.5513688658349037 8.230611578004352 0 0 0
907 81 5 0.0582835 0.34680221890695034 4.0007033520354 1.3710827546055657 1 0 0
818 74 2 -0.3889835 18.294498510826767 10.677879489758626 10.9193543885577 -1 0 0
821 74 2 -0.3889835 20.570156241981586 10.279539522707404 11.018920175342505 -1 0 0
522 49 1 0.1266165 14.477167804528404 0.6160602613989573 5.707753178342451 1 0 1
824 74 5 0.0582835 16.285652500554402 11.030490034961527 10.976309286270357 -1 0 0
887 79 5 0.0582835 7.992616837079953 1.036908818213211 8.046218945272084 1 1 1
297 30 5 0.0798 22.833266066411365 9.08236055294236 0.2814060335364684 0 0 0
192 20 1 0.0955 11.37089398320286 6.807683740654223 0.253137938953658 0 0 1
882 79 1 0.1266165 7.6504187322902455 0.2019070314998241 7.359401672176159 1 1 1
26 3 2 -0.4048 4.090186403710694 10.906260513700321 10.750810065165584 0 0 0
662 61 2 -0.3889835 2.434100620125942 11.076379082335382 4.148334072823039 0 0 0
663 61 3 0.7551165 3.567429235349168 10.714277737061135 3.4689056293745204 0 0 0
563 52 5 0.0582835 16.17412309098071 6.349172979989458 10.961568196799139 0 0 0
570 53 1 0.1266165 11.156276936959582 -0.05997133925787596 0.9442637202238033 0 0 1
886 79 5 0.0582835 6.670987316847588 0.2846915008665612 6.915086716999755 1 1 1
873 78 5 0.0582835 5.792243349767945 9.807580614772762 7.127040399840025 0 1 0
207 21 5 0.0798 10.801323307857169 9.929254675194768 7.979325448450358 0 0 0
342 34 1 0.1266165 17.581715091574832 9.73125766882736 1.8209829306966059 -1 0 0
376 37 4 -0.5800835 16.38003847415492 3.0241331714645066 7.9630515003082625 0 0 0
184 19 3 0.8478 12.961451168767057 5.803736023224929 11.09752820165361 0 1 0
208 21 5 0.0798 9.387605585645193 10.865261731041514 7.350395251551343 0 0 0
888 79 5 0.0582835 8.329900030592503 0.037443542419508015 6.49610129077429 1 1 1
325 33 1 0.1266165 12.51609852400957 10.162473179470911 11.076990613142543 0 0 0
867 78 3 0.7551165 7.280850101594121 8.777245325806982 9.157641214477136 0 1 0
868 78 4 -0.5800835 7.6851179790298145 8.244300801399955 8.076602206542336 0 1 0
869 78 2 -0.3889835 7.992587769269043 8.743622761721614 10.256032228094483 0 1 0
645 59 5 0.0582835 6.253094823603134 8.302401408928898 4.650045363264282 0 1 0
641 59 2 -0.3889835 7.9357695442130165 9.567273965897073 1.251737666259286 0 1 0
875 78 5 0.0582835 9.75558111097781 8.14412707203928 11.208164905770282 0 1 0
718 65 5 0.0582835 22.06889458383481 11.192094517844247 7.040292941866223 -1 0 0
864 77 5 0.0582835 8.188900291940744 5.423070910468489 7.513455867844586 0 0 0
858 77 1 0.1266165 7.767378821660261 4.917656146833089 8.251068114556825 0 0 0
857 77 2 -0.3889835 8.82830359484734 4.305853399977867 9.070708010203763 0 0 0
856 77 4 -0.5800835 9.413355918549023 3.175143144778551 7.245781514626057 0 0 0
191 20 1 0.0955 12.498318948372638 6.051410466283375 0.9188690309174586 0 0 1
859 77 5 0.0582835 11.899447556164349 2.308553967073642 7.485732236146812 0 0 0
874 78 5 0.0582835 9.87810659111586 8.569157140624316 9.558559505951957 0 1 0
196 20 2 -0.4048 12.098257566365316 4.678378061697409 1.030572480884129 0 0 1
870 78 1 0.1266165 9.26959330300559 8.07957795660419 10.276524207654811 0 1 0
855 77 3 0.7551165 9.616762501165596 3.415244354534829 8.393636745047845 0 0 0
637 59 1 0.1266165 7.326478769573086 8.574256371416977 4.6518766711202515 0 1 0
644 59 5 0.0582835 7.391137402383013 9.148249803445054 5.574851466893673 0 1 0
638 59 2 -0.3889835 7.619374339680888 9.455821711748639 3.5481950318047315 0 1 0
643 59 5 0.0582835 7.923455804494553 7.6732857169323605 4.634862997278326 0 1 0
854 77 2 -0.3889835 10.584615522707708 2.815446567628802 9.08378737319989 0 0 0
861 77 5 0.0582835 10.878749783077962 0.9322095796175598 8.052889017916893 0 0 0
853 77 1 0.1266165 11.46085286662609 1.8222635633183928 8.36038361472791 0 0 0
639 59 3 0.7551165 7.633454595765536 8.804578073113827 2.3699779368472322 0 1 0
915 82 3 0.7551165 7.889176680537754 0.8283966603788336 2.2378770932102503 0 0 0
520 49 4 -0.5800835 11.850273967920902 0.30333831301304565 5.526739370955056 1 0 1
921 82 5 0.0582835 10.234729395914396 1.868773994943314 3.283819872928781 0 0 0
914 82 2 -0.3889835 8.323469044619738 0.8699250859209223 3.566614005894553 0 0 0
916 82 4 -0.5800835 8.30411384378806 1.611224757565992 1.415152964543128 0 0 0
576 53 5 0.0582835 11.12429625362995 0.9662150192778847 1.0758893069317255 0 0 1
963 86 3 0.7551165 11.234653244694078 7.835536346856884 4.536773034594534 0 0 0
962 86 2 -0.3889835 11.874288667688539 8.225950022589387 3.369409075063402 0 0 0
967 86 5 0.0582835 12.610626089687264 10.192354685142522 3.8979563524915086 0 0 0
961 86 1 0.1266165 12.015799499124553 9.681541692372841 3.16309994631733 0 0 0
964 86 4 -0.5800835 10.858116705832748 8.732751827274553 5.292899588785174 0 0 0
965 86 2 -0.3889835 11.092106564201472 6.506456447022195 4.73295937599392 0 0 0
970 86 5 0.0582835 9.348213623644357 6.2974153841334255 5.895994560268636 0 0 0
966 86 1 0.1266165 10.421075895311972 6.168194070391682 5.971978543373979 0 0 0
972 86 5 0.0582835 10.804925315502325 6.726420127294246 6.808842095511786 0 0 0
971 86 5 0.0582835 10.500930601163805 5.089137642459016 6.141834237017298 0 0 0
380 37 5 0.0582835 13.860757440209424 5.671084995924818 7.584725702540615 0 0 0
374 37 2 -0.3889835 14.249770323141782 3.859051533877177 8.293832933326962 0 0 0
919 82 5 0.0582835 8.83580727383814 2.884934098370583 3.7159537262630558 0 0 0
913 82 1 0.1266165 9.271361351696711 1.9049162633423802 3.8888490439621286 0 0 0
373 37 1 0.1266165 14.64808290057314 5.064111479331027 7.685925334855594 0 0 0
344 34 5 0.0582835 13.832819185513483 8.462096373832019 5.812743283042826 -1 0 0
379 37 5 0.0582835 15.12269720992253 4.871715384493681 6.735979727464771 0 0 0
561 52 5 0.0582835 22.170689063188384 6.3664954345485585 11.196658238406691 0 0 0
920 82 5 0.0582835 9.561570659445435 1.8324094935612756 4.942436051459788 0 0 0
876 78 5 0.0582835 9.15490049019443 7.019793184372842 10.014175834113654 0 1 0
197 20 5 0.0798 13.035925471739397 6.442940198170527 1.7644444884048243 0 0 1
194 20 3 0.8478 10.887821000433158 4.540464658733821 0.5148782426340833 0 0 1
332 33 5 0.0582835 11.977075767196247 9.253754536198032 10.979460860464302 0 0 0
968 86 5 0.0582835 12.578393178002013 9.818401551799072 2.1917699799605743 0 0 0
837 75 5 0.0582835 14.89578693339841 3.2355824896476366 1.8917329960299218 0 1 0
526 49 5 0.0582835 14.180074753657465 1.551216405052721 6.215522865174352 1 0 1
860 77 5 0.0582835 12.256017775356298 1.4994084874252072 9.01806055123743 0 0 0
836 75 5 0.0582835 14.538439625122818 1.8324426692646654 2.857031531219038 0 1 0
835 75 5 0.0582835 13.289670965411313 2.6887048546253345 2.032020319961997 0 1 0
829 75 1 0.1266165 14.27939426197363 2.3920739416280985 1.9132650928485075 0 1 0
185 19 4 -0.5484 13.292852090009719 6.78644008191717 10.493820761304544 0 1 0
199 20 5 0.0798 10.950460243525464 7.5075723678826005 0.9564548776387488 0 0 1
326 33 2 -0.3889835 13.17332899989827 10.525882849530163 9.82710932282161 0 0 0
969 86 5 0.0582835 10.977333562140974 10.115669858727724 3.050704066397769 0 0 0
670 61 5 0.0582835 4.965038492344204 10.380454648620578 1.1141940591965218 0 0 0
201 21 1 0.0955 10.302823955151746 10.874921780165222 7.932281825465139 0 0 0
819 74 3 0.7551165 19.540160849778715 11.173742403618572 11.249617596584851 -1 0 0
146 15 2 -0.4048 16.772090424857925 4.32568332521888 0.1531702351702289 -1 0 0
1008 99 7 -0.5 17.301435388472115 7.2774191145201375 7.594635875360236 -1 0 0
465 44 5 0.0582835 17.465078631753098 -0.23642248788262182 5.822804293687759 0 0 0
154 16 3 0.8478 18.6844353625923 3.333253185074793 10.65559670922291 0 0 0
776 70 5 0.0582835 -0.1205459002090263 7.411692751029064 5.368771598006981 1 0 0
1007 99 7 -0.5 19.47042603736268 7.097008767099571 7.108256627627497 -1 0 0
299 30 5 0.0798 20.980073185712257 8.374180326236 1.4730027441477251 0 0 0
642 59 1 0.1266165 7.991230878183985 8.953199267174055 -0.07732100400299158 0 1 0
528 49 5 0.0582835 14.28421643672125 0.6561520199921225 4.586088098941785 1 0 1
300 30 5 0.0798 20.27970288702063 10.022609838914187 1.0932714040473004 0 0 0
1009 99 7 -0.5 18.270114562158426 5.229005897592396 7.324629151338242 -1 0 0
562 52 5 0.0582835 17.305730710176185 5.977794053252023 9.767176836703147 0 0 0
144 15 3 0.8478 17.30112302294363 5.56532555293988 0.4800432174901123 -1 0 0
418 40 5 0.0582835 20.39090163560775 3.268204613616858 4.441834795060457 -1 0 0
337 34 1 0.1266165 14.733071291547716 8.10920759340098 5.287403276544526 -1 0 0
345 34 5 0.0582835 14.380359515381052 7.224854965986911 4.674311358760313 -1 0 0
440 42 5 0.0582835 16.904014598211756 1.5298884569212685 1.0498179264858452 -1 0 1
381 37 5 0.0582835 15.4222863422898 5.529685197040462 8.369161599924182 0 0 0
434 42 2 -0.3889835 18.84801133904252 1.544639464673265 0.3945513862778325 -1 0 1
672 61 5 0.0582835 6.071285448812195 11.053119505018035 2.257167436049755 0 0 0
292 30 1 0.0955 20.71064941971871 9.136324847942054 0.6733604323267641 0 0 0
409 40 1 0.1266165 22.32833937006633 3.902863248900798 8.969555412106917 -1 0 0
419 40 5 0.0582835 21.334714576685187 1.9750519990939372 3.6851922518257174 -1 0 0
709 65 1 0.1266165 17.212713398705805 10.379519145684482 7.409277507594267 -1 0 0
338 34 2 -0.3889835 15.132101995055349 9.22370460494311 4.414870578531123 -1 0 0
1003 98 7 -0.5 17.776096838129906 4.33007641168283 3.9745420438613572 0 0 0
339 34 3 0.7551165 16.145467745784362 8.93624778679017 3.5802352205525336 -1 0 0
769 70 1 0.1266165 22.062075977594272 7.1536071364869205 4.919435257059858 0 0 0
382 37 5 0.0582835 16.510473117215447 1.0250495338857049 9.847958248067433 0 0 0
411 40 3 0.7551165 21.713889264161875 3.028664807167588 6.709463295807116 -1 0 0
778 70 5 0.0582835 19.881612216191385 5.306768755127378 0.8015550544157323 0 0 0
341 34 2 -0.3889835 16.521291275891784 9.968202295452896 2.7418529679781973 -1 0 0
420 40 5 0.0582835 20.192757535694415 1.4918915530091452 5.011376533675842 -1 0 0
527 49 5 0.0582835 15.518605413168963 0.4513950832279831 5.907046181458172 1 0 1
377 37 2 -0.3889835 14.82279938107817 1.7098077106024585 8.97572502826277 0 0 0
375 37 3 0.7551165 15.220785381404466 2.8893491434542016 8.37162688397065 0 0 0
1004 98 7 -0.5 16.186182451302987 2.81634324558714 4.473574008514007 0 0 0
343 34 5 0.0582835 15.488100248695876 7.906251583735795 6.081760656964176 -1 0 0
975 89 6 1 17.997173338003375 6.238629794339836 3.5557857989897297 0 0 0
775 70 5 0.0582835 21.49863732783751 6.769678755882509 5.697468344911597 0 0 0
556 52 4 -0.5800835 19.7213024374738 7.343902374423662 10.157300989698816 0 0 0
773 70 2 -0.3889835 21.340827911198247 4.779506879653695 2.13941854619079 0 0 0
378 37 1 0.1266165 15.825683913981617 0.6826199787879852 9.07759633378092 0 0 0
717 65 5 0.0582835 17.435583222623084 9.532132109822811 6.8051912504672085 -1 0 0
1001 98 8 1 17.529155420390254 3.014000201201854 4.39752307473305 0 0 0
416 40 5 0.0582835 0.046178452654288486 4.190369574742506 9.56363317256658 0 0 0
770 70 2 -0.3889835 22.236056770412066 6.110220260327525 3.8538643247910644 0 0 0
413 40 2 -0.3889835 22.036381211936707 2.473742298920271 5.519949945940187 -1 0 0
293 30 2 -0.4048 19.83838211588355 8.420157604373978 -0.18697746632817208 0 0 0
564 52 5 0.0582835 17.063910356779907 7.704970085782244 10.307962471193859 0 0 0
347 34 5 0.0582835 17.74043596308779 10.661685359765988 1.263178911508902 -1 0 0
558 52 1 0.1266165 17.103014394255965 6.718582805578699 10.590325646899151 0 0 0
712 65 4 -0.5800835 19.873232023768175 10.001246464574928 7.928359651311595 -1 0 0
780 70 5 0.0582835 19.37272499882384 4.120573575194096 1.958080465160769 0 0 0
1000 98 7 -0.5 18.093424549548008 2.20193430918561 3.4183802117854283 0 0 0
772 70 4 -0.5800835 20.025042393152148 6.246572432581199 3.254931817070386 0 0 0
414 40 1 0.1266165 20.863644128338873 2.261575515691526 4.626154543387095 -1 0 0
774 70 1 0.1266165 20.221776662720124 4.41416436025263 1.3595707960540797 0 0 0
433 42 1 0.1266165 17.56080034136247 1.1121331486886235 0.25939116640239196 -1 0 1
412 40 4 -0.5800835 20.53266582214985 3.280949110188235 6.944619374931548 -1 0 0
155 16 4 -0.5484 19.031589224377527 3.150224044404069 9.510078521653059 0 0 0
346 34 5 0.0582835 17.360130082344224 8.909106797886514 1.1872242410619944 -1 0 0
777 70 5 0.0582835 21.505278847552443 8.11814625333169 4.592602049107385 0 0 0
648 59 5 0.0582835 8.832101576588869 8.203635862061738 -0.03057899963223965 0 1 0
145 15 4 -0.5484 17.242139847393318 5.956051033056461 1.6239386817564425 -1 0 0
340 34 4 -0.5800835 16.677741346054294 7.809085187223092 3.572789463591528 -1 0 0
988 95 7 -0.5 22.437650766314608 8.15986461541747 8.442667422455832 -1 0 0
771 70 3 0.7551165 21.145896845927645 5.761865181341828 3.1115044982342566 0 0 0
1005 99 7 -0.5 17.92284246988267 6.5105572965166685 5.591600814926609 -1 0 0
198 20 5 0.0798 13.329284724719951 5.954912421441109 0.23278950986853544 0 0 1
410 40 2 -0.3889835 22.695469193136994 3.311586766487112 7.667661165732178 -1 0 0
348 34 5 0.0582835 18.481581485778342 9.513295275805534 2.424482610676309 -1 0 0
974 88 6 1 18.50951913074768 3.436742580319474 7.32171983797499 0 0 0
415 40 5 0.0582835 21.932462899528105 3.024058391744934 9.609520212919584 -1 0 0
1006 99 8 1 18.20374924836143 6.524010071011454 6.898865967840092 -1 0 0
417 40 5 0.0582835 21.685378257563986 4.810262176132313 8.95625283537613 -1 0 0
973 87 6 1 20.44110416196142 8.158236448769864 8.564515485801289 -1 0 0
715 65 5 0.0582835 17.19433781196792 10.092647878570835 8.5259665362496 -1 0 0
830 75 2 -0.3889835 14.448578844232257 1.4521294494508117 0.8070402656544705 0 1 0
945 84 5 0.0582835 6.341925660206345 0.5291599488610533 10.640254506983814 0 1 0
827 74 5 0.0582835 22.58086079902297 10.030980099666227 11.096422103282798 -1 0 0
291 30 1 0.0955 21.892463625588164 9.387131364747828 -0.23528901753080514 0 0 0
902 81 2 -0.3889835 1.7462037506000292 4.813190271610048 0.1493564970239202 1 0 0
153 16 2 -0.4048 17.391636316509935 3.17413631324905 11.195543613693948 0 0 0
666 61 1 0.1266165 5.182621749771119 11.23934764984582 1.6857258261652408 0 0 0
716 65 5 0.0582835 16.244059447592516 10.699893587715861 7.063311380847044 -1 0 0
904 81 4 -0.5800835 0.08169316670066734 6.347800305882883 -0.15404482070948447 1 0 0
555 52 3 0.7551165 19.435563465696564 6.8719364192606305 11.250692133439511 0 0 0
477 45 5 0.0582835 1.3603267191603652 3.266290922164797 18.034236210828695 0 1 0
475 45 5 0.0582835 2.4400053366950862 2.298865308210829 19.122280749020366 0 1 0
87 9 5 0.0798 2.7103169732446264 7.034863524100675 17.37903816865029 0 0 -1
82 9 1 0.0955 2.3003422313703337 7.10979986771584 15.301626535215828 0 0 -1
469 45 1 0.1266165 2.3494907569783807 3.2985764758688 18.60017030629949 0 1 0
476 45 5 0.0582835 2.3209037149717595 4.144719690205071 19.34292611328112 0 1 0
88 9 5 0.0798 3.137165534569401 5.599063098995044 16.60255334019612 0 0 -1
90 9 5 0.0798 2.609317067591516 6.355111323164683 14.558424053464734 0 0 -1
81 9 1 0.0955 2.437293638532311 6.375339439929283 16.569925574863063 0 0 -1
912 81 5 0.0582835 -0.07956257251998124 6.681286991263739 20.499264958569523 1 0 -1
470 45 2 -0.3889835 3.443783437784339 3.4472055101507393 17.751273127172425 0 1 0
906 81 1 0.1266165 0.983481745702114 6.909430566521965 20.5470752685204 1 0 -1
903 81 3 0.7551165 1.078894044106657 5.751671853714586 22.618886865187218 1 0 -1
911 81 5 0.0582835 1.4574232002315057 6.7088499232198755 19.610584149714864 1 0 -1
910 81 5 0.0582835 1.112641450710151 7.986642210354718 20.838133666148856 1 0 -1
471 45 3 0.7551165 3.5438017397619435 2.487506387278505 16.79738741180189 0 1 0
721 66 1 0.1266165 6.507720393663594 1.1359414858831662 19.373833315631856 0 0 -1
89 9 5 0.0798 3.0103913701518814 7.877546361771468 15.073594382664751 0 0 -1
214 22 3 0.8478 5.632843758106726 5.580311933608739 13.748133603966458 0 0 0
548 51 5 0.0582835 6.528456196463305 4.3102608930768 16.82787917856319 0 0 0
549 51 5 0.0582835 6.46842281395141 4.218896053263836 18.55804601629517 0 0 0
215 22 4 -0.5484 5.201709873121746 5.48958253152958 14.870602057247712 0 0 0
259 26 5 0.0798 6.346226173527072 7.823115034051397 16.711169022723315 0 0 0
728 66 5 0.0582835 6.167182415128466 0.8106046790114677 18.412912279013653 0 0 -1
234 24 3 0.8478 2.3831290446965765 3.6866304756191397 12.433082608221076 1 0 0
216 22 2 -0.4048 6.398664946370996 4.6076420887032645 13.232258512349627 0 0 0
473 45 2 -0.3889835 4.578827387383163 2.591756953338135 15.995499850357094 0 1 0
213 22 2 -0.4048 5.4174813639784976 6.650343456306622 12.86363425838397 0 0 0
472 45 4 -0.5800835 2.726895516166609 1.5041315905366601 16.671073957086413 0 1 0
474 45 1 0.1266165 4.837859383972294 1.6278215625578447 14.967242382885125 0 1 0
426 41 1 0.1266165 4.192997374780452 7.629769210943426 21.624273750075982 0 0 -1
423 41 3 0.7551165 4.318261659821488 9.807224909698881 20.372530253237183 0 0 -1
905 81 2 -0.3889835 1.6466608566104233 5.963706368116811 21.407084307549994 1 0 -1
424 41 4 -0.5800835 3.1223372670776475 9.567725596656379 20.142056636213837 0 0 -1
478 45 5 0.0582835 4.008652595988563 1.669061711134586 14.226552198638627 0 1 0
541 51 1 0.1266165 6.508421505340287 4.955789060782512 17.70993709423077 0 0 0
255 26 4 -0.5484 5.014993689781871 11.091069137065752 14.761964848556591 0 0 0
547 51 5 0.0582835 5.56392605585354 5.544748032133658 17.778747308813845 0 0 0
425 41 2 -0.3889835 4.968857429072068 8.856635024355285 21.14112974160955 0 0 -1
333 33 5 0.0582835 13.103228549004228 9.954115793364291 11.956570396291774 0 0 0
542 51 2 -0.3889835 7.710993636025737 5.711794181537735 17.871150285237025 0 0 0
22 3 1 0.0955 2.2918456473630635 10.003952459155238 12.018278808033724 0 0 0
83 9 2 -0.4048 0.9247142319699666 7.204723483724383 14.881302136140514 0 0 -1
236 24 2 -0.4048 2.207402230392826 3.208258579319436 13.73637623288624 1 0 0
86 9 2 -0.4048 1.1085598537966614 6.072800744097662 16.841458365927345 0 0 -1
422 41 2 -0.3889835 5.005997158898669 10.946209505709456 19.934887393422372 0 0 -1
254 26 3 0.8478 5.474138841892453 10.385988177073584 15.663904780812018 0 0 0
253 26 2 -0.4048 5.020187853860479 9.165717136177499 16.038359473459014 0 0 0
252 26 1 0.0955 5.81437220361579 8.705290034297695 17.124531058097123 0 0 0
251 26 1 0.0955 6.8298935263393235 9.772019092956869 17.3780742481822 0 0 0
30 3 5 0.0798 2.3134405922399788 9.963586551156277 13.11579956210658 0 0 0
260 26 5 0.0798 5.09605495659953 8.44189767549559 17.916343401446884 0 0 0
727 66 5 0.0582835 6.716932562587663 0.29712538491505475 20.042245892797897 0 0 -1
430 41 5 0.0582835 3.757060308064137 7.061647675815994 20.807881746707377 0 0 -1
722 66 2 -0.3889835 5.632186127602974 2.04814059769508 20.014128403079038 0 0 -1
258 26 5 0.0798 6.9179799566981535 10.11576586587824 18.38188977537614 0 0 0
256 26 2 -0.4048 6.5581966766189765 10.758987367682355 16.45680211034285 0 0 0
21 3 1 0.0955 3.6572208195108473 9.722930888625072 11.475568801860417 0 0 0
431 41 5 0.0582835 4.8634547760781555 6.845603355562598 22.077860520675582 0 0 -1
729 66 5 0.0582835 7.467934476367463 1.7177726336233725 19.19600921737902 0 0 -1
432 41 5 0.0582835 3.371953683342895 7.972211219481164 22.25842541462723 0 0 -1
479 45 5 0.0582835 5.846563735788412 1.8065149181220066 14.626526449611015 0 1 0
441 42 5 0.0582835 17.044719693030984 1.4928278679265712 22.546752065819597 -1 0 0
249 25 5 0.0798 17.985803833408827 0.9382673216576697 14.228651398148578 0 0 0
826 74 5 0.0582835 22.05139831643892 10.830251705127647 12.429926159653306 -1 0 0
565 53 1 0.1266165 10.515424851671613 0.2891779824387344 19.4140723762479 0 0 0
559 52 5 0.0582835 21.747789890551093 8.08070608046674 11.73802171653447 0 0 0
723 66 3 0.7551165 6.007232807694987 2.643689389110984 21.228826169238253 0 0 -1
599 55 5 0.0582835 7.811888380726635 3.242207107439687 15.012602538390032 0 1 -1
233 24 2 -0.4048 1.162890578132063 3.9973247322948717 11.860015905703174 1 0 0
443 42 5 0.0582835 -0.12550291919291018 1.5887113877028698 22.051171144084304 0 0 0
331 33 5 0.0582835 11.86897404085214 10.935985502376607 11.387025497221115 0 0 0
231 24 1 0.0955 0.8633029130312693 3.1769114359721744 14.037558212711865 1 0 0
725 66 2 -0.3889835 5.077116741741205 3.4971986355751232 21.679646535892648 0 0 -1
118 12 5 0.0798 22.37527431271673 0.04370902186561462 19.001990791437233 0 0 0
79 8 5 0.0798 9.711602790962958 10.817090353687854 17.425007946272768 0 0 -1
724 66 4 -0.5800835 7.091175542682905 2.4358440303931346 21.818658173688856 0 0 -1
598 55 5 0.0582835 8.475745363122753 2.8928878030858356 16.56068049132579 0 1 -1
600 55 5 0.0582835 8.147764452251554 1.5526643897192893 15.400970982487971 0 1 -1
544 51 4 -0.5800835 7.079810311787141 6.453950655548983 19.954159458180403 0 0 0
283 29 2 -0.4048 21.056046147925517 0.1365161997696694 11.601131192471716 -1 0 0
235 24 4 -0.5484 3.4762932093273244 3.810970030977713 11.911254068299312 1 0 0
605 56 2 -0.3889835 3.856230152889773 0.200829592351166 21.571543036394548 0 0 0
136 14 2 -0.4048 22.383586673585604 9.273769751505604 16.58444628373776 0 0 0
131 14 1 0.0955 21.98829678658778 8.904423036513668 17.864302625228042 0 0 0
138 14 5 0.0798 22.81899224803523 9.084291791947978 18.55164508882663 0 0 0
137 14 5 0.0798 21.66228714524467 7.860352346442176 17.965678782277365 0 0 0
238 24 5 0.0798 0.5744779877533425 3.6833549265968557 15.00530905795856 1 0 0
573 53 5 0.0582835 9.459627786578787 -0.08007188367384185 19.419968512577558 0 0 0
480 45 5 0.0582835 4.799765940370387 0.610724566589235 15.347119835582554 0 1 0
937 84 1 0.1266165 6.393545181106691 1.1204951279682063 11.576444496530701 0 1 0
943 84 5 0.0582835 5.902049895450124 0.5209972509658409 12.381884478366965 0 1 0
939 84 3 0.7551165 8.674980031967104 0.43382696208921656 12.043785602094989 0 1 0
543 51 3 0.7551165 7.909018481263405 6.4417836898077425 19.034606575903783 0 0 0
143 15 2 -0.4048 17.83461891350889 6.186453304884982 22.56279790284313 -1 0 -1
250 25 5 0.0798 18.527088926159426 -0.16363381642346297 13.058786693129294 0 0 0
595 55 5 0.0582835 12.914660811483351 0.33132651041666206 15.444659787110785 0 1 -1
105 11 4 -0.5484 17.637220731574967 10.931971305797449 16.58735256113515 0 0 0
647 59 5 0.0582835 8.26942923486605 9.696633391220825 22.267152148615683 0 1 -1
361 36 1 0.1266165 8.72316159203943 10.888386726783189 12.93051742465615 0 0 0
832 75 4 -0.5800835 13.712275405511352 3.074043199859277 22.474599334833034 0 1 -1
612 56 5 0.0582835 2.341238683309188 1.5875827193107985 21.779618193913162 0 0 0
141 15 1 0.0955 16.963627528383277 4.153275748470297 21.870270671360647 -1 0 -1
567 53 3 0.7551165 10.824655672029929 0.1279545199117391 21.770322762609325 0 0 0
242 25 1 0.0955 17.64456630724081 0.07542917870437396 13.56293572397986 0 0 0
941 84 2 -0.3889835 9.929348246062377 0.8199656558234408 12.363594721472571 0 1 0
838 75 5 0.0582835 14.60313390572018 2.2768959337340187 20.03639704263755 0 1 -1
117 12 5 0.0798 0.3821148303825838 0.7312970941874548 17.759663492635454 1 0 0
739 67 5 0.0582835 19.700635350570234 11.126354834146555 21.284132574839383 0 0 -1
594 55 1 0.1266165 8.498942963316408 2.5888963075747897 15.48186424466335 0 1 -1
839 75 5 0.0582835 14.223016766613986 0.7158005063482423 19.539046838652478 0 1 -1
294 30 3 0.8478 20.411604678945686 8.264943478921898 21.753056700181443 0 0 -1
219 22 5 0.0798 6.9498165653236885 6.937144287750341 11.81489468844387 0 0 0
944 84 5 0.0582835 5.75801455199959 1.9891624170535378 11.386684792173918 0 1 0
545 51 2 -0.3889835 9.066184214369757 7.173071996513906 19.11901267218109 0 0 0
589 55 1 0.1266165 13.148946121974982 1.4281146584963982 15.49647341640473 0 1 -1
187 19 5 0.0798 13.51839597465927 2.932665719389112 11.633720322881603 0 1 0
65 7 4 -0.5484 11.264179502883515 9.988455943141405 22.18829305652741 0 0 -1
189 19 5 0.0798 11.314928756502741 3.3413511782336562 11.608034255447473 0 1 0
593 55 2 -0.3889835 9.811959233663844 2.770859711374253 14.853778490587796 0 1 -1
551 51 5 0.0582835 10.258738374153747 8.596778301040914 20.2791315261336 0 0 0
592 55 4 -0.5800835 10.588266388153427 1.3163019059720376 16.415234551809565 0 1 -1
591 55 3 0.7551165 10.77975034487876 2.0548506576182475 15.432997744229745 0 1 -1
550 51 5 0.0582835 9.444685558422487 7.319910577962377 21.16673972668177 0 0 0
953 85 2 -0.3889835 15.010721422168995 10.633808909205381 13.891260585310276 0 0 0
364 36 4 -0.5800835 8.184336624759432 8.93737475840191 14.614193014559625 0 0 0
365 36 2 -0.3889835 10.069716425909304 7.864501445010456 14.15445357081678 0 0 0
362 36 2 -0.3889835 9.646466700513866 9.791912664926175 13.07952439103213 0 0 0
370 36 5 0.0582835 8.773599429016018 6.416269372517489 14.82842692070823 0 0 0
546 51 1 0.1266165 9.349815618750746 7.9759982906273335 20.301789716845118 0 0 0
552 51 5 0.0582835 8.558051619454165 8.648668024843039 20.546325050684697 0 0 0
590 55 2 -0.3889835 12.016871959238246 2.2019716765411763 14.896439694188684 0 1 -1
951 85 3 0.7551165 14.272569109174853 9.562286064165086 14.300423364413975 0 0 0
5 1 4 -0.5484 9.649482190123466 3.5836701870604886 20.780163307787202 0 0 0
3 1 2 -0.4048 10.368949206426093 3.9611730324197407 18.654254256861375 0 0 0
2 1 1 0.0955 11.53360330560903 4.716007322766734 18.128656881542547 0 0 0
9 1 5 0.0798 10.949760057740464 5.546942544228458 17.682205338092253 0 0 0
7 1 5 0.0798 12.496471416636076 6.282621010702463 19.301610514197836 0 0 0
10 1 5 0.0798 12.053859055224008 4.303487228502992 17.204483975603157 0 0 0
1 1 1 0.0955 12.246778191408511 5.2076133016447725 19.348593873555743 0 0 0
4 1 3 0.8478 10.465980977471443 4.098634847984375 19.994858200824403 0 0 0
6 1 2 -0.4048 11.509723655363153 4.789561148618426 20.46829950982192 0 0 0
8 1 5 0.0798 13.110872495708053 4.634159542972983 19.3873181907451 0 0 0
957 85 5 0.0582835 13.787943662636074 7.2567413794737785 15.762751704894232 0 0 0
949 85 1 0.1266165 14.011116850465942 7.216847703268308 14.713196718404582 0 0 0
955 85 5 0.0582835 13.137599964123854 7.087789443819618 14.090174817116615 0 0 0
363 36 3 0.7551165 9.229141158652427 8.856698889482374 13.996957993749763 0 0 0
371 36 5 0.0582835 10.51775476258433 6.161657209832568 15.096097207111525 0 0 0
952 85 4 -0.5800835 13.089623169862854 9.724077648235822 14.665581492527705 0 0 0
372 36 5 0.0582835 9.64462601204092 7.3400525060985675 16.08310700289453 0 0 0
366 36 1 0.1266165 9.726551274448836 6.87265529197655 15.081313155537659 0 0 0
73 8 2 -0.4048 11.154281166890526 9.427940084249824 17.23047604000378 0 0 -1
956 85 5 0.0582835 14.623179417131695 6.327053360524439 14.511198336850239 0 0 0
75 8 4 -0.5484 13.126389622307048 8.861502675964465 18.123286475390874 0 0 -1
74 8 3 0.8478 12.40717404184115 9.731636854720074 17.656836051943934 0 0 -1
76 8 2 -0.4048 12.713615335703942 11.055561401502585 17.502529001510542 0 0 -1
190 19 5 0.0798 11.351718148118621 4.186094769655543 13.13850847601933 0 1 0
182 19 1 0.0955 11.811899431753067 4.117948234911031 12.152033830630565 0 1 0
181 19 1 0.0955 13.300491934209179 3.8467357001650306 12.204856205610795 0 1 0
186 19 2 -0.4048 13.90955054341155 4.913095920430877 11.55634460433894 0 1 0
597 55 5 0.0582835 13.300358332520757 1.70235169210562 16.55692281999897 0 1 -1
188 19 5 0.0798 13.668447905815693 3.581753321687093 13.207745880798551 0 1 0
257 26 5 0.0798 7.779839272602688 9.299426566733354 17.12761296419923 0 0 0
124 13 3 0.8478 15.029673005723224 7.903347505403788 20.53245951710512 0 0 -1
126 13 2 -0.4048 15.107752328472474 6.899508287306848 19.561739291102633 0 0 -1
125 13 4 -0.5484 14.445916646210335 7.880512445115377 21.62891270531252 0 0 -1
448 43 4 -0.5800835 2.2740605741617794 0.39963229528354993 11.7856934863453 0 1 0
568 53 4 -0.5800835 9.809395318990264 0.8323571282454211 21.94520141737106 0 0 0
999 97 7 -0.5 14.961435039822332 4.516748608461767 15.930610562439835 0 0 0
128 13 5 0.0798 15.556337743005512 7.2428987554370625 17.44947177450199 0 0 -1
64 7 3 0.8478 12.34280110557897 10.534427749781582 22.061536960133896 0 0 -1
70 7 5 0.0798 14.568456757810097 11.18319169986934 20.16308028061326 0 0 -1
571 53 5 0.0582835 10.410121899932584 1.4092848709772343 19.501081287374188 0 0 0
833 75 2 -0.3889835 14.321066334212338 1.0026441391318908 21.684915436973686 0 1 -1
840 75 5 0.0582835 12.985605524989847 1.9481304032726354 20.347786244664043 0 1 -1
831 75 3 0.7551165 14.142255010294184 1.916496881038752 22.68833452624462 0 1 -1
834 75 1 0.1266165 13.978967005066197 1.4771235557572806 20.348586417493834 0 1 -1
148 15 5 0.0798 15.938493010620403 4.272988792795899 21.47278746125754 -1 0 -1
596 55 5 0.0582835 14.066752102242765 1.628034329457379 14.929034484425095 0 1 -1
130 13 5 0.0798 15.542135963472138 9.343171768327851 18.352070631571685 0 0 -1
977 91 6 1 8.8268476521027 2.400626273193743 22.523007434540315 0 0 0
369 36 5 0.0582835 7.721072343538749 10.567056991537935 12.481432108991457 0 0 0
200 20 5 0.0798 11.707161269389665 7.4076386358962765 22.54551623265509 0 0 0
938 84 2 -0.3889835 7.772934205251468 1.500149370615837 11.906723443191982 0 1 0
239 24 5 0.0798 22.640284892616577 2.86760512161606 12.521621186104726 0 0 0
103 11 2 -0.4048 17.974703076375274 10.151531201845598 14.572277067957499 0 0 0
55 6 4 -0.5484 22.455142193846594 3.8265802429017826 19.30908375375807 -1 0 0
232 24 1 0.0955 0.15506451733201412 3.6932288706701377 12.832160100550492 1 0 0
444 42 5 0.0582835 21.950167462407133 0.1744916928617107 21.86140189636538 -1 0 0
84 9 3 0.8478 0.24725817072130346 6.560606779140105 15.834071604594957 0 0 -1
237 24 5 0.0798 0.5744119166655387 2.140958987524466 14.08137003029588 1 0 0
28 3 5 0.0798 4.3445825578888515 9.432394439784822 12.265008695380661 0 0 0
217 22 5 0.0798 7.788568742265812 4.890342916894881 11.717038149445196 0 0 0
111 12 1 0.0955 22.62387483794063 0.09951362176075025 17.945105174334078 0 0 0
29 3 5 0.0798 1.6105138875400171 9.248884609729046 11.71236731618129 0 0 0
133 14 2 -0.4048 20.877757135362014 10.76506702626451 17.17844282095928 0 0 0
946 84 5 0.0582835 11.907839603177177 0.19553428348967433 12.626034217813583 0 1 0
212 22 1 0.0955 6.095523996699801 6.312902336794016 11.745578372609273 0 0 0
553 52 1 0.1266165 21.73434741673722 7.059556631218701 11.96148767855885 0 0 0
557 52 2 -0.3889835 18.177473989810267 6.519943884347002 11.59110046118152 0 0 0
109 11 5 0.0798 19.406276611290014 9.085002534820429 13.57090912323219 0 0 0
116 12 2 -0.4048 21.36850817970104 0.49086793363569503 17.47284116821409 0 0 0
435 42 3 0.7551165 19.711250876180657 1.1293456947611933 22.606330607174623 -1 0 0
121 13 1 0.0955 15.89320146344889 7.412489653980967 18.49710255485244 0 0 -1
741 67 5 0.0582835 18.566656283617405 10.911648810209892 20.007841340674315 0 0 -1
157 16 5 0.0798 19.238739515571556 3.0118825156909965 13.469448592083362 0 0 0
57 6 5 0.0798 18.45441129884122 3.18121947467084 18.0232308991031 -1 0 0
740 67 5 0.0582835 18.276656857815276 10.057279064875669 21.51689964624792 0 0 -1
53 6 2 -0.4048 21.359623101091934 3.9602373882054 17.258765402346768 -1 0 0
554 52 2 -0.3889835 20.3517754932843 6.669713523929206 12.29103372742284 0 0 0
108 11 5 0.0798 17.639292868221176 7.2359181856294965 15.13266397257768 0 0 0
950 85 2 -0.3889835 14.82285445530327 8.318615383851634 14.272706321096072 0 0 0
123 13 2 -0.4048 15.721813368866577 9.055513413590552 20.174576569049684 0 0 -1
240 24 5 0.0798 22.69250282905805 4.557788462692281 13.071836981862765 0 0 0
56 6 2 -0.4048 20.187762939933968 3.8534611401088226 19.178241049175497 -1 0 0
442 42 5 0.0582835 21.70906671811021 1.5465342744858832 20.797862231812896 -1 0 0
285 29 4 -0.5484 21.681349771541154 0.12926792349334312 13.81937195186169 -1 0 0
560 52 5 0.0582835 22.33435505512745 6.9921784398582165 12.865392312461438 0 0 0
54 6 3 0.8478 21.4088276545179 3.8558115296105333 18.62086413465862 -1 0 0
147 15 5 0.0798 17.248554713284094 3.243187874953593 21.389447716144346 -1 0 -1
110 11 5 0.0798 17.780008034698675 8.511958860169997 13.054550707385573 0 0 0
295 30 4 -0.5484 19.881203928868075 7.652282485810078 20.82573831536808 0 0 -1
296 30 2 -0.4048 21.63529906997188 8.78707249058198 21.6386745919295 0 0 -1
127 13 5 0.0798 16.80818044089265 6.830656410008946 18.51117029410021 0 0 -1
437 42 2 -0.3889835 21.01152892554483 1.6063557983815802 22.767077902848094 -1 0 0
438 42 1 0.1266165 21.98467905630305 1.2109673927084512 21.808460675803843 -1 0 0
152 16 1 0.0955 17.43726395996479 3.5009671126256126 12.612288722266829 0 0 0
995 97 7 -0.5 17.18913177874818 4.685796107549247 15.920075847359668 0 0 0
211 22 1 0.0955 6.767176979753809 4.9329641894036556 11.900679997870016 0 0 0
106 11 2 -0.4048 18.26041980115434 8.707377371324407 16.29227787950254 0 0 0
149 15 5 0.0798 18.67746901492327 5.054158835204375 21.236071518330494 -1 0 -1
129 13 5 0.0798 17.17042919870298 9.25305814609311 18.593444484816345 0 0 -1
60 6 5 0.0798 19.845084430983125 4.67712679698963 16.01253936802566 -1 0 0
135 14 4 -0.5484 21.86876874083035 10.902032588288689 15.118681677675323 0 0 0
59 6 5 0.0798 19.86733530919612 3.0186071530194063 16.305849724553735 -1 0 0
140 14 5 0.0798 21.196044776698415 10.400986419049788 19.19853264075749 0 0 0
142 15 1 0.0955 17.69497401517749 5.380037004841013 21.400970664593185 -1 0 -1
159 16 5 0.0798 16.907168804400797 2.8358044391681574 13.370771428871127 0 0 0
158 16 5 0.0798 19.136852678802722 4.746805945080425 13.453703827577707 0 0 0
998 97 7 -0.5 16.022340147997753 4.1586544970879595 17.827850285255845 0 0 0
156 16 2 -0.4048 19.606852713485946 3.7496221883083205 11.599187689766469 0 0 0
102 11 1 0.0955 18.371076435846966 8.871564801658112 13.92849694272755 0 0 0
122 13 1 0.0955 16.242391359618455 8.787128005174157 18.922750523692706 0 0 -1
104 11 3 0.8478 17.935688600045225 9.974015071142 15.8613434666396 0 0 0
52 6 1 0.0955 20.05055265654608 3.9871937464681255 16.832264496946824 -1 0 0
58 6 5 0.0798 18.692385613846092 4.910441697407703 18.329576632160567 -1 0 0
160 16 5 0.0798 16.878052694293 4.482772353307282 12.636553437681103 0 0 0
101 11 1 0.0955 18.539260373957667 7.969745860528248 15.10847527398915 0 0 0
134 14 3 0.8478 21.748324411731033 10.329606840739741 16.19476506864911 0 0 0
997 97 7 -0.5 16.10100960719776 2.6076822248820624 16.074392611254048 0 0 0
107 11 5 0.0798 19.486520565502904 7.322682200538824 15.084824029050504 0 0 0
85 9 4 -0.5484 22.148951049425087 6.445894300330824 15.829643946752556 -1 0 -1
139 14 5 0.0798 19.93935014945804 9.37589368404169 18.343045223563692 0 0 0
996 97 8 1 16.121520568741968 3.9935128462062153 16.450575384363248 0 0 0
150 15 5 0.0798 17.259306447004438 5.832705124072564 20.491877245365004 -1 0 -1
151 16 1 0.0955 18.921912976492766 3.855906103027463 12.8699583286081 0 0 0
132 14 1 0.0955 20.9644246528708 9.905218231878557 18.272670236551512 0 0 0
51 6 1 0.0955 19.20984982355298 3.9303651908768535 18.128678148403054 -1 0 0
80 8 5 0.0798 10.126107092906654 10.673961167593063 15.679139496231988 0 0 -1
243 25 2 -0.4048 16.67175073512498 0.5063704875332852 12.594498165579354 0 0 0
63 7 2 -0.4048 12.632430603483837 11.18478774634424 20.888941135871935 0 0 -1
632 58 5 0.0582835 2.1422365311435287 10.746929146562442 22.335401102869167 0 -1 0
436 42 4 -0.5800835 19.354872696461165 0.382437808404551 21.673723297351223 -1 0 0
72 8 1 0.0955 10.5444779227196 10.639801677811278 16.72475969605512 0 0 -1
68 7 5 0.0798 15.599347292305222 10.933316987292372 22.260724049111154 0 0 -1
733 67 1 0.1266165 18.650864823852185 11.020588256724565 21.077385335921917 0 0 -1
606 56 1 0.1266165 2.9133786166917464 0.8873378465595428 22.433466103653668 0 0 0
183 19 2 -0.4048 11.670616404308747 5.385703742029518 11.411199271803342 0 1 0
646 59 5 0.0582835 7.0682882818961215 8.375007808421753 22.83774775607808 0 1 -1
572 53 5 0.0582835 10.879507725331594 -0.143436942236456 18.420811228450923 0 0 0
245 25 4 -0.5484 14.459257740094243 -0.03419847546610563 11.98918066723658 0 0 0
298 30 5 0.0798 21.964163557883737 10.45444083641323 22.776426000016013 0 0 -1
244 25 3 0.8478 15.484270485817763 -0.22662186351401914 12.717335399154893 0 0 0
730 66 5 0.0582835 6.310510148610702 4.856910554345374 22.77762193903411 0 0 -1
610 56 5 0.0582835 2.1818472038495167 0.2062526966575913 22.821853043598914 0 0 0
822 74 1 0.1266165 21.888055220006816 10.770244702791143 11.384898814104654 -1 0 0
697 64 1 0.1266165 1.1148893332337753 19.03537737430863 9.38489445829319 1 -1 1
703 64 5 0.0582835 2.02955793619155 18.989011019757363 8.821371682188659 1 -1 1
224 23 3 0.8478 5.029771474826709 15.84496194135077 6.49628704275523 0 0 0
226 23 2 -0.4048 4.48793214501414 14.614987817552654 6.140747437043745 0 0 0
221 23 1 0.0955 3.785169892887478 14.121759870611614 7.2657193894951275 0 0 0
225 23 4 -0.5484 5.688422278607157 16.501379314123863 5.732542953474308 0 0 0
223 23 2 -0.4048 4.698725459523514 16.174133197686675 7.841211386674693 0 0 0
222 23 1 0.0955 3.9277769977165993 15.105621134711537 8.351866785118109 0 0 0
228 23 5 0.0798 3.861577270735719 13.105174686564123 7.574905426159157 0 0 0
227 23 5 0.0798 2.7825867099395336 14.16833925206774 6.786802953134232 0 0 0
229 23 5 0.0798 2.9467679260814186 15.507464143339357 8.797571009113407 0 0 0
395 38 5 0.0582835 4.058296086950109 18.938290528975827 6.80913438302898 0 -1 1
11 2 1 0.0955 0.9943132681309003 18.403517216827854 3.3977888327509045 0 0 0
16 2 2 -0.4048 1.4026771435565157 17.65436779269305 2.248311560563831 0 0 0
15 2 4 -0.5484 0.4021773923484268 16.840767604812857 0.3836465161600875 0 0 0
14 2 3 0.8478 0.2909411753107721 17.46895475949329 1.4434505021266355 0 0 0
885 79 5 0.0582835 6.030703066113631 18.553180343289903 7.54861433507177 1 0 1
877 79 1 0.1266165 7.031159513520656 18.63272032065532 7.846185931695472 1 0 1
230 23 5 0.0798 4.5537800073227865 14.662759586642728 9.080547269056957 0 0 0
665 61 2 -0.3889835 3.9600877878224043 11.580457796811235 2.46669404529396 0 0 0
671 61 5 0.0582835 5.407208741111114 12.067243447010435 1.003344225362281 0 0 0
792 71 5 0.0582835 7.080442389883222 13.2529783964891 4.793881410382072 0 0 1
396 38 5 0.0582835 2.6210672708713907 18.959386714736507 5.855470521249948 0 -1 1
493 47 1 0.1266165 1.6597793147233018 13.899255060563979 3.3696234411486774 0 0 0
390 38 1 0.1266165 3.5200696549795127 19.565609748731116 6.117431478861354 0 -1 1
394 38 5 0.0582835 4.151617168240559 19.687290610130216 5.174766531942285 0 -1 1
501 47 5 0.0582835 0.9804867169040601 13.0034267785811 3.339046202353839 0 0 0
499 47 5 0.0582835 1.3441780082887096 14.65155959175424 2.6049016228440274 0 0 0
880 79 4 -0.5800835 7.206417456592791 20.92324073372122 6.401426454177489 1 0 1
209 21 5 0.0798 12.246933989240462 11.518170610245168 7.453190508730581 0 0 0
786 71 1 0.1266165 7.1955327046909705 12.307789762000539 5.2701965936350135 0 0 1
540 50 5 0.0582835 5.039526631092513 21.20617888713245 9.241216365162645 0 0 0
879 79 3 0.7551165 7.3465834631641025 20.978134157065572 7.6017790764063236 1 0 1
534 50 1 0.1266165 4.259585788847364 21.009975737051025 9.915762172932409 0 0 0
17 2 5 0.0798 1.0632266341086218 18.00238167639647 4.393791989161366 0 0 0
500 47 5 0.0582835 2.69836438516815 13.587316254901712 2.9351886136728997 0 0 0
789 71 5 0.0582835 8.274363570828386 14.380543636457022 9.625032537151395 0 0 1
357 35 5 0.0582835 3.6864432926977293 19.851700413211297 2.3875345017134837 1 0 0
884 79 5 0.0582835 7.129489394958452 17.806020256165578 8.524618807586059 1 0 1
878 79 2 -0.3889835 7.28801730236846 19.94881011344205 8.46736831866556 1 0 1
301 31 1 0.1266165 7.455661449170039 15.752151962001367 2.75520120651895 0 0 1
309 31 5 0.0582835 6.514473365426622 15.291513383996675 2.586735443376494 0 0 1
308 31 5 0.0582835 7.229943654307842 16.818125891319006 2.88815447045886 0 0 1
704 64 5 0.0582835 1.3176584269480138 19.146088171223738 10.49763150184162 1 -1 1
538 50 5 0.0582835 3.439870874906504 21.33292951696411 9.342413062678348 0 0 0
785 71 2 -0.3889835 6.660880095574231 12.556724346678646 6.530178705724095 0 0 1
350 35 2 -0.3889835 3.4838490367963217 20.40980242428901 0.4486039992293283 1 0 0
389 38 2 -0.3889835 3.235948900279987 20.814596263102462 6.741173604651072 0 -1 1
349 35 1 0.1266165 3.6052819465100696 20.76735829637526 1.7765324127881168 1 0 0
25 3 4 -0.5484 3.029211162772019 12.934143257658215 10.368205843516135 0 0 0
783 71 3 0.7551165 7.258038737886501 13.483538973140952 7.319967243443178 0 0 1
355 35 5 0.0582835 4.460026966790289 21.395898295635458 1.946601805570841 1 0 0
352 35 4 -0.5800835 5.507023648043513 19.429400560908213 0.6112849164785723 1 0 0
95 10 4 -0.5484 22.52010594921435 22.242232600365572 2.5477444124421362 -1 0 0
635 58 5 0.0582835 4.8480232726726395 16.435856079120768 0.9878651148839604 0 -1 1
356 35 5 0.0582835 2.7520793454353494 21.390699741386133 2.025742141720572 1 0 0
634 58 5 0.0582835 3.186733739422554 16.277842961412414 1.3080949312249741 0 -1 1
351 35 3 0.7551165 4.498984286181236 19.706092839373948 -0.09036655161945864 1 0 0
627 58 3 0.7551165 3.0002122858042806 14.00674592851728 -0.09979433024665083 0 -1 1
290 29 5 0.0798 19.47469627122286 22.57566395303097 10.794480171008406 -1 -1 0
881 79 2 -0.3889835 7.5891957491713 22.164335027706407 8.205014740259356 1 0 1
782 71 2 -0.3889835 6.648505311018393 13.625652688646039 8.522483355443695 0 0 1
42 5 1 0.0955 14.183054254968416 19.93208675151705 10.728912932991712 0 -1 0
494 47 2 -0.3889835 1.7090046077107057 14.469876168210329 4.654016024990913 0 0 0
630 58 1 0.1266165 3.996997155316576 15.991809144541016 0.6203057869932964 0 -1 1
40 4 5 0.0798 20.317655555277796 16.13858109730185 2.3695282420075374 -1 -1 0
496 47 4 -0.5800835 22.70579407541247 15.232107084849687 4.3326921789407145 -1 0 0
495 47 3 0.7551165 0.556796856145688 15.150569627467055 5.081463938556707 0 0 0
629 58 2 -0.3889835 4.076662446645681 14.556672877251094 0.4865007261410312 0 -1 1
787 71 5 0.0582835 6.982675771939934 15.623062703491732 9.070882517846588 0 0 1
781 71 1 0.1266165 7.227349711740536 14.608577275925345 9.460433936681682 0 0 1
99 10 5 0.0798 21.014713675172324 19.593368020259028 -0.16110801228123173 -1 0 0
533 50 2 -0.3889835 4.191308325171739 19.620713818049897 10.335834292318651 0 0 0
883 79 5 0.0582835 7.67531519519705 18.407220553895897 7.036715681370644 1 0 1
302 31 2 -0.3889835 8.501008704120492 15.506701059307614 1.7899407805714052 0 0 1
799 72 5 0.0582835 9.813878420249463 19.144757183033523 0.14792990123905206 0 0 1
512 48 5 0.0582835 6.381872339115567 19.215578160324753 4.545923889431799 0 0 0
24 3 3 0.8478 3.0694745618460066 11.816402874098921 10.860365968925047 0 0 0
720 65 5 0.0582835 21.735608697563382 11.577374612431488 8.71822119751442 -1 0 0
180 18 5 0.0798 0.18998532047761607 13.705322385656233 10.882981998494254 0 0 0
707 64 5 0.0582835 22.676762170620865 21.72405900266074 5.460419283435439 0 -1 1
315 32 3 0.7551165 14.678543734947576 15.630001981264371 10.919033980363759 0 0 0
784 71 4 -0.5800835 8.306257864386007 14.179713495492415 7.058203765276706 0 0 1
313 32 1 0.1266165 12.357527004739218 15.84466097183785 10.438249851182366 0 0 0
922 82 5 0.0582835 7.257754152001903 22.87112310102159 -0.21088334301015985 0 -1 0
519 49 3 0.7551165 12.455419797914846 22.561378050058238 6.133464544165986 1 -1 1
307 31 5 0.0582835 7.803265590156015 15.531466723549906 3.7632722149353137 0 0 1
304 31 4 -0.5800835 8.475809773730862 13.21538961885251 2.332149329781182 0 0 1
790 71 5 0.0582835 8.282393480829539 12.096086587341482 5.250781839675371 0 0 1
282 29 1 0.0955 20.52026710336962 22.22727496861123 10.796299394751195 -1 -1 0
303 31 3 0.7551165 8.942464816092802 14.189082104637965 1.658398082867993 0 0 1
523 49 5 0.0582835 10.050166800751706 21.473890125445127 5.557458407565764 1 -1 1
321 32 5 0.0582835 12.332520071113267 16.86069905209873 10.74333148866939 0 0 0
524 49 5 0.0582835 10.182869052504305 20.411732171583385 7.032557274165924 1 -1 1
36 4 2 -0.4048 20.00859906737835 13.07184099113133 1.5470801993040235 -1 -1 0
525 49 5 0.0582835 10.117850423915083 22.175451980117238 7.219699275908188 1 -1 1
319 32 5 0.0582835 12.530011444165359 15.835575567195068 9.364747730938449 0 0 0
575 53 5 0.0582835 11.803347580667769 22.548994065491083 1.6512688622028688 0 -1 1
510 48 1 0.1266165 12.000627415561574 19.45194935427813 3.788491753607981 0 0 0
487 46 5 0.0582835 10.298446286340047 20.664147896344435 10.249939022126412 0 0 0
205 21 4 -0.5484 10.205527547316596 13.17358416135458 10.419124346258423 0 0 0
539 50 5 0.0582835 4.414198944449946 21.596589983098827 10.818278334532781 0 0 0
312 31 5 0.0582835 10.993373633825477 12.214866638602825 1.276651371584172 0 0 1
306 31 1 0.1266165 10.409380674975823 12.676073012860204 0.4789920013319957 0 0 1
310 31 5 0.0582835 9.635307103574407 11.946466299696022 0.21153738724940813 0 0 1
511 48 5 0.0582835 7.067518172914254 19.245190380263796 2.841749005231337 0 0 0
305 31 2 -0.3889835 9.884834655511042 14.005534187381427 0.7285845053879595 0 0 1
506 48 2 -0.3889835 8.392706083016659 18.970174939535013 4.420304159573015 0 0 0
516 48 5 0.0582835 12.155788953988056 19.13880505664053 2.7208580313830915 0 0 0
583 54 5 0.0582835 13.40824263735627 14.87386150453139 3.6731240225684654 0 0 0
514 48 5 0.0582835 12.069818638646314 20.514019428723184 3.7431695301997525 0 0 0
577 54 1 0.1266165 12.351528927552717 14.932861566434939 3.389706319981634 0 0 0
481 46 1 0.1266165 10.216444304326423 19.593273666342558 10.052609466823169 0 0 0
507 48 3 0.7551165 9.550548432776495 19.47871572876513 3.876302660093016 0 0 0
508 48 4 -0.5800835 9.636722927192064 20.30921267635717 3.01001786710618 0 0 0
676 62 4 -0.5800835 12.850660649275524 16.348235955532928 6.294039758126408 0 0 0
675 62 3 0.7551165 12.508433343863482 17.213760019320038 7.09880722916483 0 0 0
677 62 2 -0.3889835 13.296278880097884 18.150563302506285 7.612754044913609 0 0 0
674 62 2 -0.3889835 11.257874391516523 17.32865981466993 7.528228783812898 0 0 0
489 46 5 0.0582835 9.142883086119118 19.399615429639333 9.88831808076369 0 0 0
488 46 5 0.0582835 10.854510066719307 19.401706159703043 9.229453132052141 0 0 0
584 54 5 0.0582835 11.821353875976627 15.249880513878571 4.3164815970450725 0 0 0
578 54 2 -0.3889835 12.059355106281068 15.809376174608603 2.2190602511323143 0 0 0
515 48 5 0.0582835 12.820876783130396 19.013486912845313 4.398754019639914 0 0 0
681 62 5 0.0582835 10.20057234294742 16.30658250755947 5.892423416604003 0 0 0
673 62 1 0.1266165 10.26531769229147 16.3589354463982 7.025866010232651 0 0 0
680 62 5 0.0582835 9.275086129250447 16.66000276249415 7.354312765972121 0 0 0
679 62 5 0.0582835 10.54436983452132 15.355418992270728 7.428904146299129 0 0 0
513 48 5 0.0582835 7.176489642792692 20.62343642352473 3.9507392382176985 0 0 0
509 48 2 -0.3889835 10.715786752010148 18.92338918642477 4.3776921924695 0 0 0
585 54 5 0.0582835 11.972400503741625 13.911782929287684 3.177223122436325 0 0 0
505 48 1 0.1266165 7.1897841591363525 19.50031067729154 3.8919620572381723 0 0 0
203 21 2 -0.4048 11.214400615864472 13.018051212099069 8.417975025749758 0 0 0
204 21 3 0.8478 10.393293351338595 12.520433738621714 9.436502000485325 0 0 0
580 54 4 -0.5800835 13.300182374087171 14.464292199005195 0.8814639920575098 0 0 0
210 21 5 0.0798 11.12640960510293 12.236936662324247 6.338517400882918 0 0 0
678 62 1 0.1266165 14.616064885760451 18.168109043638637 7.2282232627092124 0 0 0
202 21 1 0.0955 11.186489087603988 11.96210407618696 7.420153092504838 0 0 0
289 29 5 0.0798 20.813184260504688 22.018638751847583 9.719231410440516 -1 -1 0
800 72 5 0.0582835 8.422688837448698 18.11706339028583 0.2807557801789428 0 0 1
579 54 3 0.7551165 12.592210170084822 15.467441612921862 0.9910246236378497 0 0 0
682 62 5 0.0582835 14.735868759734103 18.387238704578273 6.173192823998824 0 0 0
683 62 5 0.0582835 15.164260639626702 18.88860252531026 7.870212757361711 0 0 0
383 37 5 0.0582835 15.444567697781494 22.872131156628463 9.337190111381874 0 -1 0
518 49 2 -0.3889835 11.913072969682837 21.50429021263158 6.711565676967632 1 -1 1
574 53 5 0.0582835 10.158251491624325 22.652599902695528 1.0780955812413673 0 -1 1
327 33 3 0.7551165 13.837344405885515 11.707140444907383 9.749070170681053 0 0 0
329 33 2 -0.3889835 14.424102793209915 11.915975869139848 8.456441363174621 0 0 0
714 65 1 0.1266165 21.6468901190183 11.974693297725873 7.704397042959545 -1 0 0
324 32 5 0.0582835 17.23708053100454 15.158184652371888 10.46974058886534 0 0 0
517 49 1 0.1266165 10.474553775603598 21.40713032729721 6.602289285057147 1 -1 1
581 54 2 -0.3889835 12.34942175716433 16.256035636226503 -0.09241414396328491 0 0 0
521 49 2 -0.3889835 13.73525799541706 22.608673966504387 6.294972224726487 1 -1 1
49 5 5 0.0798 13.721954305319489 19.188671901436447 10.151553528842388 0 -1 0
336 33 5 0.0582835 14.468823015704668 14.11050768086961 8.479530608262728 0 0 0
330 33 1 0.1266165 15.131364048225404 13.18514511391324 8.349074873437086 0 0 0
328 33 4 -0.5800835 13.888977593285817 12.436905003496609 10.694653353810047 0 0 0
700 64 4 -0.5800835 0.16415958536773523 19.437803440874962 6.918728560492033 1 -1 1
173 18 2 -0.4048 22.85497678188464 15.606755260050312 10.207262412131676 -1 0 0
18 2 5 0.0798 1.5306045946417395 19.39810234081355 3.4435330782459643 0 0 0
12 2 1 0.0955 22.701115935231037 18.64867429264926 3.1889569352572726 -1 0 0
13 2 2 -0.4048 22.39711376848621 18.022707169627985 1.9651516343389803 -1 0 0
20 2 5 0.0798 22.36773243854716 19.662506698708114 3.3738690705619874 -1 0 0
531 50 3 0.7551165 5.21817330687428 19.095486963927367 11.088586774027451 0 0 0
93 10 2 -0.4048 21.954607467415887 21.26596096923644 0.576066603160322 -1 0 0
33 4 2 -0.4048 21.61887440646811 14.714068418864276 1.5422167662544373 -1 -1 0
94 10 3 0.8478 21.690172342526793 21.71370660379989 1.8251462481121672 -1 0 0
96 10 2 -0.4048 20.38653531114037 21.514930348496836 2.1364707612704295 -1 0 0
175 18 4 -0.5484 20.79173363659823 16.68208393543032 9.808683609833672 -1 0 0
701 64 2 -0.3889835 22.362610101426 21.427101688593165 7.545941289632177 0 -1 1
890 80 2 -0.3889835 18.21367094609518 15.614212205171494 4.718277883515597 -1 0 0
848 76 5 0.0582835 13.099843177165692 20.45498179848801 -0.08780677537972856 0 -1 1
791 71 5 0.0582835 6.6236422143428335 11.526676983125345 4.827503529056827 0 0 1
684 62 5 0.0582835 15.023922338298387 17.231963447877966 7.569674623749963 0 0 0
316 32 4 -0.5800835 15.022804152410245 16.505671460501006 10.122230254664565 0 0 0
705 64 5 0.0582835 0.5430785791142504 18.03966742727256 9.39781915047706 1 -1 1
698 64 2 -0.3889835 0.3705367862841259 20.18345045245148 9.093203146893716 1 -1 1
34 4 3 0.8478 21.38819820548845 13.318941942667482 1.5291683754522312 -1 -1 0
19 2 5 0.0798 22.21178835254745 18.213297361275867 4.037997219582888 -1 0 0
710 65 2 -0.3889835 18.185000195710828 11.495178707800267 7.245783057988955 -1 0 0
823 74 5 0.0582835 17.23143772469037 12.55661401949059 10.546884020894039 -1 0 0
504 47 5 0.0582835 22.338496297847552 17.066829216445697 5.915521716447938 -1 0 0
900 80 5 0.0582835 14.977688900893417 17.135280313143962 3.15288517399449 -1 0 0
457 44 1 0.1266165 18.013692360544226 22.30411990583616 5.138208950435139 0 -1 0
892 80 4 -0.5800835 16.13844289165146 16.308488936199694 5.376099102499406 -1 0 0
482 46 2 -0.3889835 10.727796842482897 18.87812081039755 11.247177625130634 0 0 0
314 32 2 -0.3889835 13.455015973458163 15.212259302233328 11.158546453718658 0 0 0
713 65 2 -0.3889835 20.315995463738982 12.2673338154465 7.399536039074566 -1 0 0
334 33 5 0.0582835 15.930819677759173 13.15787944578997 9.08326868447666 0 0 0
43 5 2 -0.4048 15.591922253912703 19.978134017831707 10.446172414315656 0 -1 0
97 10 5 0.0798 19.111839974391774 19.99386797668509 1.3746436066895125 -1 0 0
891 80 3 0.7551165 17.066656391349127 16.326464373586273 4.619793643123582 -1 0 0
463 44 5 0.0582835 19.05022326695483 22.477242519195237 5.313320318782883 0 -1 0
387 38 3 0.7551165 2.642154030287742 21.810965010890143 6.003902259264118 0 -1 1
335 33 5 0.0582835 15.692935182898461 13.120336610361859 7.413370987828217 0 0 0
699 64 3 0.7551165 -0.07167893928938945 20.304663002460202 7.796118018838007 1 -1 1
320 32 5 0.0582835 11.434198371741362 15.398415864181993 10.719094053830267 0 0 0
39 4 5 0.0798 20.403652020216427 15.853019232183497 0.5634453477484149 -1 -1 0
467 44 5 0.0582835 17.987238758272657 17.701576280633667 8.34421011009676 0 -1 0
719 65 5 0.0582835 22.274890506998997 12.881371461672275 7.582056386514566 -1 0 0
706 64 5 0.0582835 21.139780683947308 22.305400970401887 6.13021539205269 0 -1 1
899 80 5 0.0582835 16.02233090168977 18.421044356566583 2.3335473730290746 -1 0 0
503 47 5 0.0582835 22.723620391509453 16.837537499572402 7.672007788273425 -1 0 0
460 44 4 -0.5800835 18.68734107883976 21.274685961115548 7.4672870694603315 0 -1 0
462 44 1 0.1266165 18.30738779859173 18.74525058671634 8.211688185534094 0 -1 0
894 80 1 0.1266165 15.825595993922468 17.859986899885953 3.235843804834844 -1 0 0
458 44 2 -0.3889835 17.77251889698043 20.970574807240364 5.404814758084645 0 -1 0
466 44 5 0.0582835 17.864304771873382 19.400339660791698 8.982554756875176 0 -1 0
287 29 5 0.0798 21.29300444844465 20.48314877234192 11.286387575440326 -1 -1 0
174 18 3 0.8478 21.55609244347966 15.956623815095293 10.487120299472114 -1 0 0
708 64 5 0.0582835 21.270407832856453 20.68194266992014 5.840759552972488 0 -1 1
50 5 5 0.0798 13.684656828911484 20.89831701006472 10.514477274885516 0 -1 0
91 10 1 0.0955 19.71374261522461 20.904380331604802 1.1547518827471601 -1 0 0
98 10 5 0.0798 18.847990985929137 21.50506392688661 0.8012573389320115 -1 0 0
92 10 1 0.0955 20.774070311816065 20.70256379004038 -0.007783442013351585 -1 0 0
898 80 5 0.0582835 15.751522877478793 18.516183943879895 4.115081211890473 -1 0 0
464 44 5 0.0582835 17.782557686298112 22.615261557985132 4.1384432552935415 0 -1 0
702 64 1 0.1266165 21.857296227783564 21.543710585834624 6.137314251309302 0 -1 1
468 44 5 0.0582835 19.40506007767258 18.694206736147326 8.281487227345737 0 -1 0
788 71 5 0.0582835 6.706746023797851 14.62503309038605 10.414532879728618 0 0 1
461 44 2 -0.3889835 17.911463116224102 19.174689771767163 6.9016113481660755 0 -1 0
502 47 5 0.0582835 21.740102176332393 15.56593846956505 6.907215589366624 -1 0 0
498 47 1 0.1266165 22.557483141746463 16.32870209777505 6.705349271839365 -1 0 0
893 80 2 -0.3889835 17.025138390664104 17.069981432624786 3.498069122741205 -1 0 0
497 47 2 -0.3889835 0.6369034261751754 15.667451804810163 6.339518161276299 0 0 0
896 80 5 0.0582835 19.146894226880658 14.226643675227164 6.091715524920621 -1 0 0
889 80 1 0.1266165 18.25720670058263 14.773530533662456 5.952921990956993 -1 0 0
897 80 5 0.0582835 18.234993414243405 15.398695261600913 6.823000291759828 -1 0 0
895 80 5 0.0582835 17.466869580485717 14.063218346860719 5.985937917561169 -1 0 0
38 4 5 0.0798 18.81793671174861 14.445917952022942 2.5326995171659408 -1 -1 0
32 4 1 0.0955 20.36999117947114 15.405582826917653 1.534126896559033 -1 -1 0
37 4 5 0.0798 18.494624288532627 14.67421782928305 0.8519077351106192 -1 -1 0
459 44 3 0.7551165 18.165059315326197 20.484770292788077 6.6641075541552635 0 -1 0
31 4 1 0.0955 19.268605407840532 14.435036233088706 1.5446191909795794 -1 -1 0
828 74 5 0.0582835 22.18569204123776 11.734120586875408 10.924624498202979 -1 0 0
388 38 4 -0.5800835 2.340995873137901 21.634489175743806 4.8404989074018125 0 -1 1
35 4 4 -0.5484 22.32920709458775 12.511033945842636 1.5365309256464201 -1 -1 0
923 82 5 0.0582835 5.686846099950835 22.214221753817746 0.4641787987065882 0 -1 0
446 43 2 -0.3889835 0.5050953199289364 22.820474538312283 10.622400320650593 0 0 0
67 7 5 0.0798 14.625896382750454 12.27234824054676 -0.23430695619658667 0 0 0
817 74 1 0.1266165 17.207988994624106 11.620293531891411 11.1833055421477 -1 0 0
626 58 2 -0.3889835 3.1332614111175023 12.63876094563654 -0.1659732669090711 0 -1 1
206 21 2 -0.4048 9.838162221341003 11.331442971194276 9.25257768224939 0 0 0
633 58 5 0.0582835 1.1180042199061861 11.982807085066058 -0.26916117388365635 0 -1 1
805 73 1 0.1266165 3.078490283690317 18.032399540019085 14.63533370253393 1 -1 0
813 73 5 0.0582835 3.3947819351498114 17.18520755477563 14.097531132288879 1 -1 0
812 73 5 0.0582835 3.694839315395565 18.21137689802688 15.453162356660973 1 -1 0
811 73 5 0.0582835 3.208366040980467 18.811607134614974 13.939255130687034 1 -1 0
657 60 5 0.0582835 4.129663904540409 15.857971847990765 20.091520938736767 1 0 0
806 73 2 -0.3889835 1.7474344381894367 18.025118858762823 15.119834597563106 1 -1 0
656 60 5 0.0582835 4.162436093066918 15.340301252611583 18.473339940366245 1 0 0
649 60 1 0.1266165 3.452157502266557 15.644040077375074 19.26668524637181 1 0 0
650 60 2 -0.3889835 2.9245733896697788 16.924783388810358 18.861860194194605 1 0 0
655 60 5 0.0582835 2.713000624828082 14.928650045195262 19.447804806466564 1 0 0
266 27 2 -0.4048 2.259110493747626 14.267856530971764 14.539761087038883 0 1 0
651 60 3 0.7551165 2.1220995238013876 17.57702663460439 19.789242065811493 1 0 0
652 60 4 -0.5800835 1.849357034311438 17.0886198112579 20.894521064265017 1 0 0
653 60 2 -0.3889835 1.6458079890166148 18.776741241758693 19.35652012755969 1 0 0
354 35 1 0.1266165 5.437527394547156 18.609393074838884 21.23771856806377 1 0 -1
359 35 5 0.0582835 5.175051771397861 18.349789192070382 20.191296668743412 1 0 -1
654 60 1 0.1266165 0.7794072937208667 19.463443681321547 20.40294213385811 1 0 0
264 27 3 0.8478 3.0646489368824574 14.405670717755429 15.583640891405452 0 1 0
265 27 4 -0.5484 3.861561973656198 15.280165173377167 15.833311881788424 0 1 0
659 60 5 0.0582835 0.4143359497214716 20.4227813890455 19.923781770563373 1 0 0
601 56 1 0.1266165 4.014274004409291 21.055896837437015 18.647166629896716 0 -1 0
978 92 6 1 0.6061909916684357 15.807280078783288 21.8895883076605 1 0 0
450 43 1 0.1266165 1.9829216720050578 21.878058174624154 13.882526683839279 0 0 0
455 43 5 0.0582835 2.9339078661812423 21.496954147514952 13.584316876569742 0 0 0
660 60 5 0.0582835 -0.01817809931774352 18.875590498778536 20.90943229331129 1 0 0
609 56 5 0.0582835 3.4350596810048626 20.27714032087567 19.12827084355542 0 -1 0
993 96 7 -0.5 5.239930560515355 20.599386659631485 15.503925298544996 0 0 0
261 27 1 0.0955 1.4697769344059342 13.072152709687218 14.674542870433852 0 1 0
616 57 4 -0.5800835 7.36034496304593 16.699449971506862 19.765656354318015 0 0 -1
263 27 2 -0.4048 2.9239969606358476 13.384273355646144 16.478411947017214 0 1 0
535 50 5 0.0582835 6.3293436867324635 17.68905212504197 13.041361205351356 0 0 0
267 27 5 0.0798 0.38196864438827693 13.141410158125032 14.516790730397659 0 1 0
78 8 5 0.0798 11.947374533829377 12.170078268128545 15.997033009714569 0 0 -1
618 57 1 0.1266165 6.773081936436928 17.250107201152005 17.211312831425104 0 0 -1
622 57 5 0.0582835 7.633829988320914 17.816418961875662 17.556897715032857 0 0 -1
1014 100 7 -0.5 -0.12317029824201353 14.073882940027627 20.682216638011607 1 0 0
767 69 5 0.0582835 1.1551426613261773 15.880236893505796 17.016539720700717 0 0 -1
268 27 5 0.0798 1.8698428212584597 12.475080528193297 13.842754280226673 0 1 0
536 50 5 0.0582835 5.7645376221637825 16.03892816608909 12.322313576812777 0 0 0
262 27 1 0.0955 1.9047839279344612 12.433970367297894 16.01950537211061 0 1 0
529 50 1 0.1266165 6.0469805749223955 17.08139699494936 12.141896479904831 0 0 0
269 27 5 0.0798 1.0653117234073586 12.33197609669363 16.733334913805166 0 1 0
120 12 5 0.0798 0.19428669541332122 21.194382145895517 17.982492067650306 1 -1 0
119 12 5 0.0798 0.5227293907278996 22.175995252749548 16.602256872367686 1 -1 0
360 35 5 0.0582835 6.335279720856592 19.277900378185556 21.20859863598536 1 0 -1
658 60 5 0.0582835 1.3969271144260584 19.890173458801307 21.201901990906727 1 0 0
624 57 5 0.0582835 5.840770293190813 17.63108572810125 17.751276303245223 0 0 -1
623 57 5 0.0582835 6.73936524428715 17.230797451950178 16.07423434273938 0 0 -1
247 25 5 0.0798 16.834688691788397 22.44505809988077 15.368624833341022 0 -1 0
246 25 2 -0.4048 15.652043307821225 21.945271421406712 13.794005619818318 0 -1 0
631 58 5 0.0582835 1.9146798961242322 12.260855966350201 21.323117943663448 0 -1 0
428 41 5 0.0582835 4.719070480301482 12.64199858368967 18.82904129036324 0 0 -1
608 56 5 0.0582835 4.89135453343649 20.582058242625966 18.229646045766927 0 -1 0
994 96 7 -0.5 6.557833235878294 21.509281273192 13.922183421256758 0 0 0
1010 100 7 -0.5 22.38587604850993 11.894738124513504 20.647885348738345 0 0 0
948 84 5 0.0582835 11.022592283275685 22.112298130820555 11.735962030054237 0 0 0
991 96 8 1 6.53898860118501 20.691771516695784 15.06408490133649 0 0 0
990 96 7 -0.5 7.334313475808316 21.266233129201286 16.04975337991449 0 0 0
992 96 7 -0.5 6.988311945339192 19.43793702966962 14.789786617135862 0 0 0
979 93 6 1 7.377252289685597 20.727956001416313 12.390430660176555 0 0 0
602 56 2 -0.3889835 4.430318616537229 21.955393360273554 19.81061998133779 0 -1 0
762 69 1 0.1266165 0.0900143639378058 15.823276204467524 17.200124297652323 0 0 -1
358 35 5 0.0582835 5.7050979121385295 17.742971511297853 21.824575766304843 1 0 -1
270 27 5 0.0798 2.2444807071478037 11.450608706992744 15.882972088450554 0 1 0
71 8 1 0.0955 11.594761189830828 11.729504409574542 16.895734426219157 0 0 -1
353 35 2 -0.3889835 4.3656124569813075 19.339389893192735 21.7579007672828 1 0 -1
537 50 5 0.0582835 6.929368684999761 16.82226276007676 11.547747329499208 0 0 0
172 18 1 0.0955 0.1657903943713369 14.73012777886791 11.314777380085703 0 0 0
736 67 4 -0.5800835 18.792772156543727 13.546195173271627 20.059551764318222 0 0 -1
61 7 1 0.0955 14.55602260315087 11.35183542681381 22.3358250043202 0 0 -1
532 50 4 -0.5800835 6.157048300343767 19.794208228175943 11.409436179877797 0 0 0
241 25 1 0.0955 16.966021172004794 22.105321594943018 14.330869572544188 0 -1 0
421 41 1 0.1266165 4.145359939861458 11.837609535868003 19.140500676409516 0 0 -1
619 57 5 0.0582835 7.2225493001415595 14.674160955456927 21.42425016183305 0 0 -1
617 57 2 -0.3889835 7.0720701963530415 15.929881030825792 17.58934903814397 0 0 -1
615 57 3 0.7551165 7.36190001543256 15.76187072203633 18.93285854285785 0 0 -1
842 76 2 -0.3889835 15.09891049770223 20.522923572099373 22.300810222940978 0 -1 0
982 94 7 -0.5 20.429577452177714 16.14067717363815 19.63716121756098 0 0 0
604 56 4 -0.5800835 2.218823012931112 22.41927110685083 20.317288148969695 0 -1 0
808 73 4 -0.5800835 0.9318183816805612 18.19573473832059 12.998709958584573 1 -1 0
807 73 3 0.7551165 0.7266157412927371 18.114049799854342 14.188291731915763 1 -1 0
454 43 5 0.0582835 1.5089047384799292 21.26888976750841 14.696849403708955 0 0 0
766 69 5 0.0582835 -0.12867400442839821 15.307547476209049 18.113749171853687 0 0 -1
1011 100 8 1 22.63738173065598 13.00908948184123 19.852060853879294 0 0 0
742 67 5 0.0582835 17.391052042399966 15.59253000594103 19.44045472763377 0 0 -1
530 50 2 -0.3889835 5.0486784730247045 17.760769908348195 11.383759231574883 0 0 0
1012 100 7 -0.5 0.5687921594346227 12.699867267262261 19.0152449095858 1 0 0
284 29 3 0.8478 21.247270256633996 22.690881899450297 12.86928169271595 -1 -1 0
759 69 3 0.7551165 21.307523803222562 14.806790925171027 16.11793562189224 -1 0 -1
115 12 4 -0.5484 19.739585546728456 22.775239172792237 16.128182665496322 0 -1 0
569 53 2 -0.3889835 11.575552768644998 22.75082011334089 22.771248573057935 0 -1 0
694 63 5 0.0582835 5.8356481235399595 13.584781109006036 15.26953979235262 0 -1 0
940 84 4 -0.5800835 8.313995254214094 22.4024945388263 11.893226471566654 0 0 0
928 83 4 -0.5800835 17.13599783843919 16.900249516735762 16.909500094889413 0 0 0
695 63 5 0.0582835 6.069900038358983 14.961105580747006 14.196073106144741 0 -1 0
825 74 5 0.0582835 17.184680578133772 12.060215517007252 12.188602595099498 -1 0 0
690 63 1 0.1266165 6.374519820999063 13.96806541596994 14.453680638167596 0 -1 0
248 25 5 0.0798 17.404313115613725 21.068076765556317 14.504481500007692 0 -1 0
620 57 5 0.0582835 7.981710439113426 13.267452246624606 21.00201262431025 0 0 -1
621 57 5 0.0582835 8.859323255100037 14.840848519329235 21.043787891079727 0 0 -1
614 57 2 -0.3889835 7.661093242709681 14.49185143630631 19.361470080075676 0 0 -1
69 7 5 0.0798 14.151314926801607 12.84030190659096 20.75149636397821 0 0 -1
449 43 2 -0.3889835 0.9844978011366905 21.861893959946975 12.669757675692813 0 0 0
793 72 1 0.1266165 9.254599121989354 18.382861322293206 22.729440630070847 0 0 0
179 18 5 0.0798 1.104857327163772 14.932355223408006 11.819796669307712 0 0 0
165 17 4 -0.5484 12.534830020205776 20.51251363501446 15.062056693017169 0 0 0
491 46 5 0.0582835 10.144600770535193 17.732602392060425 15.496426177660723 0 0 0
803 72 5 0.0582835 10.02312788013191 20.327854329785435 17.519334417186705 0 0 0
490 46 5 0.0582835 8.669170304138204 17.8783251192339 14.468830891151207 0 0 0
751 68 5 0.0582835 11.155223620521399 15.118863047802042 17.506794193757493 0 0 0
752 68 5 0.0582835 11.119466759860432 16.321821868842985 18.805100401116473 0 0 0
687 63 3 0.7551165 8.713555132671848 14.343658775380403 14.200056088515002 0 -1 0
749 68 2 -0.3889835 14.803287800448372 13.869145022066252 18.48370095259449 0 0 0
748 68 4 -0.5800835 13.595279636665795 14.410853218648043 16.605184776099488 0 0 0
756 68 5 0.0582835 15.114121294427234 12.389742275249315 17.074530404891544 0 0 0
804 72 5 0.0582835 11.299613141997193 20.558579465253263 18.89077057080289 0 0 0
798 72 1 0.1266165 10.507874867114424 19.959166809092455 18.459003751668998 0 0 0
802 72 5 0.0582835 10.911683504504648 19.00877869090576 18.10282098467608 0 0 0
797 72 2 -0.3889835 9.48125374510586 19.700988296271206 19.374023326356177 0 0 0
796 72 4 -0.5800835 11.033857001301238 18.948935959320487 20.86441177010401 0 0 0
795 72 3 0.7551165 9.856280005318668 19.191892078336263 20.585093231243984 0 0 0
747 68 3 0.7551165 13.758810374598896 14.482682156469643 17.812243115722747 0 0 0
746 68 2 -0.3889835 12.92048576441575 15.172166377262197 18.647594702102044 0 0 0
169 17 5 0.0798 14.667947823342992 18.34617072628101 17.944745554329415 0 0 0
745 68 1 0.1266165 11.768445514533092 15.869360102161956 18.015084845799507 0 0 0
689 63 2 -0.3889835 7.657476011053932 13.976951050878567 15.050630012747494 0 -1 0
686 63 2 -0.3889835 9.917370440648376 14.273224654776003 14.801917618969332 0 -1 0
753 68 5 0.0582835 12.073304473777066 16.68388346077831 17.318434241156865 0 0 0
685 63 1 0.1266165 11.041909121363783 14.618393670030846 13.932848093770856 0 -1 0
163 17 2 -0.4048 13.096067679547474 19.010074462905802 16.66792559609228 0 0 0
486 46 1 0.1266165 9.722155541889578 18.283259899068167 14.663160728393146 0 0 0
164 17 3 0.8478 13.108332682976002 20.256596634584383 16.08916508335784 0 0 0
688 63 4 -0.5800835 8.643440210729455 14.644059535219808 13.024214918786924 0 -1 0
696 63 5 0.0582835 6.452602166595346 13.247068688414936 13.59656654473221 0 -1 0
492 46 5 0.0582835 9.613677497218324 19.33210380143923 15.050597171706551 0 0 0
691 63 5 0.0582835 10.823404122969164 15.537366832752081 13.447657548832275 0 -1 0
692 63 5 0.0582835 11.928042802759734 14.635776476101519 14.52045859529964 0 -1 0
693 63 5 0.0582835 11.234657661214579 13.884211094984089 13.119824685401213 0 -1 0
166 17 2 -0.4048 13.861954230772383 21.187396224479194 16.887459081644035 0 0 0
47 5 5 0.0798 13.466257579086617 18.739004046105148 12.258204676729655 0 -1 0
48 5 5 0.0798 13.381218337270052 20.34178035862787 12.719710859994475 0 -1 0
41 5 1 0.0955 14.050024963316524 19.61744750922041 12.17497652235027 0 -1 0
820 74 4 -0.5800835 19.713933508236867 12.271124667625836 11.714051492728716 -1 0 0
62 7 1 0.0955 14.06415947935201 11.757657904218005 20.968309815837923 0 0 -1
162 17 1 0.0955 13.864570928362609 19.061443046809096 17.912609201471476 0 0 0
932 83 5 0.0582835 15.044032751043458 17.01262857033307 13.871275649813292 0 0 0
931 83 5 0.0582835 15.014348027148081 17.0405027959055 15.72125056462091 0 0 0
170 17 5 0.0798 13.260530895632272 18.775904984511815 18.755858859504116 0 0 0
485 46 2 -0.3889835 10.507350425621734 18.23891795388584 13.485825623771886 0 0 0
801 72 5 0.0582835 9.934964916042235 17.510543396461095 22.596981629161036 0 0 0
586 54 5 0.0582835 12.549404472567094 14.844095085715127 21.46727866261115 0 0 -1
484 46 4 -0.5800835 8.931948841975178 19.573803387993745 12.467095733196121 0 0 0
613 57 1 0.1266165 7.9647696172639275 14.36302257414507 20.76842682253666 0 0 -1
483 46 3 0.7551165 10.0115514928499 18.9298912728055 12.429443034680205 0 0 0
582 54 1 0.1266165 12.932844373066677 15.88554182571318 21.73735913799588 0 0 -1
925 83 1 0.1266165 15.587448632842321 16.879638947722576 14.80600127307813 0 0 0
77 8 5 0.0798 11.301818018888424 12.5666391228305 17.56844201526136 0 0 -1
794 72 2 -0.3889835 8.827172134488727 18.96281963991896 21.420275832928994 0 0 0
947 84 5 0.0582835 10.856227546147197 22.568427394400267 13.578428296568122 0 0 0
587 54 5 0.0582835 12.479709550942863 16.48446818439382 21.033514733584965 0 0 -1
161 17 1 0.0955 14.3440050439254 20.48796943098628 18.03388641467127 0 0 0
603 56 3 0.7551165 3.427172144004269 22.56426766592398 20.53418545964382 0 -1 0
958 85 5 0.0582835 13.965548859635113 12.113352107270094 14.96636237898219 0 0 0
588 54 5 0.0582835 14.03119512362358 15.959488074268384 21.80799981486974 0 0 -1
167 17 5 0.0798 15.450877514368424 20.573295458852378 18.031628007253985 0 0 0
168 17 5 0.0798 14.075741179533633 20.940922777355993 18.993530684829423 0 0 0
757 69 1 0.1266165 19.483257410923265 13.794761055249456 15.020321010525672 -1 0 -1
734 67 2 -0.3889835 17.729098202999424 12.120078957742466 21.439865369377497 0 0 -1
367 36 5 0.0582835 8.577426375153287 11.445936351465367 13.946815833062432 0 0 0
960 85 5 0.0582835 13.450543868401736 11.907533308054791 13.286724759591344 0 0 0
933 83 5 0.0582835 15.9911408389772 15.8686883151707 14.821381059662885 0 0 0
758 69 2 -0.3889835 20.903712173076602 14.103972534328669 15.00674625071402 -1 0 -1
429 41 5 0.0582835 3.720720908669865 11.345056305184078 18.330800896809265 0 0 -1
849 76 5 0.0582835 13.237203958440688 20.401640755506047 21.37388902125971 0 -1 0
368 36 5 0.0582835 8.999285406094295 11.617124018345404 12.155016411050163 0 0 0
636 58 5 0.0582835 3.849616444220124 16.42098467503775 22.711824653789865 0 -1 0
288 29 5 0.0798 19.68976501982534 20.25442525811292 11.519452155217799 -1 -1 0
427 41 5 0.0582835 3.326636714628022 12.183063959420625 19.819031115880765 0 0 -1
112 12 1 0.0955 22.854297096225512 21.947938641659526 17.363014130437247 0 -1 0
286 29 2 -0.4048 20.856752541995636 21.379393125660854 12.838530396751699 -1 -1 0
114 12 3 0.8478 20.839317563319867 22.674206945793255 16.672036226605954 0 -1 0
755 68 5 0.0582835 16.453685719243097 12.692161353434818 18.287780460638185 0 0 0
625 58 1 0.1266165 2.024274232797922 11.856129020288675 22.347777619155906 0 -1 0
311 31 5 0.0582835 11.116976592908498 12.665851125299437 22.74341802877304 0 0 0
843 76 3 0.7551165 15.93793939284293 19.983286592124244 21.342018753152615 0 -1 0
176 18 2 -0.4048 21.12188497861819 15.363402575623173 11.69912121184335 -1 0 0
765 69 5 0.0582835 19.270791712035795 13.439202389204855 16.009346633607176 -1 0 -1
177 18 5 0.0798 22.488712394135515 15.201722381432388 13.10154557425856 -1 0 0
841 76 1 0.1266165 13.707262148140776 20.053076585700634 22.223490989632413 0 -1 0
45 5 4 -0.5484 17.476192614105024 19.613146967730547 11.72310451946818 0 -1 0
607 56 5 0.0582835 3.3958084883836426 21.518500379966003 17.890356645283156 0 -1 0
44 5 3 0.8478 16.242364573356628 19.679892647553594 11.638523633618258 0 -1 0
318 32 1 0.1266165 16.965814455737775 15.33981648116763 11.498863886085037 0 0 0
976 90 6 1 20.06125538334784 14.535874520188013 18.829516366809223 -1 0 0
750 68 1 0.1266165 15.739122059904327 13.12358855297218 17.60781013675773 0 0 0
754 68 5 0.0582835 16.24568798755293 13.9060927099632 17.017406581601808 0 0 0
926 83 2 -0.3889835 16.719876330743197 17.707800040710595 14.82129344247018 0 0 0
845 76 2 -0.3889835 17.29700067144134 20.371938164872663 21.258561479752977 0 -1 0
981 94 8 1 20.9703112508068 17.138996467861134 20.42055196847435 0 0 0
1013 100 7 -0.5 21.556655337225497 13.305688618895566 19.101224514666793 0 0 0
447 43 3 0.7551165 1.2846067152872709 22.756037719746544 11.693973206321692 0 0 0
809 73 2 -0.3889835 22.65094633019804 18.080491679697765 14.716200388581596 0 -1 0
816 73 5 0.0582835 21.722862451895093 19.06511668249045 13.130432977553196 0 -1 0
763 69 5 0.0582835 18.926019514123738 14.646120713648358 14.808236043648229 -1 0 -1
768 69 5 0.0582835 -0.24209741472128243 16.83760447704521 17.276628241149705 0 0 -1
760 69 4 -0.5800835 20.559454146180524 15.126883457714026 17.018580754817098 -1 0 -1
954 85 1 0.1266165 14.30275996634942 11.91659223831384 13.94933196195633 0 0 0
761 69 2 -0.3889835 22.69561908472383 15.083105399078343 16.08612614946867 -1 0 -1
814 73 5 0.0582835 21.661233275752426 17.305234580538823 13.084214667855377 0 -1 0
178 18 5 0.0798 21.992946694095664 13.571098693737477 12.461708682900866 -1 0 0
959 85 5 0.0582835 15.066570744374973 12.733175047524268 13.598524672423762 0 0 0
113 12 2 -0.4048 21.668359014798842 21.615359454661125 16.55312449488364 0 -1 0
281 29 1 0.0955 20.437621469646928 21.010080293415847 11.677663203976495 -1 -1 0
935 83 5 0.0582835 20.225749782319316 19.215364680839222 16.976073703864994 0 0 0
317 32 2 -0.3889835 15.63109213636311 14.924658647082845 11.721762641070075 0 0 0
930 83 1 0.1266165 19.37347631992397 18.465128689736098 17.14421296269711 0 0 0
934 83 5 0.0582835 19.83591056733197 17.48554614331597 17.36984162529019 0 0 0
100 10 5 0.0798 20.477443162747658 21.190477991259907 22.241097468242565 -1 0 -1
929 83 2 -0.3889835 18.587897667871378 18.499603523451498 15.980774439008524 0 0 0
764 69 5 0.0582835 19.336139838877155 13.05330644842271 14.29397396704297 -1 0 -1
984 94 7 -0.5 20.1709904872809 17.225089558500223 21.55125921402421 0 0 0
46 5 2 -0.4048 15.393857159481799 19.46268613729664 12.700058903365358 0 -1 0
980 94 7 -0.5 21.05474940916693 18.36447519023183 19.686583015777853 0 0 0
323 32 5 0.0582835 17.651467725854797 14.706836523227338 12.109035945078162 0 0 0
815 73 5 0.0582835 20.566381070988566 18.303837409941696 14.118010096978121 0 -1 0
852 76 5 0.0582835 18.02154624056559 18.65342620959571 20.192065814227938 0 -1 0
850 76 5 0.0582835 17.67771751025131 20.160979424053778 19.22194114790875 0 -1 0
983 94 7 -0.5 22.2289732822798 16.656412544726855 20.869644299941886 0 0 0
927 83 3 0.7551165 17.47186098940558 17.65882459419898 15.955414441397505 0 0 0
936 83 5 0.0582835 18.868068629453134 18.848962946886985 17.993098094550874 0 0 0
851 76 5 0.0582835 19.053837967648683 20.094193482210848 20.274446442559007 0 -1 0
810 73 1 0.1266165 21.56162288097705 18.14221014550776 13.730406442527832 0 -1 0
738 67 1 0.1266165 17.32203550605186 15.730987905553752 20.543979034492956 0 0 -1
171 18 1 0.0955 22.191897184237913 14.616111181901982 12.23081532176386 -1 0 0
743 67 5 0.0582835 16.577941916065704 16.46143728549183 20.741423394947674 0 0 -1
846 76 1 0.1266165 18.061960915922857 19.749441586629395 20.200995243916047 0 -1 0
744 67 5 0.0582835 18.28570266832702 16.133543317848307 20.882539350366297 0 0 -1
737 67 2 -0.3889835 17.078082258768784 14.395254832781733 21.179523060642236 0 0 -1
844 76 4 -0.5800835 15.524968597059171 19.175564129669905 20.502022296953655 0 -1 0
735 67 3 0.7551165 17.91513175553357 13.364815702124336 20.84299312439193 0 0 -1
628 58 4 -0.5800835 2.029048319117426 14.609565105423174 22.619541905034723 0 -1 0
322 32 5 0.0582835 17.094648312835027 16.33188209433471 11.692811747019546 0 0 0
566 53 2 -0.3889835 11.300878564725013 22.88864215973977 20.57257870825727 0 -1 0
847 76 5 0.0582835 13.64397674555578 18.985881488945903 22.332009995377398 0 -1 0
23 3 2 -0.4048 1.9869638983952511 11.348597915203372 11.57129297748909 0 0 0
456 43 5 0.0582835 2.0597541321960207 22.888104074031688 14.309611239129636 0 0 0
942 84 1 0.1266165 10.928833383414762 22.883870776296884 12.530824143001345 0 0 0

Velocities

408 -0.0010318803339347722 0.011678528609006778 -0.008152078551891626
401 -0.0008743013397097641 0.0035753584376131643 0.0005934204766301573
399 0.00161929872238837 -0.004395425599150867 -0.004263178467861939
398 -0.000994428721791906 -0.0007051488373980022 -0.006763369193812701
400 -0.003634363621536998 -3.6022556285954395e-05 -0.0061735754311400375
865 0.001244376962384406 -0.0004027279476900092 0.0015209551265255876
871 -0.02270542099607719 -0.0052982445200448975 0.017907930917024535
272 0.008504890546529292 -0.005315076711690855 0.005809357448585442
274 0.003195306129341969 0.0018374286615239436 0.00467743940708859
385 -0.0029829488339045656 -0.000620408542760802 -0.006828198718159395
985 0.0010803594236144666 -0.0009070835934026189 0.004525404291478738
276 0.00693799422794409 -0.001076872644233646 0.0022072411144158865
271 0.0028283388505387684 0.0036710043071596916 0.0032126734952300277
278 -0.014737535579074989 0.0013521190259655341 -0.006901831048081055
273 -0.00698694238099503 0.0021582060358653413 0.000814012362863825
280 -0.029025195509435577 -0.0032713703040471325 0.0005947957023490088
279 0.018053970591170393 0.0021943239033231114 -0.004779273825331289
402 -0.001343016203755874 0.003410550645792305 0.0014628912472515983
275 0.0019651628129685288 -0.005371469144253156 -0.004184369589858245
924 -0.0008814993845705972 0.016995743113227633 0.004152054271287729
406 -0.028316779072072723 0.027225726788721587 0.03045837830912973
393 -0.017452976902957516 -0.02066147179667631 0.0014947528398818301
407 0.009447741148157805 -0.040728758051826665 -0.008601909478279761
872 0.01165807014428034 0.0048177938831062 0.033684773984264
866 0.001488509286111525 0.003677718931599592 -0.0014365832349496662
277 0.007059486752804172 0.031307954663505146 -0.0011109696188944963
403 -4.2704011526382675e-05 -0.018672150444938123 0.0093399032648228
397 1.573075322733802e-05 -0.00963711974484624 0.002888993063369848
987 -0.001649772487635461 0.0036614632105999587 -0.0021045192191325502
453 0.01562621878347303 0.009429339341161198 -0.0065076684676004335
405 0.0072369839833833485 -0.0011587743618284448 -0.011676531337522271
989 0.002786374978886848 -0.0012525849309028966 0.004217490717919498
986 0.008574517375447323 0.0032256963830586214 -0.006359776185589144
664 0.00140006823947745 -0.002352794742937131 -0.002121421777251523
667 0.004849768879002481 0.005912465169387851 0.010647692040790375
711 -0.0015860401241295367 -0.0006625594515760189 -0.005591916479243512
66 0.00444263851576387 -0.006447416971457743 -0.0010733002292871519
404 -0.02074820386191992 -0.014472916766712252 -0.015449129145932092
661 -0.005450645069619935 0.0012046557730561907 -0.0017406151747659299
909 -0.0023839329918984003 -0.0007571493850096803 0.014276507167055051
445 -0.0017070852244295738 0.0037939266742401077 -0.0004514994330967288
218 -0.011157612880466343 0.042755416202376856 0.005185938328176989
220 -0.033762187255799665 -0.017442912723138804 0.018313642029776426
391 -0.004073713695603256 0.003318694605055608 0.02467712010385759
392 0.013584800800954398 -0.008148929517863862 -0.00882546687167538
452 0.015193345969448203 0.0007204713657814302 0.009273100256453504
668 -0.006696265454596177 0.01724018943189217 -0.007363846656091218
863 0.003931077814104428 -0.002317614717002937 -0.010271341972801279
732 0.0017766064324376055 -0.001604380332552482 0.0031191971601098037
731 0.01802862353653727 -0.011536915812193831 0.002527534693891121
726 0.0016625582586080423 -8.584232397968491e-05 -0.003974415980369772
862 0.023633640528494586 -0.015243619586995896 -0.016713115756365127
386 -0.0059604379197491465 -0.00493972732560222 0.004414995723786833
1002 -0.0029188208509868126 0.006702827113884479 -0.005708100216427408
451 -0.03093654141942978 0.017526729018807453 -0.014273805597115382
611 -0.002270254424580686 -0.010068561055945138 0.006762324392836447
193 0.0014877258875288977 -0.00037863875588009505 0.005526135122611731
439 -0.007376183127134721 -0.01592738542516718 -0.011101053846526295
918 0.0020125771041108707 -0.0013964592117466537 -0.013444609549888974
908 -0.019954365381491698 -0.01731046179359279 0.018574843671991068
901 0.013108508163076996 0.005143509207168034 0.007390457304483959
195 0.001571095611596168 -0.004833073070950898 -0.005139106318741034
640 0.00013172057283750537 -0.0010320972353821734 0.0032302761720172535
27 0.010542588610993792 0.017362477877973598 0.0034139284585381286
669 -0.020919859544676934 0.004264511726287086 0.0027966669277015676
779 -0.027034835875198247 0.000724497953750632 -0.010551343978600296
917 -0.002503522838285482 -0.002475777713260777 -0.004731668199337744
384 -0.009405583469347004 -0.028099094012239454 -0.003064966319942417
907 -0.019949391756912162 -0.028123740923553242 -0.00724278206605979
818 0.0030897542220398927 -0.002414613737357201 -0.0005829819189427879
821 -0.0025823753102943965 -0.001814531066654225 0.00794080145476223
522 0.0017263689144923025 0.009814379863423619 0.0013323408128909648
824 0.0005796399247217604 0.02128010161073916 -0.00857960586187907
887 -0.022802743217223247 0.02334475134519248 -0.027532549853765253
297 -0.012542588918236121 0.00641977459964197 0.016750026578383856
192 -0.0019793171534923113 -0.00018778730191230323 0.00034750198946181934
882 0.0008197385554262059 0.0019869222310878844 -0.0008256123638391931
26 0.0023348888706317844 -0.003770251018743505 0.002340660330920122
662 -0.0048778839476342215 0.0007364129297102713 3.809624854521538e-05
663 -0.0014241635024004413 -0.002383676629836252 0.0033097711457555352
563 -0.025528133556959987 -0.031086191246092562 -0.0114151086628864
570 -0.0021780788302377947 -0.002541644085652134 0.0020032523906406137
886 0.025636988914491086 0.012049022284573139 0.014956389962504238
873 0.019175115997297647 -0.021186600583432684 -0.0030517758475075455
207 0.025547755858547024 0.030310348617177785 -0.03175764192040992
342 -0.004168624122239498 0.007454432781499448 0.00012873011815624084
376 -0.003255040227763377 -0.004626145284706726 0.006050122207225423
184 0.000594333359961804 7.283415032966769e-05 -0.004771281592358931
208 0.015608429675522187 0.025987550182946295 -0.0018439705354657949
888 0.003183985128149863 -0.017135809826528018 0.01407173866929677
325 0.003298210435407291 0.0014179823259474356 0.002538848205195936
867 -0.0020090464758768176 -0.0030846454251147026 -0.005340941528179827
868 0.0014739616064170773 -0.003451829096219085 -0.0026713329952369126
869 0.0023263205009208766 0.0036357739613586517 0.0032814590833048526
645 0.0028728638953562356 0.023636445326201107 0.006318394836267484
641 0.0017265114218845553 -0.003215811141150309 -0.0024821543304196273
875 -0.004261216181477307 0.010566450903058857 0.0006638173569870065
718 -0.013110948652495983 -0.009325887559715815 0.003923669871080918
864 0.03467955040198125 -0.006700324144593824 0.033347245004852505
858 -0.001738564441846317 -0.0002321327936608777 -0.003165095656602443
857 0.0015998038537441842 -0.0033048253676877127 -0.0017384839268729205
856 0.0036835820104220334 0.0034165317755275224 0.003452450596086918
191 0.0006033887150070367 0.0013764813041431626 -0.002613168955721405
859 -0.030376983795352728 0.01335632851870999 -0.00427835349470781
874 0.022842719046985212 0.010394414592530344 0.033790859677186924
196 0.006837313690796141 -0.00048647205697185426 -0.004310406103210297
870 -0.002815562445755598 -0.0012806359537491565 0.004698123976794356
855 -0.005126666382610331 0.0025839225201733933 0.0049036507755295
637 0.002069399460214452 0.0007901426729497096 0.0009918214982795868
644 -0.0047859117074438625 -0.004909012236868666 -0.00438541973231326
638 0.005440420420884076 0.004107282844315159 0.002203501153564501
643 0.021536318207558088 -0.0006737402370510375 -0.021823519187998824
854 0.004109593589687973 0.006574368151328477 0.00268427687390915
861 -0.015109489459402409 0.030409934213326262 -0.0017856619284488825
853 0.004619787675502013 -0.009889144843386084 0.00763383026606984
639 0.00022459219689742715 0.0022379171379825194 0.00822177654626722
915 0.0028706284561552807 -0.0034336428580885006 -0.00013563232255210173
520 0.004552213840301603 -0.0004724499315992715 -0.0023498824784342624
921 -0.007832945264046785 -0.018017836665780485 -0.002022071854483623
914 -0.001209750094499494 0.002098999726454613 0.004032548242872768
916 0.0042803325307659 -0.0012150179624916806 7.794464987939562e-05
576 -0.02219629759059505 0.013507234517694207 -0.010664070061828684
963 -0.008732273552050852 0.005049328022482794 -0.003380451643470379
962 0.0015134110575637698 -0.003659940575802664 0.0032162915907179386
967 -0.01264576044418539 -0.011283559516725954 0.022788401262019302
961 -0.007318530263590824 -0.0004775454017791964 -0.0034588568491064485
964 0.0036791172899816853 -0.001238863102496041 0.001779079184197874
965 0.0030406647546623033 0.004677852186950375 0.002639431982539803
970 -0.015118424980241369 -0.019719088783719085 -0.013138932537138468
966 -0.003691176531092741 0.0014521469520065843 0.0056018841442600055
972 -0.0047047261859204555 -0.002842175542470627 0.020579414747627346
971 0.014079295211482169 -0.0059151065497820305 -0.019806793488011648
380 -0.005710108373368475 -0.0004459572448915726 0.016960112858812253
374 -0.0032995263296606535 -0.001871116171426812 -0.006312341011813554
919 -0.031004787405526642 0.025853747767538765 0.004948512735926672
913 0.0006462518091608939 0.0018766313152449503 -0.003319912694051976
373 -0.002801715685403134 -0.002943581799030787 -0.0021725026020777806
344 -0.01411153291847404 0.036400021863509636 -0.01124794039986804
379 0.004810916295473544 0.007032329018396721 -0.006550308224520915
561 0.02497292502452116 -0.001850757907248663 0.009949583830860746
920 -0.006843522474226919 0.003230013085630984 -0.025104620858117856
876 0.019505036371115062 -0.019416557455244184 -0.016281144288875428
197 -0.006694844399457881 0.007238925908980679 0.015177167457873595
194 0.004828138518601719 -0.00753359367975438 0.007208479070531678
332 0.0023115225605620454 0.009874208292167634 -0.012499969122082216
968 -0.028465092821379868 -0.005368939077441361 0.007353187197357292
837 0.011026326433560326 0.03285817289526769 -0.02520139604865889
526 0.02566491324267788 -0.04032369232611663 -0.024501880626664627
860 -0.018092657679929503 0.009471277923545336 -0.0012138857712823714
836 -0.007566825725871915 -0.010440945232685253 -0.003987163948913892
835 -0.01447576108685129 0.014077226072318693 -0.0012547948057404599
829 0.0014625863541715173 0.0008007188130548012 -0.0051443463177160646
185 -0.0005849309800762236 0.0030079505848276448 0.0025735728498054297
199 -0.004333805009361854 -0.01335085080433046 0.013885209345894657
326 0.0010429624325760528 -0.0014443933371297956 -0.0018525922856259258
969 -0.00311214335321427 0.024444055518654778 0.005539069065302468
670 -0.02015922301079081 -0.0138179557688386 0.014854772186656817
201 -8.910726610874219e-05 -0.0017990202355486476 5.786854869194592e-05
819 -0.0002079137205494847 0.0029508800771364694 0.007463934197998033
146 0.006457384571227702 -0.0003196494661227078 -0.0027280582163824066
1008 -0.003972157847074671 -0.007135202930901264 0.004564541066037259
465 0.0005259394583558758 0.0037044197825977353 0.012958782701288921
154 0.0031772741522552413 0.005036036911656144 0.002288719682415203
776 -0.018776002011955478 -0.0031189162625130953 0.031474514459853185
1007 -0.00390567392122804 0.0035687267019605187 -0.0020505687550045233
299 0.018595775815273177 -0.0031425857394166284 0.007095842466995675
642 0.000829912206265844 -0.002667669924825236 0.0010979371389173698
528 -0.01222508303653724 0.00039715883173774974 -0.003878957870668453
300 -0.010408070015228239 -0.032193118167543756 0.017047097316248677
1009 -0.00024423395378195983 0.0016829481131816117 -0.01146143876884973
562 -0.013508360108393788 0.011670157664513538 0.022046937633375625
144 -0.0001269659731536917 -0.0005234263994460254 0.0014600450945033198
418 -0.0008881263760865772 -0.02102707383388607 -0.0003869645656477535
337 -0.000671546099990579 -0.00047173577314814493 -0.004085469440497914
345 0.014134219941427991 0.01521802081397263 -0.001962174793204538
440 -0.01784148734173336 0.005420870571938906 0.004747331876413576
381 0.002043668873168424 0.01675547452685764 -0.01698261098783061
434 -0.004181453659837821 -0.002011350999799583 -0.0063248091168228125
672 0.003975322880485803 -0.01111464040027118 0.019692789311648053
292 -0.005599740573164433 -0.004944485714119965 0.0006056948867469365
409 0.003994596151040084 -0.001995081432013708 -0.0061957717414150145
419 0.003978405827383472 -0.0023748606513949405 -0.005660213814511744
709 -0.003571142079464796 0.0023688331255573374 -0.006258977116069412
338 0.011259646415574271 -0.0012056457695692959 -0.0005681834444124054
1003 0.0025176598826343326 -0.004860666921589882 0.0019326759747710148
339 -0.007008606526462569 -0.00015896205976133316 -0.0038371863469867
769 -0.008624527959377726 0.004374840589677833 0.0027602653203136276
382 0.0037191579261150335 -0.010199591974223949 0.00718897448458711
411 -8.14109847102243e-05 -0.007512608096383808 -0.004469578377323933
778 0.006735081295001248 -0.0018440518347288112 0.02275932724420551
341 0.0048311450175642255 0.0010925635831453683 0.0021753431292094827
420 0.001985411355553802 -0.012489990871657173 0.0032457557651314113
527 -0.017795007351060623 -0.04080044345936253 -0.02356876446845784
377 -0.000436332980204658 0.0014456088212445046 -0.005153588872579206
375 0.0018357082331084255 -0.006581323292919723 -0.004162087467322182
1004 0.006830053163731855 0.004039418995119288 -0.0019662388374853926
343 0.0016516861355081421 -0.022307498445593845 0.0052841170165658004
975 0.0013990479829398604 -0.0034770980922199136 -0.012876877560830014
775 0.005263521378905658 -0.007525519717406736 0.006324573232927876
556 0.004847604921399985 0.0008181165488566346 -0.001482989738712214
773 -0.0015099231590955191 0.0011721565386035434 0.0016218335613508573
378 0.0021395265747833157 -0.00013225040270772902 0.0031784299884942266
717 -0.005050051488867899 -0.016311300204959064 -0.00302078141403512
1001 0.005842282202290511 -0.006877876070368663 0.00012917776029147232
416 -0.006475340751039832 -0.010416663692707653 -0.020343627177220196
770 0.0017203156066410692 0.003578885617258209 -0.0014106573444484353
413 -0.0022910958025896904 -0.004897844292151701 0.0014078830931823932
293 0.0037373741885385397 0.0036400374783302296 -0.0002908634142883656
564 -0.017859945910628443 -0.004870716850151637 -0.011978787976294904
347 0.015068823642816023 0.010108632449184671 0.0018864519318726879
558 -0.003564088939311164 -0.003557815572924745 0.003777165724078233
712 -0.0015187329979393122 -0.0019123238211503292 -0.003969077828105262
780 -0.028673674446128835 0.01591752879755539 -0.009003280269733939
1000 -0.0043069750138876005 0.002346427002985823 -0.0016754658516611675
772 -0.0023390376785276026 0.011221143610608598 -0.002001049098574655
414 0.006600493653541437 -0.006348600648217182 -0.004586022065058998
774 0.004038373311790989 -0.008889803464516665 0.006279938266641041
433 0.002960924295202944 0.0036135596321101924 -0.00462026162748457
412 0.0024535328614654632 -0.00501975110100875 0.001328625537716137
155 -0.0053283720257579935 -0.0026279462150786076 -0.002662617324968229
346 0.006395560040680207 -0.007786418848245305 0.03123790523555346
777 -0.006170162187866267 0.00827980666972772 -0.0009291395020044247
648 0.004782859357823584 0.022334953826865418 -0.002851645641755907
145 -0.0028210509659678737 0.0035702828039568322 0.0014771960458612116
340 -0.004318394927280719 -0.0038893287476325132 -0.00696207159897246
988 0.003771181279677364 0.0018942769112073753 0.0021021535675180164
771 0.0028309103741076965 0.0064033361918496914 0.004258704178252216
1005 0.0028161013822925146 -0.0052914757399005015 -0.004167506345623231
198 -0.000367436049678629 0.020717856190470268 0.026410810239926988
410 0.004286293787720205 -0.002565386293737786 0.0008269883147592936
348 0.007948639489930612 -0.013020356644388288 -0.00810767884946741
974 -0.005308198224599733 0.004155487853562382 -0.005280997955049262
415 0.003473847300248416 0.008688477701132031 0.010396967428238285
1006 0.003960829702046747 0.0032029094073459997 -0.00480504253807897
417 -0.011588912652072708 -0.007046810613683623 0.010448380221038948
973 0.005227107850034315 0.005760309607754919 4.014777142503559e-05
715 0.012359070609235225 -0.009977290102592726 0.03485319813699484
830 0.0041557587627433805 0.004311050604051412 0.0036562404484242047
945 0.0046244076758954755 -0.0025447261192315176 0.0004721129271494657
827 -0.006036039863576815 0.015253891858358216 0.040369046596016894
291 -0.0010172726874525181 -7.755652491230872e-05 3.451787184559905e-05
902 0.0020865079944168492 -0.003364165282715393 0.0010990960646650159
153 0.00444299068534626 0.007357849049843432 0.0006565021068112826
666 0.0011248852890388941 0.0006156993369644366 -0.0064878432805310395
716 -0.0169842106088464 -0.036727941650883625 -0.008504174775636858
904 0.0002138452154684012 -0.00010727266333306084 -0.0008299324060990594
555 0.0009713857514113016 0.00749281821542832 -0.002425891880826483
477 0.005613394015041572 0.01577433004858417 -0.00528736342469472
475 0.016512015584013783 -0.01334470231697257 -0.0306933470923682
87 0.0071375878877476436 0.00837888538872 -0.009411437140189492
82 -0.005860876000440283 0.0013285513323172283 0.0022808808953932655
469 0.005643631607312524 0.009975078924640056 0.006364575192470562
476 0.0049370477898195925 0.018088109845644046 -0.015449559036020185
88 0.01479402101318403 -0.02457098247733042 0.009564249696216711
90 0.017749469009289878 0.016015452000676902 0.018015588276703427
81 0.010768623769932088 0.004478711232948284 0.0027664634322749353
912 -0.011792430603915088 0.017609833249717866 -0.009589166176086359
470 0.005038226905609326 0.004476219750071174 -0.0015609950463995512
906 0.008031790839494336 -0.009304122587494183 0.0007130288416466412
903 0.006529802191677629 0.0008612702763259586 0.0006556747060180258
911 -0.012608985170633559 0.006487336287111535 -0.008218407217577814
910 -0.009271027599608803 0.0059355775934345455 -0.011375008847327764
471 -0.000762988213685591 -0.0009040090957094372 -0.004065497294022636
721 0.002819624253682689 0.0019223236475317369 -0.0012631967393779376
89 -0.002216050701925592 0.013566893886693653 0.01345662949783231
214 -0.005545159662152381 0.0037441616465657803 0.007820487884098407
548 -0.005923262881985244 -0.0011946600809216988 -0.01013000845044097
549 -0.03307915408685383 0.017327892037331073 -0.0023217369660860276
215 0.0003475379546159352 -0.004343359485838178 0.008875877930412569
259 -0.0015052161113540117 0.007823339546272876 0.014105482350640805
728 0.03403773923592906 0.001466115883224602 -0.036434288440804555
234 -0.003942826628961387 0.0021938340273863505 0.008997818727712657
216 0.0007900945234989179 0.006271227839250822 -0.002997587179061844
473 -0.0015483340958950499 -0.0025239725231796678 -0.00019546209959085762
213 -0.004454189639712645 -0.002144229921978243 -0.003409786551470188
472 -0.0004301126927075171 -0.002060600620456421 -0.005402627754363629
474 -0.005310903413645869 0.00010404730711391038 0.003306336497142497
426 -0.00018517694546619113 0.004101095283627955 0.00808465178103689
423 0.0009399329333108948 -0.0005823833437522386 -9.734142904779548e-06
905 -0.00025329301314388217 -0.004614302729891587 -0.003964891572679961
424 0.003189342642092945 -0.0025293848788958797 -0.006093231062912045
478 0.0033296225162025394 -0.02631940229601213 -0.033014307500437184
541 -0.007948988555279903 -0.0011611986574296405 0.0048595595061865565
255 -0.0012474872622243653 -0.008402204078750626 -0.0013620639795164674
547 0.016399321555247207 0.008839420655458442 -0.015262328189946597
425 -0.0033195007126878176 -0.0017184212357984657 0.0013765317507136016
333 0.007189287764337241 -0.021859370944715243 0.02314958354992312
542 0.0016384319461116286 0.0007831377878990923 0.005977183528999391
22 -0.003946514457784318 -0.004884983931623306 0.0018743150237447476
83 0.0067356695980985105 0.001831930581214864 0.0024987515167598983
236 0.0010584353195049424 0.0017328530131412462 -0.0014344325709764025
86 0.005029412007608833 0.0011980516647466582 -0.0018997566282452528
422 0.0021967390043082886 0.0069445439087152784 -0.0012180077401508656
254 -0.003028373894942373 0.003322113659345982 -0.004460294901824699
253 0.0015495416460596235 0.007066813847581142 0.0038440069440971933
252 0.0036493196635193257 0.0020872875572596305 0.0077831684882557805
251 0.007494585346237789 0.0027826051142121385 -0.0009336182873182032
30 -0.00014448090637610703 0.0009186153040449055 -0.008180927502044407
260 -0.0038680442170115695 0.012658762932565789 0.014457813105451743
727 0.0029240657935174982 -0.01696216674916877 0.0067532787559722515
430 0.01876314903428553 -0.007152553535691946 0.013919146445544692
722 6.470026195620011e-05 -9.008813202944808e-05 0.001555870047164431
258 0.01274154037873452 -0.010277326895908946 0.0271498653893268
256 -0.0007002194806261573 0.005875046409259665 -0.007668488621204295
21 0.0003237141683607593 0.0003125157646512031 0.002191481076988663
431 0.01611529992752391 0.010685220321708285 -0.002651750523715309
729 -0.009759363495739347 0.001774630353995165 0.02256629958628436
432 -0.012611106410412997 0.024572976830004728 -0.005399115640243665
479 0.028486655572781874 0.02777733710115254 0.02008208202229068
441 -0.0037609200788657005 -0.028089091429536993 -0.004568650565243286
249 -0.03761493434331338 0.028333028283805704 0.012584890545841556
826 0.012524227200342764 -0.02542908554777631 -0.04294007307768297
565 0.009365560502010147 -0.00300315349767301 -0.004396320080712316
559 -0.012655094289844997 -0.003761396698795734 0.004425656087901601
723 0.008628575359127448 -0.004070880251095607 0.00040266647072369894
599 0.02660226878349911 -0.013721012673564683 -0.012359899225807179
233 0.003583729574770912 0.005564353777466908 0.002111953797319293
443 0.019342284272088277 0.018202605162424956 -0.03890450145435392
331 0.020268361429879908 0.0010697640533680734 -0.018208731574796307
231 0.0018521883639180487 -0.003390236787410933 -0.0016256491037045279
725 -0.0006411348973668224 0.0032288683080302096 0.0004488065128440015
118 0.013861531873177357 -0.012880545072352008 -0.030847840579050177
79 -0.010895815724137187 0.007489173058614646 -0.011783780330675986
724 0.007810363819730172 -0.0013185416255119945 -0.000971036409114587
598 0.014626117638300688 0.024276839314455154 -0.001374416964275863
600 0.010051252050658039 0.007589480126575392 0.01374054378820267
544 0.006393879174903 -0.0009395787514039527 0.004493262299413882
283 -0.0005665611496259726 0.003662013180355074 -0.00012350604423397237
235 -0.0029630577291175505 -0.0045876414695815325 -0.00283580268797337
605 -0.0074161898955355035 0.003028709892894713 0.004611898832595475
136 0.0020863261492474953 0.0018653360254105656 -0.008173417674936912
131 -0.00899787557220544 -0.0010450647263134617 0.0015248833974405244
138 0.0050341179209971495 -0.011096425854005375 0.002215495216340014
137 0.01460728272533785 -0.022573972984521247 -0.017839657471459176
238 0.027452534132957413 -0.0036519923891187955 -0.0101942338850071
573 0.0019300460188401043 -0.021087261330358112 -0.03320607409768519
480 -0.0016323551506813344 0.02750446748802955 0.02704402006237199
937 -0.001450862489648611 0.008496306985995144 0.0021549002458237936
943 -0.008000910172030952 0.004423930387794756 -0.008577791423445603
939 0.003426631478773141 -0.007021943566930284 -0.0005293118586426292
543 -0.0008721292368847763 -0.0019423789609096002 -0.004125119946913756
143 0.005926944478822159 0.0009332131269969951 -8.125150224758506e-05
250 -0.026290026039286606 -0.012173270743132299 -0.0006618863525429354
595 -0.018488914318371432 0.02980398767895386 -0.0015394990192868453
105 0.0014563361277392828 0.001549504964550794 0.0009644026418174377
647 -0.0029740331722799933 -0.0013635696336035136 0.012096727463958259
361 0.0015612637457688928 0.005043455845543521 0.0022838045981002663
832 -0.00850434736894392 -0.006125864226227029 0.0020710348943423244
612 -0.024766215752670722 0.005659696214232913 0.01752918081238478
141 0.0008535173510186953 0.009653016150104872 0.004706944089670034
567 -0.0016417980114568273 -0.0017115137552059546 0.003623996212621357
242 0.0010964221590333925 -0.0050456805818406185 -0.01216034103034281
941 -0.009382258339510358 0.004714807890700965 0.003157899504311652
838 0.00884404157611288 0.00917765831723568 -0.014469581252523954
117 -0.0189923457285885 0.0024431306316661135 0.03712600391433042
739 0.001892389305278522 -0.012774439840025933 0.0031328710020306788
594 -0.003933014639429039 -0.004589116497025984 0.003811236422888748
839 -0.019862929544809754 -0.04993204588863264 0.03701786578227736
294 -0.0005442101278700409 -0.0004460806097708516 -0.0019667452317007235
219 0.03369698874569056 -0.001053867284394083 -0.017589408830832057
944 0.005780338939628937 -0.019732266788663334 0.009047537595752275
545 0.00039087720263932034 0.0071958183403159 -0.0004804140274633229
589 0.002147967656244778 -0.0009834115695425095 -0.0006114045765884792
187 -0.007567174140302372 0.0048881350625836345 -0.005766800934863719
65 0.0018416866794792636 -0.0037413980878185163 0.00282207524508189
189 -0.02503064999175585 0.028001470370097085 -0.0030602981829792684
593 0.002575032108720967 9.489797994053874e-05 0.000553498443591917
551 0.004724567786785463 -0.0024670918833046935 0.013419538904990083
592 -0.00029014922252567943 0.0014448333698631709 0.007979703949725176
591 0.00024771303520296174 -0.006187107845628437 -0.008302987609573797
550 0.028755514428672666 0.013417516355620576 0.006463565653172688
953 -0.004347874012531138 -0.0028089187482742955 -0.002353000847018995
364 0.00420339775526818 -0.00544213589952758 -0.002557485236088252
365 0.00536422690744598 -0.0024984652097543186 -0.0037050946960088234
362 -0.004245512400493035 -0.0005864643576991542 0.0008746239735836076
370 -0.003949765052771763 0.0074507687388683415 0.027264249799514594
546 0.005001608921460113 -0.0035330228677481115 0.0011092140317003462
552 0.0017942460062816807 0.011439607473901455 0.03317671415259309
590 0.007955500687002218 -0.0004113655794408047 -0.0005143793761773124
951 0.0016068185435106114 -0.0011284641974950824 -0.001525906930435463
5 -0.006641803080593139 -0.005830979805736956 -0.0017129016896548696
3 -0.006338745790255455 0.0031579712706853173 0.0017156370286823765
2 0.004638347957371077 0.0009525522773521017 -0.0008106548195233832
9 0.005309208101624149 -0.01753690189828083 -0.008757549380047575
7 0.01713662916126971 -0.014491085664222964 0.03126006991763814
10 0.019248771975459402 0.027798716527311994 -0.005754526697272094
1 -0.0016552325592349398 0.002828475969557583 -0.0007157582619761342
4 0.002842046041081664 -0.003450841598877399 0.0019541966888012943
6 -0.006401536977654733 -0.003627340051884692 0.007073308709716914
8 0.010611153665851643 -0.0014951103268456179 0.008164612390060626
957 0.007871137715473264 0.0018291159752372354 0.023913955535865256
949 -4.816160769754527e-05 -0.00021040556288924448 -0.002887639098213674
955 0.01735283987593349 -0.030615635491518006 0.00798286150659576
363 0.0026653335939830227 0.00497205229766608 -0.0018001431328115245
371 -0.008468857373756387 0.003938708178132818 -0.004575087019707999
952 -0.000629452267471422 0.0003785297925231329 -0.0029325297751097252
372 0.03581955590143815 0.014594742556269842 0.017199873021057296
366 -0.005849454751864977 -0.007300567362082436 0.0038762029927251525
73 -0.0003679441958486366 -0.001391229423421216 0.004521137017200705
956 -0.00451719939718186 -0.034969984595773385 0.0017713496938453937
75 -0.00025272871170427816 -0.002631940582135772 -0.0008965378494886963
74 0.0009182945826588056 -0.0028689917646193977 0.006661485282330058
76 0.00042409297690830397 0.006278243750579587 0.001642997669167124
190 0.005394540923437667 -0.00016481109752864776 0.05704830116535771
182 -0.007567448766688578 -0.005267056852916082 -0.0004618373019551128
181 -0.002109071385385245 -0.007913061569098262 0.0015907838276388471
186 0.0030185235903256308 0.00407960262829183 9.2777058819982e-05
597 -0.0033492675442459005 -0.011943314111733846 0.03951580044813861
188 0.003801879567243071 -0.030820980050545028 -0.010484076916890753
257 0.01969931491509344 -0.05612639281467813 -0.00020043379209194861
124 0.000765423780745971 0.0011887307228986678 -0.006021886261823801
126 0.0068322542379288245 -0.002217860633037604 0.0006082082053010936
125 0.000117003232285599 -0.006238515856569283 0.00025849338278527076
448 -0.004404916919295675 0.004644081555503275 0.006525505875002476
568 -0.001186931436766382 0.00619973269709676 0.0021282557070229267
999 0.001334904188386431 -0.0006192808707143028 -0.0016758424884580551
128 -0.001374195420910558 0.004482754847034901 0.02008424670166199
64 0.0049030993552199335 -0.0037824140015255267 -0.001046316598275683
70 0.01742755899956307 0.0110706434585226 0.0007861842461948368
571 0.014441142712352337 -0.007403352802736487 -0.01338065302942323
833 -0.002520635712358405 0.0030680701386255056 0.010376723540893681
840 -0.033374703735870356 -0.025027037418684818 -0.022714327377191083
831 -0.00047789049880941773 -0.006712024129644291 -0.008039418467339804
834 0.0009103941889610995 -0.002383307556103543 0.005557871544308568
148 0.014894914226681034 0.01151050291125446 0.005616968645629935
596 0.01623726144128072 0.00860947598214409 -0.01663484161046671
130 0.014056269369648053 0.022584481789789796 -0.01378057868472576
977 0.005177927864784319 0.0023982104243556253 -0.003501002346540282
369 0.011397165578407805 -0.039533738436093514 0.0022030655465425574
200 0.010920991125620913 -0.01618310486799012 0.0035632481891575978
938 -0.0035433765132111394 -0.0015164563906936634 0.0036498082500250827
239 -0.0216277339932662 0.015229530876703676 -0.012416294944264519
103 -0.003098777355811985 0.002409279419357373 0.007215979908563422
55 -0.0015007371069976783 0.0014233987233134575 0.0009776053324429398
232 0.0003089462730964073 -0.008300294666565193 0.0037424061662831875
444 0.00549569690822119 0.005098074856409165 -0.01977545352895251
84 0.004079139825683416 0.01028644048194127 0.0032381718953052975
237 -0.008985720438773846 -0.01335808575897011 -0.03703367983206555
28 0.026690665312173165 -0.012713918514492162 0.002015156254722284
217 -0.02128552012952735 0.022120030138919826 0.025895113590523402
111 -0.00290108726396417 -0.0011148109917489596 0.009486995809075532
29 -0.009385129310972636 -0.015384284458472423 -0.021976352208460306
133 0.0005463894939245709 -9.066178021999632e-07 -0.005240048048730468
946 -0.011786833967074091 -0.01408687587028842 -0.00878062019134987
212 -0.0032516874544041337 -0.0009423979623706168 -0.0020522358572630534
553 -0.007103380605735268 0.006250766771982783 -0.004375605100945359
557 0.003790292615233364 -0.005669743349099208 -0.0023374709821355963
109 -0.024227241477182256 0.017183711073229867 0.017443447949056237
116 -0.0032567041063539313 0.0038390185732504745 -0.0012131621532459715
435 -0.0009803519797422226 0.0031350327300086957 0.004657973544828769
121 -0.0016355618439459175 -0.000523019185528753 0.005035611316701212
741 -0.0042789303649658035 0.01183136601991498 0.006421742907040005
157 -0.009923916432145645 -0.006685615149374347 0.025024936235917367
57 -0.008223299225005375 -0.014594210471750671 0.020843371242122623
740 0.004189564001603547 0.0007870728164635216 0.0009350708275027092
53 -0.0034934483671229164 0.0004194320353075986 -0.0005431733351596088
554 0.0015962335185755287 0.00136517809652723 -0.002512159781324582
108 -0.005806715555492363 -0.01443383811151168 -0.021310520912613092
950 -0.005961193580211098 -0.004575438044429439 -0.005127095610224732
123 -0.00378912943017709 -0.005014832364628024 -0.003745078267084894
240 -0.01453781381007934 0.02712260364842146 0.00308272985190619
56 0.0037603681733977003 0.00015515389864901533 -0.0023814117160651646
442 -0.020145868551147934 0.0020315789424561323 0.010377998120128736
285 0.0037328189418826116 0.0038654473911247686 0.00032311339739728336
560 -0.01750663159737363 0.012873820312869587 0.0020627592925919268
54 -0.004800073724200779 -0.0006143841930941673 -0.0006845963327073641
147 -0.016538044856430748 0.02112203685241113 -0.003988660160024332
110 -0.010780537626211492 0.015306158168038528 0.0025859578234080326
295 0.00303101000015535 0.001217928082826321 -0.0015318315947429391
296 0.013257567932971233 -0.0011445801174031864 -0.01018716988813327
127 0.02213867203495786 0.014437444755136067 0.006082750484233467
437 0.0017206962894335334 -0.0006091019586432094 -0.0022628174179493694
438 -0.0007143964364884277 0.0004762543198273155 0.0012015475249430477
152 0.002400473624921591 -0.006261699494424769 0.000265397799693818
995 -0.005731075579230644 0.0007008915782207698 0.0006526842454184958
211 -0.0001596298280715048 0.0009364332259656706 0.012199301121834755
106 0.001783919282900255 0.0010663356110432608 0.002237907417486239
149 -0.008637081840023177 0.01815047358887723 0.008071062016473883
129 0.0312955186034944 0.01564335500868573 -0.005050415191992114
60 -0.0030921601113591793 0.0073434683602230265 -0.00394042217442039
135 -0.0033481540420982215 -0.008871262761500536 0.0038459745445712065
59 0.010004101729401926 -0.012943229828647913 -0.014271076887605389
140 0.012342406390420124 0.00514992608823787 0.018656525810729532
142 0.005193688295101188 -0.003872033149823688 0.006762658241733718
159 -0.003046967783444076 0.00816121830291608 0.017037588289254134
158 -0.019497274840618504 -0.022121340372857325 -0.02896032119357073
998 0.0001718493171454044 -0.0006704631033144675 -0.0028479111416880288
156 0.004699450269488245 0.0013259813780354015 0.00414752276087896
102 -0.005194144523289614 0.007387497477853496 0.007404608514504497
122 -0.0002742833315782942 0.0042728661279904994 0.001991055007485108
104 0.010087797290674414 -0.009158896869186549 0.000345448985690862
52 -0.004996156531626437 0.005519792946111551 -0.0037837518164450913
58 -0.018053574009433464 -0.0015472231515129085 0.0242088818024481
160 -0.017135017941034874 0.009824807653883893 -0.0007570772182786927
101 0.0023775667222121436 0.0019639750418970867 0.002459066812894825
134 -0.00087662674169416 0.0002845824103334957 0.00914958949813712
997 0.007685247222642597 0.0006151406993927129 0.005744958556205884
107 0.013625575910509844 0.009121312313703576 0.010271730862843602
85 -0.00016480719052135298 0.0023931466777609633 -0.004193014462353698
139 8.506351656233611e-05 0.0017421713601455382 -0.0016497580641248373
996 0.007094048291555224 0.002662191984748406 0.0025867975065636995
150 -0.036126519145385644 -0.0037008732149867787 -0.0035207523497958956
151 0.003449212289442361 -0.0006860081709760512 0.00042991150958259584
132 0.002382159837995164 -0.0034150049558937068 -0.00571020828366436
51 -0.0027794244702581956 0.003506923787340478 0.003173703391122548
80 0.01270982648285959 0.008185322137774844 -0.013009197248062324
243 0.0030999232293526 -0.0019798382223591483 0.0008886355751460222
63 4.544494535504355e-05 -0.0018325839686304294 0.006497474464886481
632 -0.009936538324186046 -0.0014038875468316931 0.00029045688615589717
436 -0.0030389789474973366 0.0009559700806122694 -0.0011046796308182508
72 -0.0014040663779395029 0.0017115038481281975 -0.00484800076128168
68 0.0006924701258872153 -0.01540825620558499 0.01380276211092546
733 -0.00096746389956127 0.0033908229538787216 -0.0031788922510134453
606 -0.0005889719282325618 -0.004915799400810133 -0.01391038457903389
183 0.0041316682488765945 -0.006245342087062362 0.003183271076869065
646 -0.009660013972530336 -0.014163934051837806 -0.004955386602854726
572 -0.014201566874687339 0.001166166666869999 0.04759048040229971
245 0.0037324326205488375 0.006399902384898252 -0.003331938144427362
298 -0.004863008493307083 -0.00597965766176117 0.015719066521468435
244 0.0019540035950853865 0.001166011307878472 0.0027433287733809207
730 -0.020559204875382008 0.004233823420060363 0.011955892334736713
610 0.00130189060103874 0.0010558623157753701 0.006167758016327226
822 0.010326681462106671 0.004898621365558926 0.0016269652774019146
697 -0.002493317936897092 0.00013290238095153741 0.003340215655431976
703 0.007444741605145904 0.0024324622945290615 0.010518374485545885
224 0.0011106764605895696 -0.006520229723792821 -0.004530777317700425
226 -0.001400142560813127 -0.0038955939657195444 6.855228948875834e-05
221 -0.008327674977869065 -0.006582983468426665 0.0013316672865617688
225 -0.006948956130189439 0.0013333327814488347 0.001860604650448937
223 0.001150348744854935 -0.002201758853505988 -6.818165198646726e-05
222 0.003197088261359354 0.0014182403389623665 -0.0009071817693509885
228 -0.006222800653027494 0.024275328953821125 -0.017067345896609135
227 -0.023959654935671395 -0.013136404982254896 -0.005119612554898764
229 -0.021520244920897297 -0.004569944115228252 0.01741844650187592
395 -0.007644094343851011 -0.024847950156959977 0.01494700640723217
11 -0.011366172163951808 -0.0024331565932005127 -0.00459588020820863
16 0.0006549726613808008 -0.0008755155650174888 -0.0014303655380949211
15 -0.00037292699156149956 -0.003005292580747681 0.0018800783967771958
14 0.005031482016089824 0.0036797930910477433 0.004491814595432976
885 0.018164860662176357 -0.02060368735631121 -0.023984539294767647
877 -0.007814616871315778 0.003012083510265398 -0.0015160790068242348
230 -0.011296636626911338 0.0038431434643945647 -0.010924342048387131
665 -0.0028047378366957247 -0.0007867172221746988 -0.0022867443580517318
671 -0.0044851644788458656 0.017213551062384216 0.009509263145815147
792 0.008275765712680055 -0.007278444383939099 0.004162088526758466
396 0.013086916295342957 -0.004938443887083555 0.0022438052445266565
493 -0.0031882607517375737 -0.00105365133197599 -0.003002590353598178
390 0.004720968663127615 -0.0015911137478390618 -0.007249258987329349
394 -0.007257719520642779 0.010408285373187491 -0.008823003022533485
501 0.019296494745500874 -0.04127854091438571 0.012720737764025936
499 -0.002450966995457699 -0.011070154512104148 0.0002963176706001318
880 -0.0033850979879304303 -0.00563777682136924 -0.0025860278204837737
209 -0.017830948520129036 0.011749874064668129 -0.029932502645066788
786 -0.0061260364030035945 -0.0034745004201604157 -0.003574373982657296
540 -0.010080315013723699 0.0049017950365450565 0.028795230173087633
879 -0.0019284936256867093 -0.0009879276560738005 -0.00013420538627017696
534 0.005641930334405013 0.0036852729808270856 -0.000709338426299671
17 -0.001072360436933168 -0.001291390195020315 0.010238620548975208
500 0.0016853380250196268 0.001232837370003198 0.0010674107121613286
789 -0.020447035000709886 0.018378086543982382 -0.0008379058964762361
357 0.0007216830650293824 -0.002252345922961241 0.010001273528217707
884 -0.018507077222785266 0.014839302312191764 -0.005409066032363246
878 0.0011383260794584568 0.0005022087993857972 -0.004585040472833604
301 0.0002161539672119162 -0.0012239906023601707 0.006259400100195801
309 -0.01860145726666498 0.002863803559027556 0.04118117294763394
308 -0.013039279321969254 0.02220041927226935 -0.0125180211807297
704 -0.001667268629746469 -0.00572698892896571 0.02698359091880457
538 0.017956050397193224 -0.006730866967757693 -0.012005945682596709
785 -0.0030397963345136503 0.006156682462670971 0.00599636647690202
350 -0.0025119136880277226 -0.0022482605819525575 0.004048484643742486
389 0.0036774225269398508 -0.010171033822546959 -0.0011337332620781986
349 0.00581514769679933 0.005151940611248944 -0.006409684076981586
25 0.0018152032859154192 0.004330191236634635 -0.003375043685719059
783 0.0036854868248869 -0.000776540553607393 0.0009582532878359509
355 -0.012912573452865363 -0.00544648375821644 0.03390980074304526
352 0.0035051885009607063 -0.0037429984085508112 -0.003815522627267373
95 -0.0017913876257743455 -0.00023971412308695358 0.0014406085546130288
635 -0.011369930692285918 0.009721427580684963 0.008805207352021104
356 -0.012137907196080263 0.006247654787835197 -0.005309331175510858
634 0.006170169260998135 -0.010147215365548079 -0.0024654773155425363
351 -0.0044262387292583055 0.0015357763327905646 -0.006883881719064228
627 -0.00014459277183624187 -0.004113595936650212 0.009051226583797088
290 0.015577514730542317 -0.005819019525788305 0.0023693059546614887
881 -1.5650611223167648e-05 -0.0002567462201608444 -0.004552211624024391
782 -0.001781870522554036 -0.002321345792563316 0.0027655235025860064
42 0.005721828407669841 0.0023876892758215194 -0.003646039485223527
494 -0.004102738885300699 -0.006070674233054037 -0.003373716820997125
630 0.0018669027004981629 0.0017924151771145118 0.0030204680967495174
40 -0.00953743618167382 -0.002203529038754861 0.013762987873294977
496 -0.00414244367211481 0.0016791127598205307 0.0005871488315127889
495 -0.00300270577372979 -0.002512283307737422 -0.0031654111827530305
629 0.001798028543539885 0.004284913112512499 -0.004396517118750811
787 -0.0009663239716184704 0.011771105612438836 -0.012157979897748982
781 0.0035430346725382313 0.004839692246274638 -0.005229083445819379
99 -0.019034972404222746 -0.03160320466610936 -0.005478045482892713
533 -0.0010040797440993487 -0.000677780097776401 -0.006087532488193739
883 -0.026571544334656774 0.03199286027056121 0.014714297502724624
302 -0.005887956023783128 0.0025246450035242536 -0.0013189252133377154
799 -0.011521260184486532 0.02065197852318176 0.014222191704540602
512 -0.014578006002346683 -0.003730337290812949 0.007555650842587228
24 0.004519954072741229 0.0035125587573768447 0.0015923747233776977
720 -0.009142760823009381 0.01515249790562553 -0.0010313484759436713
180 -0.01711553890564865 0.007847831190529859 -0.01730450015455551
707 0.020348894302219915 0.020575117019673198 0.04142262878348401
315 0.0021941144450708877 0.0015805688192364368 -0.002760943090948182
784 -0.006164373103013202 -0.00040407312586891687 -0.001779919870182928
313 0.0006728676311650798 0.0005083992183884779 -0.0016699897424099002
922 -0.008937474592593626 0.008355747588191277 0.0033633245295491246
519 -0.003139657606253485 0.0010123319807557416 -0.002822168895437434
307 6.844437533443917e-05 0.002370755766537364 -0.018067222617359987
304 -0.0042447321891217245 -0.0017584274643417542 0.0002780492904272409
790 -0.0170211031152695 -0.00559645175806431 -0.0025007914343023203
282 0.008856466657550275 0.004423331736661199 0.0035307596795829533
303 0.0006843169383789378 -0.0064828851815240335 -0.007874995053535495
523 0.0026104250016678768 -0.0021756406158457493 -0.014759791166780284
321 0.0060143940762419305 -0.024612600592006866 0.003582273287687998
524 -0.018417305189121283 -0.006725783979458943 -0.012666558593330378
36 0.004816832759749939 0.0026367353925874767 7.091158544900123e-05
525 0.0025810544098859144 -0.00680954629771426 -0.026303091882025065
319 0.008021094069983165 -0.010382954762628484 0.009191619127807579
575 -0.0018213368959482266 -0.0029462570338449033 0.021588460284486514
510 -0.0016430990747819474 0.0008398717022465828 0.004573988003832079
487 0.004052715849080037 0.019397702281382493 -0.006893752461630045
205 0.003950712219661333 -0.003068390979823798 0.005994823548651055
539 -0.022219960963364274 -0.0036040412771691744 -0.03721565365241913
312 -0.019519722587697696 0.006978376674193093 0.003642527714355815
306 -0.002391400165361841 3.439594521329576e-05 0.000676664247796881
310 0.009266241010146972 -0.014584949431061759 -0.013065329998493837
511 0.01549372238119598 -0.006644520644184034 -0.0029852283431729266
305 0.00013116689890580987 0.0002617853581527602 -0.005997374179235059
506 0.005213959216679302 0.000827174705999563 -0.008417027285218648
516 0.0284966114122961 -0.00030986335572915226 -0.004240646582944232
583 0.03186784748152976 -0.00036525179662611385 0.0013996660150334956
514 -0.021428996128064037 -0.006069136192722816 -0.007260696751389679
577 -0.0032417488617190898 -0.0019212172828967432 0.003616662509622063
481 -0.007588910012226771 0.0013418879587435068 0.00491013498854887
507 0.00760129815730842 0.003736063591174027 0.004374264234145642
508 -0.0018510025077667013 0.0001249516793242595 0.0048785051730436185
676 0.002206193737147198 0.011129407975926871 -0.0012759990218022457
675 -0.0026400266226796034 -0.0017318777308745921 0.0010574556865295833
677 -0.0007244876811174375 0.004859567346229802 1.0817372347258266e-05
674 0.005273370803771692 -0.0020258074287398077 -0.0021471991310752065
489 -0.017043452339016153 -0.019587278235913944 -0.008452328595799426
488 0.02918240459654881 0.002244204829454086 -0.017408151234991905
584 -0.014743008693607139 -0.005993522057420054 0.017560417288829705
578 -0.003080187896097158 -0.0022338646191409446 -0.007384519000715425
515 -0.0046558822902416945 0.012316480376089857 -0.013159774716335042
681 0.03884907533843499 0.0011973414942106797 -0.003370465833190419
673 -0.00637495843982421 -0.007982091178985273 0.0017220482758448037
680 -0.014144623371971617 -0.001226183854879782 0.014424092966676435
679 0.040448841836555734 0.010544567072461802 -0.0063903067176943815
513 -0.030738463219826536 0.04278077574062717 -0.004145618996151015
509 -0.00574361236544525 -0.003003386186891492 0.0027968264141802024
585 -0.044729218094441456 0.00988893568731919 -0.03886967315148566
505 0.008324036908342424 0.0008376292829175183 0.0016789862664362725
203 0.004377811182541354 0.00887338340046996 0.000835458055871929
204 -0.0029826599047143984 0.004120019021110047 -0.0010357640124555004
580 -0.0026993869978896717 0.0017174504745248948 0.00360026106632258
210 -0.01237547977493535 0.003321458260891223 0.017950457807801985
678 0.004820581200622556 0.002874351574676037 0.0006052558648889993
202 -0.0026498455431061617 -0.00365581239296147 -0.00209088384223392
289 0.009991687719072126 0.012687260370142003 -0.023523578110921147
800 0.015028015660645945 -0.022095437526682703 0.005466504840565319
579 0.00802915080224884 -0.0013219115018787279 0.005177743945044917
682 -0.029946855227183617 -0.007623557205340421 0.013411546621296096
683 0.0003827914517769435 0.004584751727176283 0.018016872819036876
383 -0.01891742759711176 0.022785739444530495 0.002224412203505547
518 -0.0001034764445009369 -0.0015913002342945017 -0.0031376265529225503
574 -0.003110156733133151 -0.00019398357255436276 0.004548446664212659
327 -0.0004240247456218881 -0.007017898705825038 0.004071790197707078
329 -0.0025678216760525625 -0.001116714689678959 0.006429535935057842
714 -0.0036872041764099348 0.0012993101092841968 0.0017904504896902363
324 -0.017160681476290976 0.020122450114400475 0.012454473556423797
517 0.0005654805293604215 0.00022964093153231562 -0.0018748628694681105
581 -0.0048391061188989195 -0.0052457947685938255 -0.007199553709412468
521 -0.0006638674892434214 0.008190143420021636 0.0007944911039627219
49 0.012267638474044782 0.021354595898375652 0.020309426774796455
336 -0.011595960241425621 0.004459940044215833 -0.0009299834997589891
330 -0.0038149743481125215 -0.0017455017860856026 -0.008581774393865545
328 -0.0024864158858674003 0.0013724246142411268 0.0012331211475728198
700 0.004157704390878036 -0.0018313926463259728 -0.0005298168874948736
173 -4.4309421029176636e-05 -0.003938267910068383 0.0011190814025581796
18 0.005721469428775206 0.023032962782565412 -0.008869850305950312
12 -0.003882939586412266 0.00054660707472126 0.0040167167706435325
13 -0.003170075612207816 -0.0005893039427937521 0.00030410899228291565
20 0.013088000951369964 0.0238650504015773 0.007544373269734275
531 0.002361534844679096 -0.00407642722245036 0.006421721837930425
93 -0.00655665173953995 0.005804325660254227 0.002624873182954634
33 -0.0037700024628190467 0.0015817715327923318 0.005916565996144584
94 -0.004974546063023062 0.004826459097154134 0.0008385570236369212
96 -0.002026583718189694 0.004558598283646754 -0.0009092682532198682
175 0.005614321783024247 -0.0025567004464833484 0.000771926882257742
701 0.004184018432022513 0.0006912223631733226 -0.004233608255450764
890 0.002867282523808606 0.0009650296267609251 0.0009216904321711489
848 -0.003023270336031888 -0.011281724280763926 -0.010861283188654173
791 0.012456360200790571 0.014187878469556572 0.014643458655164338
684 0.019318739203717912 -0.003514469210978505 0.029357377926190843
316 -0.003230186506396076 0.001974400569046942 -0.0009430892412319695
705 0.007133156570815168 -0.0026634628500576216 0.010610405878057443
698 0.006964663770515315 -0.0021429586149486436 -0.0032661335081012304
34 0.0002282321396489661 -0.0005804923644955196 -7.610823172214632e-05
19 0.0032092439440326768 -0.0009559129061739759 -0.010886710580148761
710 0.0005800051340977171 -0.00409821999698286 0.0030495110686850797
823 -0.00801402935218858 0.01671664383418379 0.016898570181060463
504 -0.021336517877958018 -0.011512720709991537 0.006944832216355794
900 0.013190638799610403 -0.01833195289696351 0.020296998665150258
457 -0.000775751364913818 0.004502052542589864 0.005985839399133272
892 -0.0018458414613223666 -0.0026376998261498624 0.0011439401636266489
482 -0.0037086171973505053 -0.00032990897645030854 -0.00408356282910912
314 0.00047544223192622927 -0.0003540104403888472 0.0028362477652048145
713 -0.0034865311784431792 0.0018558614387566737 0.0007025076200422826
334 0.015937156015460082 -0.031303798091754105 0.0019014288967128773
43 -0.004206615817258649 0.0015525603634666456 -0.002087549919920769
97 -0.019585983815471313 -0.00933595659103389 0.0057646844751395865
891 0.0065911672366683795 0.005679037718161721 -0.00028548807242527495
463 -0.002984910015992076 0.004678598703197331 0.03458250582697765
387 0.0036778412468856064 -0.010755067756792958 -0.003119259511569853
335 0.004548554415239488 0.02374670865967912 -0.0018974872748718243
699 -0.0008655266716743146 0.003893768767947594 0.00544080239656462
320 0.03628967121077238 0.042309501215121344 -0.001210741063467824
39 0.0018532605928311724 0.0001302776707381983 0.0306484231965733
467 0.024579883708055916 -0.017478680901431103 0.005902523859120548
719 -0.0162561707269452 0.01416028069047409 0.00015753743226671723
706 0.0073111428922489905 0.027582644782068257 0.006639983096934212
899 -0.0026187812960054447 -0.015739009493310897 -0.020665189995458685
503 0.01748113421264082 0.04153334632885641 -0.014468950676425275
460 -0.006275994043965849 0.004753352409544052 0.0007218110615704467
462 0.0023297523505039323 0.0038142689164985723 -0.0019544024594244777
894 0.0010775084145382657 0.0019843964045579486 0.0038092292148010094
458 -0.001412813006049037 -0.0013326596267947822 0.0020497613226364026
466 0.007994692207477215 -0.014575688989680962 -0.020691480012599135
287 0.009552967128385825 -0.0010703276253629691 0.008351775160608943
174 -0.0013482356689364537 0.003942942079821169 -0.004428106346761678
708 0.0046383871110484975 -0.004837434440122006 0.0001897110924847448
50 -0.026814388986176364 0.005333375323365303 -0.00690352625424029
91 0.0011335286791666656 -0.0037467676508655652 0.0006076139425991358
98 -0.01655770575853479 -0.0008513946375211764 -0.01254891948779427
92 -0.006858561604138645 -0.0017705716433555861 0.002410701883214874
898 0.03256389787129187 0.007079808663657229 0.0018451588796311786
464 -0.04389412748731159 -0.000855116161194009 -0.016449070985121175
702 -0.010420124008757468 0.0077389651227276895 0.00353129563160011
468 0.019579065967926596 -0.010334974515916674 -0.01620462994513425
788 -0.0061661180970933125 -0.016129864864170847 -0.013898269748520025
461 -0.0052379870046314345 -0.005239357116314472 -0.007057037351737902
502 0.02153269900803808 0.01222113226498375 0.020694129164687887
498 0.0040933447005052645 0.0035811957580059303 0.0008058410402485022
893 -0.002604486496095825 -0.0009068637050940676 0.010470291103918505
497 0.0016743162362641282 -0.00602797892645221 -0.0016704975156466273
896 -0.019971696413931723 0.011178912983236186 -0.0025124111308258697
889 0.005269151970423399 -0.007304403784210718 -0.00223343207479058
897 -0.0113234223539797 0.0018850884113561597 -0.0070529232380410764
895 0.003197618602098144 0.0012714585192896781 -0.007368920788399899
38 -0.009012286085437892 0.0199092766196313 -0.02646112961277712
32 0.0017702065984103116 -0.004383902962863099 0.005582311687166202
37 -0.0072980973142718775 0.014020443652411571 0.028387720037897576
459 -0.002529639268160036 0.0040007469563389094 -0.004821180644206386
31 -0.0013623090004645424 0.007367375675798025 0.002775946171051624
828 0.01502732282198484 -0.016661646795036823 0.013932403259241043
388 -0.0005889968132574091 -0.003479472420167459 0.0020996423902044682
35 -0.0030447357996648875 -0.002044835037128406 -0.00029525328994262366
923 0.012825659915889444 -0.015975496076647017 0.02379923601885075
446 -0.001629718030241528 0.003284696831997988 -0.00273309735911487
67 -0.002782807231540118 -0.0028627860975045105 -0.013450575737219486
817 0.009475641856856074 0.005852075844248417 -0.004798093798038527
626 -0.0006992866178923155 0.00018853207146773003 0.0026085256767574435
206 -0.0015550692204833812 0.007363735410741504 -0.0015780942981261522
633 0.0020939640881590758 -0.01963291421156922 -0.03091103309851623
805 0.0027187302605277573 0.004924138439397096 -0.002442407627803631
813 0.00688537542207001 -0.005562076322474897 0.015244313082823016
812 0.003505829184855704 -0.012737670699665004 0.007127376353400982
811 -0.02391510708908683 -0.017069902696352987 0.014683245186599105
657 -0.00722169408281019 0.03114211016993291 0.01682040108541597
806 0.0021325986782340925 -0.001289605767121454 -0.0038415439605132655
656 -0.009750845424449232 0.014436573790126356 0.0015924672657835746
649 0.0063691394816618035 0.010003865912456543 0.004993377364906016
650 0.005741225483783095 0.0024718077982330074 0.008845255386765108
655 0.02712037019321307 0.02033568965039526 -0.008365227369716696
266 0.0034998040751259233 0.0007194674629578165 -0.001322677845039119
651 0.006089011112191223 -0.0024234409897633223 -0.0007763928917175859
652 -0.002549842829099731 0.008351403329219454 -0.006060152680455646
653 -0.00111721188578802 0.0018937785446731786 0.0009173107452828869
354 -0.0058159847766017505 -0.00688635879616264 0.003834176911446191
359 0.0010023778843622547 0.014506012535622108 0.012506906719859408
654 -0.004271685016781499 0.0033561105193619643 -0.001963492650848914
264 0.0012262456075667308 0.009630632788861386 0.0021162457252887606
265 -0.004303222710545453 -0.004903491753920281 0.000691114245210274
659 0.011368088307364545 0.0256314649834457 -0.02280347212682553
601 -0.001938439380052831 -0.007599690347014419 -0.005120879732576819
978 -0.016761960309549198 -0.004356184670297833 -0.0005539407567162595
450 0.0005531807802876226 -0.005310211199516832 -0.005564335686236074
455 -0.0020642153376938975 -0.010625508996583922 0.0002744737307617633
660 0.02244295029051136 0.024747609460750133 -0.0007514958453420078
609 -0.017298776425307194 -0.011813098617884805 0.0024717072276601777
993 -0.0017147248198396898 0.0005110943517287941 -0.008583520341550436
261 0.004141103713782579 -0.009685096023101164 0.0012836971840963732
616 -0.0029690620392210194 0.004774959285975775 0.0025218181327192413
263 -0.002243544765871472 -0.003599121691859698 0.0010182837889854968
535 -0.023054401177347524 -0.012075459744523617 -0.007800857687938843
267 -0.021222354759362835 0.019450599902691566 -0.005248469322942503
78 -0.008738006487195716 0.008845472653359554 0.00028334930590258843
618 -0.003120575581504196 -0.008725493795251695 -0.000373630133942838
622 -0.041775345572774444 0.006185458893760616 0.014086145731426533
1014 -0.0010841247935342167 0.0012427187312500333 0.0035067513933413792
767 0.0030642780942015837 0.028795767392225603 0.008605700902947124
268 0.036577723993485474 -0.00247572419168702 0.0032509555727614063
536 0.005281359113370606 -0.011229077898248467 -0.0003272555973244536
262 0.0028347435939522093 0.0014767968581789151 0.002024047811601055
529 -0.0018797807121231234 -0.0004917901438206565 -0.01106759558194265
269 -0.004757135216109347 0.008722722677504114 0.019880485768620292
120 0.007366778374254858 0.008862843809364036 0.0021627564759574788
119 -0.02356629201185701 -0.016861607314756635 -0.0002487483815522603
360 0.00575864953673085 0.010522640407297692 0.010624873201957543
658 0.0155769347291432 0.0008019328253640271 0.008288934721004098
624 -0.01782828500132729 -0.009988013276717687 0.02251671631993353
623 -0.004272413375010635 -0.003977757492716593 -0.022455681339549255
247 0.025064035664158147 0.014399555051510027 0.004476275762209215
246 0.0023874785546336564 -0.0019515192576152521 0.00010601066533637283
631 -0.040277606770827874 -0.020185153004348304 -0.006156996980584147
428 -0.018994207930753418 -0.00720214625265956 -0.004646590788445395
608 0.017311011173636887 -0.018466315376077718 0.023702174641897125
994 0.0007213177415516713 0.0008015770623587705 -0.004478625230186008
1010 -0.003566233458784246 -0.004098919824948603 -0.006024207666279458
948 0.0035869126795941434 0.024223653118215286 0.0012104826965438071
991 -0.005797952460024921 0.00565763202659561 0.006304287076236831
990 -0.0016877607682972103 -0.0028690914822498683 -0.0012639793662277648
992 0.003195974760684297 -0.001607629426443936 -4.729726142266695e-05
979 0.006633939273529905 -0.002309069868428558 -0.011297244004424485
602 0.001656978072072648 0.003236660198934196 0.0011413698161015764
762 -0.0031692388086507393 0.00555080269740727 0.00150367512858438
358 0.01033494317513552 0.0017880966627676917 0.01808400029200235
270 -0.002485564153623762 -0.017103894806436672 0.005269139387357639
71 0.005066758541878703 -0.004889664091974794 0.002745439017257341
353 -0.006243540719906913 -0.004009320595976007 -0.003059445286519126
537 0.022769881821066543 -0.018944939856255553 -0.008795547959646547
172 -0.0059072302025525636 0.00895860384195995 -0.002327990305411552
736 -0.0029332838220060657 0.0005418667509809259 -0.0011609799787351198
61 -0.013468777724839065 0.0011208751830900008 -0.0004975419479328002
532 0.00547794541306091 -0.0026840882656683183 -0.00546432634217851
241 -0.00350058441778193 0.0010114066342732887 0.0019252614778966291
421 -0.0035584928543696695 0.003637363493659372 -0.0025424616247613253
619 0.01543481048036702 -0.006277851994487201 0.00031063547919329883
617 0.005936528434396433 0.0028243623011102066 0.004364350860115389
615 0.00019919175685284703 -0.0006989658736751847 -0.005479446168734622
842 -0.00503888948630706 -0.0029589081102920378 0.004090915054596335
982 -0.002487667150444023 -0.002273052438691285 0.0026726182952039627
604 -0.005220587604395364 -0.005022827212263901 0.005707025640829252
808 0.0034097493693058165 -1.1481210299315702e-05 -0.0003760142272765299
807 0.0006825221399443541 -0.0012872549084199359 -0.0033198836467185147
454 -0.00014443059734182452 -0.0009608039211264415 -0.036204412432988074
766 -0.00525746129597497 0.018706603787617408 0.002164149386474837
1011 -0.01145288771240645 -5.73357322836256e-05 -0.0029512133905790715
742 0.0081062872905127 -0.010883434421276102 -0.005820719756792187
530 -0.0010386663234426706 -2.3638791552179914e-05 -0.0001525946883372468
1012 0.004951021744667872 -0.0012602076459699268 -0.0068080187942562605
284 0.001151565324243945 0.006214354666824498 0.003434305376408501
759 0.0006141205175054544 -0.005292506723053254 -0.0002700262476076539
115 -0.0010521659101994448 0.011122810980012514 -0.0015961359948232614
569 -0.00297231719646925 0.002916300998696454 0.009070505041889696
694 0.022538233912978732 -0.0021712965194885126 -0.0018400214614668062
940 -0.0002393394976467443 0.0008846848445990616 0.007887706242174672
928 0.0003354030825388498 -0.0025402951259953176 -0.0018745098170965583
695 -0.02613714832924267 0.042745099842324434 0.035827826353216526
825 -0.008680789106714359 0.04410519949544367 -0.0037672519805818224
690 -0.0005464203325155501 0.001979589838862028 -0.00010120190650570075
248 -0.003011333627473512 -0.02053631785621679 0.017050055283921752
620 0.012250277866384239 0.00669029721213426 -0.0009811808776653752
621 -0.027129249995767688 -0.0023246973005832667 0.012162753386950923
614 -0.0020264560470427038 -0.012866846043121336 0.0014192988291426441
69 -0.0019603844464670906 -0.0035355180458480745 0.00869994309829199
449 0.0016444481426396702 0.0009530629906346472 0.006390192986360594
793 -0.008014426569558671 -0.0013469642561162937 0.0034533464287123594
179 0.05184045345880366 0.014086984192983579 0.014210583609376454
165 0.0032702238882981747 -0.004114730366868745 -0.004045734935110785
491 0.02293004172610849 -0.002836067486582542 0.020648302229011036
803 -0.00849259425858226 -0.019870774029145135 0.006204320154703359
490 0.02823866455970375 -0.007982114019534473 0.03303629832960989
751 -0.006123923974874722 0.0033174846465388354 -0.0007965298221006799
752 -0.041289729823116954 -0.00844870215391708 -0.010645825821409018
687 -0.0039017195188777148 0.0007881050793431526 -0.0005058203676441355
749 -0.0006726655912118551 -0.001324041459848378 -0.0023332789982247483
748 -0.003075489247933657 0.0015024235533461178 0.0007513713544727819
756 -0.012138468629563314 -0.017451824277334983 -0.004420564261419847
804 0.0036300102104227993 -0.012435784887285318 -0.01344532682500689
798 -0.000615989053583994 0.0004895882526744194 0.01046386549831282
802 -0.03382155680368979 -0.011554522262362423 0.0026350713230703145
797 0.003671171360156018 0.00010940747342041502 0.00471920715557588
796 -0.002675134523374816 -0.007019803084429334 0.004834376483116935
795 0.0006255590775244955 0.0024612915612696362 -0.003007463139991365
747 -0.009028620758952418 -0.0026753721681527023 -0.009908499315895209
746 -0.0006484598640675081 0.0022605704485730736 -0.001732489705573474
169 0.002192937576812239 0.008939960940717258 0.013822549793994754
745 -0.006142935237017441 0.004306148203573715 -0.0027227030450048435
689 -0.0025954593604798366 0.0008656091349628424 -0.0017350013712176772
686 0.001341396275708744 0.002317833031703181 -0.0025161595901799943
753 0.005059762646293603 -0.003876587315097636 -0.04009361222897249
685 -0.0028616577639197695 0.005529464366951402 0.00230326036183685
163 -0.004092293451770703 -0.005757630681539772 -0.011300072882700084
486 -0.0029219877203426644 -0.0018579954378935548 0.001352474324046205
164 0.005046822835201179 -0.0017175394508393534 -0.0014608804458793184
688 7.749328354163991e-06 -0.004623872545083021 -0.007663625848990499
696 0.01842773964860067 -0.023313812465598993 0.018931768340161765
492 -0.00880030146330214 -0.004250189371760214 0.024304827350867673
691 0.010362986905979591 -0.020628324695012547 -0.02263802236923933
692 -0.0028606930186899204 0.003194590310991524 0.01155580723888579
693 -0.009069504262623613 0.007207752759351384 0.008061334074869857
166 -0.0052802495469295935 -0.00708305629894402 -0.001172208977825847
47 0.007689409843691335 -0.00048161315840145654 -0.03849385937438814
48 -0.005153345698948267 -0.012179692480673064 -0.0009940092408585368
41 -0.006340230076336838 7.923245904198166e-05 0.0018289416478865022
820 -0.006649334736244386 0.004525400628535854 0.00035860352110848946
62 -0.006868576146591436 0.004436134055487831 0.006073952263628739
162 -0.0009813647977667548 0.0015045646573150114 -0.0053287989771460135
932 0.017086555649847086 -0.025322320543069047 0.001832896664206251
931 -0.019739442345466384 0.002755325343631869 0.02834195946779094
170 -0.0034857606520126948 -0.0272075338499533 0.014446663855387265
485 -0.001462634398014007 0.0010413868581100967 -0.0002940780619922251
801 0.029962464299929756 -0.0029244569551678447 -0.0244897456131437
586 0.0037334231193486087 -0.002975138910962666 0.012008600744927812
484 -0.0033430755986918986 -0.0032162942390530523 -0.005334800860586601
613 -0.003933168623687436 -0.0022530835543157976 -0.006169836427959146
483 -0.003386373693023471 0.005160002414990638 0.0015464111219643827
582 0.003929111067455532 -0.002959132134498916 -0.0018801865545291245
925 0.004193706573391741 0.004894923917022325 -0.003953611789989564
77 0.0012186644231892145 -0.001558225322057777 -0.030807599115769965
794 0.003951353990554655 0.005425650036391427 -0.000169770817975584
947 -0.02027005112175081 0.007516993923721016 -0.0028810670548916465
587 -0.006066855440681226 0.023076891650107467 -0.0007545998777949911
161 0.00306336428997697 0.0008345036830354826 0.0007781316729990075
603 0.00041095935999936877 -0.00044973540351304214 0.0015589136494928418
958 -0.007127250524979656 -0.0038401763762067943 0.009296288536045182
588 -0.007363642826907387 0.00760081970615746 -0.003314942403272363
167 0.011969091049612059 -0.0012636517464686236 0.012149550182753013
168 -0.012669119588592261 0.016457634505125072 -0.015579355323337896
757 0.004770650831583109 -0.006661582565152767 0.0018838787436421542
734 -0.003403212742065195 -0.0023757246745090177 0.0008533044775549331
367 -0.006075507768763725 -0.010113987506104639 -0.021396311179463105
960 0.0157645094130141 0.002792091328386502 -0.008511154487171322
933 -0.012542585029280412 0.0060878635072573505 -0.012183049906891036
758 0.0025272708093368877 -0.008903665174842127 -0.0017632452671889432
429 -0.022894186813620345 0.01988699610802398 -0.0028325651985920608
849 -0.0011834318404417262 -0.011918070348506676 -0.014349857907034644
368 -0.005188071825680673 -0.025293743982631883 0.031786918957113476
636 0.021334192460823135 0.014623989010283103 0.028404620449631754
288 0.023382504491908006 0.01065143214219002 -0.03020599892513492
427 0.017594582827176103 0.010993461209326321 -0.02509829574359757
112 0.00016453114120838248 0.002297528272211079 -0.002268865800711647
286 0.004014139083735934 0.00086834894262402 0.0016470012547548651
114 0.0031353356931883244 -2.583056943754129e-05 -0.003527087526721568
755 0.01835362076715366 0.011159826956767102 0.02462902428505652
625 0.005840777213340696 -0.00045493093810879744 0.003041046374570955
311 0.01055785026863222 0.026013325034960233 -0.009255048260305428
843 -0.0019217740794615532 0.013870923747299743 0.004669016549484205
176 -0.0009065581303663988 0.002946621321263966 0.004033939166452493
765 0.01977745780584608 0.04493028090619868 -0.00032330246333261547
177 0.02884093204942998 0.0016137173514360358 0.00045232379934908576
841 -0.0019099856217980012 0.010594875071540453 -0.0034567416248931027
45 -0.003288433061774599 -0.0033285604648444307 -0.0008577099473937343
607 -0.007822531057928617 -0.006860101108568323 0.0023366931106976402
44 0.007499410419060417 0.0030862511796379707 -0.005291521128493379
318 -0.0005610217846895247 -0.0014743049995876215 0.003384078796625367
976 -0.002542671792124336 0.0018332347217631297 -0.0026753436441081233
750 0.0009088602319512571 0.001122546343732779 -0.0012416048450773938
754 0.008932095805765997 0.01713419567411804 0.003142123414968759
926 0.0006881808404348306 0.0008573940724715533 -0.0034692758827076023
845 0.004364749225070125 -0.006046484636662393 -0.004365557875646527
981 -0.00541637888704527 -0.0026833479015289977 -0.004988664021928318
1013 -0.003962122337231281 0.0009232971936495258 -7.570557859602571e-05
447 0.007491037420892795 -0.002773990447394996 0.001520814210001322
809 0.003910038220029238 0.0044969363963922775 0.003422450737085244
816 0.006669005893296621 0.0051943735599029395 -0.025430732975627823
763 -0.00538080497056795 -0.010249663252627626 0.008547614650682208
768 -0.014972869114741228 0.01287568652201132 -0.02382201125263512
760 0.00023642997326458678 -0.001967984869157735 0.006138458815772266
954 -0.0030349672481498587 -0.0036841290012117403 -0.006336058113343814
761 -0.0072583383593249505 -0.00025860241311167565 0.006839517311177894
814 0.016781356687348987 0.01583175415152791 -0.009861712614230413
178 0.023513379212021984 -0.0147303159238637 0.01206983086648248
959 -0.0557513604028039 0.009271742663819537 -0.001429294444592887
113 0.0034144711006332622 -0.0026616827197305077 0.003918614932781929
281 0.0008538858428182729 0.004298966157591851 0.00379964031263688
935 0.0001250569106508708 -0.001192549539831605 0.01278085397118095
317 -0.002013888807693395 -0.001788384008356855 0.002208893120906834
930 -0.0022046086583137935 0.0047323006788334955 -0.0029249435499249404
934 -0.012359267667605374 0.0012365288954628616 0.038705999141449746
100 -0.005479255497465735 0.012234944710133904 -0.014961123010478538
929 -0.003233539089720258 -0.0002326350870752304 -0.00014201278614642146
764 -0.002639787536197255 0.009018736606007783 0.04696936102863648
984 0.006965433771475189 -0.0005421665462186249 0.0068205534060080016
46 0.006726500275521417 -0.004073493520277904 -0.005667222704140059
980 0.004115226034066851 0.0017081122118263049 0.0018471097430028075
323 0.0009930292076341391 0.0020282941710436106 -0.020695878979383596
815 0.0029798649211482584 0.011668575664983728 0.0030417893930482567
852 -0.008937044979116206 0.008291427993538285 0.011710468953145757
850 0.015687152984797243 0.024926963682858263 0.031170855993483293
983 -0.0008738086600107132 0.003503809586186145 0.001918082823961991
927 0.003033865998718277 -0.006649677272938976 -0.004806412499429492
936 -0.004627064182932749 0.011229303668954888 0.000709822689883443
851 -0.009160033347636449 0.004523020183671428 0.01754360219384401
810 0.005069679364523015 0.0017632849325872563 0.0029324823206789605
738 0.0018383894268774522 -0.003722176930182364 -0.0009723814104405227
171 0.00029590268851455636 -0.0010578926137477717 -0.0027264545243906643
743 0.016178103512298512 0.006204307884032723 0.008743306608523134
846 0.006952873592830898 0.006776145712436252 -0.0037423217824594187
744 -0.0072264330778456015 -0.0029092204930054487 -0.004576333004355861
737 0.00018246860803023128 0.0033163608721823085 0.0009998681773367036
844 0.004421028066608048 0.002017149019965476 -0.0023204989624183185
735 -0.0016712331529963609 -0.007461523588649031 -0.003013528240265309
628 0.004923102889438297 0.002808316553115833 -0.00352257346396081
322 -0.024405538519641484 0.0036711394459552505 -0.0007921220592672484
566 -0.005456557074132254 -0.002657555933010705 0.005646400276201845
847 -0.02878549901218723 -0.0212670171947249 0.0002329557642368051
23 -0.003643060678977718 0.0014552260663424342 -0.007005785253489753
456 -0.008684906711854172 -0.005168726164322646 0.015957279266498148
942 0.0001776478918178119 -0.0043360702988236655 -0.0019221256916536512

Bonds

1 2 401 402
2 5 399 400
3 4 399 401
4 4 398 399
5 2 865 866
6 3 865 871
7 3 865 872
8 3 865 873
9 2 272 273
10 3 272 279
11 3 272 280
12 5 274 275
13 4 274 276
14 2 385 386
15 3 385 391
16 3 385 392
17 3 385 393
18 6 985 986
19 1 271 272
20 2 271 276
21 3 271 277
22 3 271 278
23 4 273 274
24 3 402 406
25 3 402 407
26 3 402 408
27 4 866 867
28 2 397 398
29 3 397 403
30 3 397 404
31 3 397 405
32 6 986 987
33 6 986 988
34 6 986 989
35 5 711 712
36 4 711 713
37 2 661 662
38 3 661 667
39 3 661 668
40 3 661 669
41 2 445 446
42 3 445 451
43 3 445 452
44 3 445 453
45 3 726 730
46 3 726 731
47 3 726 732
48 4 386 387
49 4 193 194
50 3 918 922
51 3 918 923
52 3 918 924
53 2 901 902
54 3 901 907
55 3 901 908
56 3 901 909
57 2 917 918
58 4 818 819
59 2 821 822
60 3 522 526
61 3 522 527
62 3 522 528
63 2 192 193
64 3 192 199
65 3 192 200
66 3 882 886
67 3 882 887
68 3 882 888
69 4 662 663
70 5 663 664
71 4 663 665
72 3 570 574
73 3 570 575
74 3 570 576
75 3 342 346
76 3 342 347
77 3 342 348
78 5 184 185
79 4 184 186
80 2 325 326
81 3 325 331
82 3 325 332
83 3 325 333
84 5 867 868
85 4 867 869
86 2 869 870
87 2 641 642
88 3 858 862
89 3 858 863
90 3 858 864
91 2 857 858
92 1 191 192
93 2 191 196
94 3 191 197
95 3 191 198
96 3 870 874
97 3 870 875
98 3 870 876
99 5 855 856
100 4 855 857
101 2 637 638
102 3 637 643
103 3 637 644
104 3 637 645
105 4 638 639
106 4 854 855
107 2 853 854
108 3 853 859
109 3 853 860
110 3 853 861
111 5 639 640
112 4 639 641
113 5 915 916
114 4 915 917
115 4 914 915
116 5 963 964
117 4 963 965
118 4 962 963
119 2 961 962
120 3 961 967
121 3 961 968
122 3 961 969
123 2 965 966
124 3 966 970
125 3 966 971
126 3 966 972
127 4 374 375
128 2 913 914
129 3 913 919
130 3 913 920
131 3 913 921
132 2 373 374
133 3 373 379
134 3 373 380
135 3 373 381
136 5 194 195
137 4 194 196
138 2 829 830
139 3 829 835
140 3 829 836
141 3 829 837
142 4 326 327
143 1 201 202
144 2 201 206
145 3 201 207
146 3 201 208
147 5 819 820
148 4 819 821
149 5 154 155
150 4 154 156
151 3 642 646
152 3 642 647
153 3 642 648
154 5 144 145
155 4 144 146
156 2 337 338
157 3 337 343
158 3 337 344
159 3 337 345
160 4 434 435
161 2 292 293
162 3 292 299
163 3 292 300
164 2 409 410
165 3 409 415
166 3 409 416
167 3 409 417
168 2 709 710
169 3 709 715
170 3 709 716
171 3 709 717
172 4 338 339
173 5 339 340
174 4 339 341
175 2 769 770
176 3 769 775
177 3 769 776
178 3 769 777
179 5 411 412
180 4 411 413
181 2 341 342
182 2 377 378
183 5 375 376
184 4 375 377
185 2 773 774
186 3 378 382
187 3 378 383
188 3 378 384
189 6 1001 1002
190 6 1001 1003
191 6 1001 1004
192 4 770 771
193 2 413 414
194 4 293 294
195 3 558 562
196 3 558 563
197 3 558 564
198 6 1000 1001
199 3 414 418
200 3 414 419
201 3 414 420
202 3 774 778
203 3 774 779
204 3 774 780
205 2 433 434
206 3 433 439
207 3 433 440
208 3 433 441
209 5 771 772
210 4 771 773
211 6 1005 1006
212 4 410 411
213 6 1006 1007
214 6 1006 1008
215 6 1006 1009
216 4 830 831
217 1 291 292
218 2 291 296
219 3 291 297
220 3 291 298
221 4 902 903
222 4 153 154
223 3 666 670
224 3 666 671
225 3 666 672
226 5 555 556
227 4 555 557
228 2 82 83
229 3 82 89
230 3 82 90
231 2 469 470
232 3 469 475
233 3 469 476
234 3 469 477
235 1 81 82
236 2 81 86
237 3 81 87
238 3 81 88
239 4 470 471
240 3 906 910
241 3 906 911
242 3 906 912
243 5 903 904
244 4 903 905
245 5 471 472
246 4 471 473
247 2 721 722
248 3 721 727
249 3 721 728
250 3 721 729
251 5 214 215
252 4 214 216
253 5 234 235
254 4 234 236
255 2 473 474
256 4 213 214
257 3 474 478
258 3 474 479
259 3 474 480
260 3 426 430
261 3 426 431
262 3 426 432
263 5 423 424
264 4 423 425
265 2 905 906
266 2 541 542
267 3 541 547
268 3 541 548
269 3 541 549
270 2 425 426
271 4 542 543
272 2 22 23
273 3 22 29
274 3 22 30
275 4 83 84
276 4 422 423
277 5 254 255
278 4 254 256
279 4 253 254
280 2 252 253
281 3 252 259
282 3 252 260
283 1 251 252
284 2 251 256
285 3 251 257
286 3 251 258
287 4 722 723
288 1 21 22
289 2 21 26
290 3 21 27
291 3 21 28
292 2 565 566
293 3 565 571
294 3 565 572
295 3 565 573
296 5 723 724
297 4 723 725
298 4 233 234
299 1 231 232
300 2 231 236
301 3 231 237
302 3 231 238
303 2 725 726
304 4 283 284
305 2 605 606
306 1 131 132
307 2 131 136
308 3 131 137
309 3 131 138
310 2 937 938
311 3 937 943
312 3 937 944
313 3 937 945
314 5 939 940
315 4 939 941
316 5 543 544
317 4 543 545
318 4 143 144
319 2 361 362
320 3 361 367
321 3 361 368
322 3 361 369
323 1 141 142
324 2 141 146
325 3 141 147
326 3 141 148
327 5 567 568
328 4 567 569
329 2 242 243
330 3 242 249
331 3 242 250
332 2 941 942
333 3 594 598
334 3 594 599
335 3 594 600
336 5 294 295
337 4 294 296
338 2 545 546
339 2 589 590
340 3 589 595
341 3 589 596
342 3 589 597
343 2 593 594
344 5 591 592
345 4 591 593
346 2 953 954
347 2 365 366
348 4 362 363
349 3 546 550
350 3 546 551
351 3 546 552
352 4 590 591
353 5 951 952
354 4 951 953
355 4 3 4
356 2 2 3
357 3 2 9
358 3 2 10
359 1 1 2
360 2 1 6
361 3 1 7
362 3 1 8
363 5 4 5
364 4 4 6
365 2 949 950
366 3 949 955
367 3 949 956
368 3 949 957
369 5 363 364
370 4 363 365
371 3 366 370
372 3 366 371
373 3 366 372
374 4 73 74
375 5 74 75
376 4 74 76
377 2 182 183
378 3 182 189
379 3 182 190
380 1 181 182
381 2 181 186
382 3 181 187
383 3 181 188
384 5 124 125
385 4 124 126
386 5 64 65
387 4 64 66
388 2 833 834
389 5 831 832
390 4 831 833
391 3 834 838
392 3 834 839
393 3 834 840
394 4 938 939
395 4 103 104
396 2 232 233
397 3 232 239
398 3 232 240
399 5 84 85
400 4 84 86
401 1 111 112
402 2 111 116
403 3 111 117
404 3 111 118
405 4 133 134
406 2 212 213
407 3 212 219
408 3 212 220
409 2 553 554
410 3 553 559
411 3 553 560
412 3 553 561
413 2 557 558
414 5 435 436
415 4 435 437
416 1 121 122
417 2 121 126
418 3 121 127
419 3 121 128
420 4 53 54
421 4 554 555
422 4 950 951
423 4 123 124
424 5 54 55
425 4 54 56
426 2 437 438
427 3 438 442
428 3 438 443
429 3 438 444
430 2 152 153
431 3 152 159
432 3 152 160
433 6 995 996
434 1 211 212
435 2 211 216
436 3 211 217
437 3 211 218
438 2 142 143
439 3 142 149
440 3 142 150
441 2 102 103
442 3 102 109
443 3 102 110
444 2 122 123
445 3 122 129
446 3 122 130
447 5 104 105
448 4 104 106
449 2 52 53
450 3 52 59
451 3 52 60
452 1 101 102
453 2 101 106
454 3 101 107
455 3 101 108
456 5 134 135
457 4 134 136
458 6 996 997
459 6 996 998
460 6 996 999
461 1 151 152
462 2 151 156
463 3 151 157
464 3 151 158
465 2 132 133
466 3 132 139
467 3 132 140
468 1 51 52
469 2 51 56
470 3 51 57
471 3 51 58
472 4 243 244
473 4 63 64
474 2 72 73
475 3 72 79
476 3 72 80
477 2 733 734
478 3 733 739
479 3 733 740
480 3 733 741
481 3 606 610
482 3 606 611
483 3 606 612
484 4 183 184
485 5 244 245
486 4 244 246
487 3 822 826
488 3 822 827
489 3 822 828
490 2 697 698
491 3 697 703
492 3 697 704
493 3 697 705
494 5 224 225
495 4 224 226
496 1 221 222
497 2 221 226
498 3 221 227
499 3 221 228
500 4 223 224
501 2 222 223
502 3 222 229
503 3 222 230
504 1 11 12
505 2 11 16
506 3 11 17
507 3 11 18
508 5 14 15
509 4 14 16
510 2 877 878
511 3 877 883
512 3 877 884
513 3 877 885
514 2 665 666
515 2 493 494
516 3 493 499
517 3 493 500
518 3 493 501
519 3 390 394
520 3 390 395
521 3 390 396
522 3 786 790
523 3 786 791
524 3 786 792
525 5 879 880
526 4 879 881
527 3 534 538
528 3 534 539
529 3 534 540
530 4 878 879
531 2 301 302
532 3 301 307
533 3 301 308
534 3 301 309
535 2 785 786
536 4 350 351
537 2 389 390
538 2 349 350
539 3 349 355
540 3 349 356
541 3 349 357
542 5 783 784
543 4 783 785
544 5 351 352
545 4 351 353
546 5 627 628
547 4 627 629
548 2 881 882
549 4 782 783
550 2 42 43
551 3 42 49
552 3 42 50
553 4 494 495
554 3 630 634
555 3 630 635
556 3 630 636
557 5 495 496
558 4 495 497
559 2 629 630
560 2 781 782
561 3 781 787
562 3 781 788
563 3 781 789
564 2 533 534
565 4 302 303
566 5 24 25
567 4 24 26
568 5 315 316
569 4 315 317
570 2 313 314
571 3 313 319
572 3 313 320
573 3 313 321
574 5 519 520
575 4 519 521
576 2 282 283
577 3 282 289
578 3 282 290
579 5 303 304
580 4 303 305
581 3 510 514
582 3 510 515
583 3 510 516
584 3 306 310
585 3 306 311
586 3 306 312
587 2 305 306
588 4 506 507
589 2 577 578
590 3 577 583
591 3 577 584
592 3 577 585
593 2 481 482
594 3 481 487
595 3 481 488
596 3 481 489
597 5 507 508
598 4 507 509
599 5 675 676
600 4 675 677
601 2 677 678
602 4 674 675
603 4 578 579
604 2 673 674
605 3 673 679
606 3 673 680
607 3 673 681
608 2 509 510
609 2 505 506
610 3 505 511
611 3 505 512
612 3 505 513
613 4 203 204
614 5 204 205
615 4 204 206
616 3 678 682
617 3 678 683
618 3 678 684
619 2 202 203
620 3 202 209
621 3 202 210
622 5 579 580
623 4 579 581
624 4 518 519
625 5 327 328
626 4 327 329
627 2 329 330
628 3 714 718
629 3 714 719
630 3 714 720
631 2 517 518
632 3 517 523
633 3 517 524
634 3 517 525
635 2 581 582
636 2 521 522
637 3 330 334
638 3 330 335
639 3 330 336
640 4 173 174
641 2 12 13
642 3 12 19
643 3 12 20
644 4 13 14
645 5 531 532
646 4 531 533
647 4 93 94
648 4 33 34
649 5 94 95
650 4 94 96
651 2 701 702
652 4 890 891
653 4 698 699
654 5 34 35
655 4 34 36
656 4 710 711
657 2 457 458
658 3 457 463
659 3 457 464
660 3 457 465
661 4 482 483
662 4 314 315
663 2 713 714
664 4 43 44
665 5 891 892
666 4 891 893
667 5 387 388
668 4 387 389
669 5 699 700
670 4 699 701
671 3 462 466
672 3 462 467
673 3 462 468
674 3 894 898
675 3 894 899
676 3 894 900
677 4 458 459
678 5 174 175
679 4 174 176
680 1 91 92
681 2 91 96
682 3 91 97
683 3 91 98
684 2 92 93
685 3 92 99
686 3 92 100
687 3 702 706
688 3 702 707
689 3 702 708
690 2 461 462
691 3 498 502
692 3 498 503
693 3 498 504
694 2 893 894
695 2 497 498
696 2 889 890
697 3 889 895
698 3 889 896
699 3 889 897
700 2 32 33
701 3 32 39
702 3 32 40
703 5 459 460
704 4 459 461
705 1 31 32
706 2 31 36
707 3 31 37
708 3 31 38
709 4 446 447
710 2 817 818
711 3 817 823
712 3 817 824
713 3 817 825
714 4 626 627
715 2 805 806
716 3 805 811
717 3 805 812
718 3 805 813
719 4 806 807
720 2 649 650
721 3 649 655
722 3 649 656
723 3 649 657
724 4 650 651
725 5 651 652
726 4 651 653
727 2 653 654
728 3 354 358
729 3 354 359
730 3 354 360
731 3 654 658
732 3 654 659
733 3 654 660
734 5 264 265
735 4 264 266
736 2 601 602
737 3 601 607
738 3 601 608
739 3 601 609
740 3 450 454
741 3 450 455
742 3 450 456
743 1 261 262
744 2 261 266
745 3 261 267
746 3 261 268
747 4 263 264
748 3 618 622
749 3 618 623
750 3 618 624
751 2 262 263
752 3 262 269
753 3 262 270
754 2 529 530
755 3 529 535
756 3 529 536
757 3 529 537
758 6 1010 1011
759 6 991 992
760 6 991 993
761 6 991 994
762 6 990 991
763 4 602 603
764 3 762 766
765 3 762 767
766 3 762 768
767 1 71 72
768 2 71 76
769 3 71 77
770 3 71 78
771 2 353 354
772 2 172 173
773 3 172 179
774 3 172 180
775 1 61 62
776 2 61 66
777 3 61 67
778 3 61 68
779 1 241 242
780 2 241 246
781 3 241 247
782 3 241 248
783 2 421 422
784 3 421 427
785 3 421 428
786 3 421 429
787 2 617 618
788 5 615 616
789 4 615 617
790 4 842 843
791 5 807 808
792 4 807 809
793 6 1011 1012
794 6 1011 1013
795 6 1011 1014
796 4 530 531
797 5 284 285
798 4 284 286
799 5 759 760
800 4 759 761
801 2 569 570
802 3 690 694
803 3 690 695
804 3 690 696
805 4 614 615
806 2 449 450
807 2 793 794
808 3 793 799
809 3 793 800
810 3 793 801
811 5 687 688
812 4 687 689
813 2 749 750
814 3 798 802
815 3 798 803
816 3 798 804
817 2 797 798
818 5 795 796
819 4 795 797
820 5 747 748
821 4 747 749
822 4 746 747
823 2 745 746
824 3 745 751
825 3 745 752
826 3 745 753
827 2 689 690
828 4 686 687
829 2 685 686
830 3 685 691
831 3 685 692
832 3 685 693
833 4 163 164
834 3 486 490
835 3 486 491
836 3 486 492
837 5 164 165
838 4 164 166
839 1 41 42
840 2 41 46
841 3 41 47
842 3 41 48
843 2 62 63
844 3 62 69
845 3 62 70
846 2 162 163
847 3 162 169
848 3 162 170
849 2 485 486
850 2 613 614
851 3 613 619
852 3 613 620
853 3 613 621
854 5 483 484
855 4 483 485
856 3 582 586
857 3 582 587
858 3 582 588
859 2 925 926
860 3 925 931
861 3 925 932
862 3 925 933
863 4 794 795
864 1 161 162
865 2 161 166
866 3 161 167
867 3 161 168
868 5 603 604
869 4 603 605
870 2 757 758
871 3 757 763
872 3 757 764
873 3 757 765
874 4 734 735
875 4 758 759
876 2 112 113
877 3 112 119
878 3 112 120
879 5 114 115
880 4 114 116
881 2 625 626
882 3 625 631
883 3 625 632
884 3 625 633
885 5 843 844
886 4 843 845
887 2 841 842
888 3 841 847
889 3 841 848
890 3 841 849
891 5 44 45
892 4 44 46
893 3 318 322
894 3 318 323
895 3 318 324
896 3 750 754
897 3 750 755
898 3 750 756
899 4 926 927
900 2 845 846
901 6 981 982
902 6 981 983
903 6 981 984
904 5 447 448
905 4 447 449
906 2 809 810
907 3 954 958
908 3 954 959
909 3 954 960
910 2 761 762
911 4 113 114
912 1 281 282
913 2 281 286
914 3 281 287
915 3 281 288
916 2 317 318
917 3 930 934
918 3 930 935
919 3 930 936
920 2 929 930
921 6 980 981
922 5 927 928
923 4 927 929
924 3 810 814
925 3 810 815
926 3 810 816
927 3 738 742
928 3 738 743
929 3 738 744
930 1 171 172
931 2 171 176
932 3 171 177
933 3 171 178
934 3 846 850
935 3 846 851
936 3 846 852
937 2 737 738
938 5 735 736
939 4 735 737
940 4 566 567
941 4 23 24
942 3 942 946
943 3 942 947
944 3 942 948

Angles

1 5 399 401 402
2 3 398 399 400
3 6 398 399 401
4 3 400 399 401
5 5 397 398 399
6 2 866 865 871
7 2 866 865 872
8 2 866 865 873
9 4 871 865 872
10 4 871 865 873
11 4 872 865 873
12 1 271 272 273
13 2 271 272 279
14 2 271 272 280
15 2 273 272 279
16 2 273 272 280
17 4 279 272 280
18 3 273 274 275
19 1 273 274 276
20 3 275 274 276
21 2 386 385 391
22 2 386 385 392
23 2 386 385 393
24 4 391 385 392
25 4 391 385 393
26 4 392 385 393
27 1 271 276 274
28 1 272 271 276
29 2 272 271 277
30 2 272 271 278
31 2 276 271 277
32 2 276 271 278
33 4 277 271 278
34 1 272 273 274
35 2 401 402 406
36 2 401 402 407
37 2 401 402 408
38 4 406 402 407
39 4 406 402 408
40 4 407 402 408
41 5 865 866 867
42 2 398 397 403
43 2 398 397 404
44 2 398 397 405
45 4 403 397 404
46 4 403 397 405
47 4 404 397 405
48 7 985 986 987
49 7 985 986 988
50 7 985 986 989
51 7 987 986 988
52 7 987 986 989
53 7 988 986 989
54 3 710 711 712
55 6 710 711 713
56 3 712 711 713
57 1 61 66 64
58 2 662 661 667
59 2 662 661 668
60 2 662 661 669
61 4 667 661 668
62 4 667 661 669
63 4 668 661 669
64 2 446 445 451
65 2 446 445 452
66 2 446 445 453
67 4 451 445 452
68 4 451 445 453
69 4 452 445 453
70 2 725 726 730
71 2 725 726 731
72 2 725 726 732
73 4 730 726 731
74 4 730 726 732
75 4 731 726 732
76 5 385 386 387
77 1 192 193 194
78 2 917 918 922
79 2 917 918 923
80 2 917 918 924
81 4 922 918 923
82 4 922 918 924
83 4 923 918 924
84 2 902 901 907
85 2 902 901 908
86 2 902 901 909
87 4 907 901 908
88 4 907 901 909
89 4 908 901 909
90 5 915 917 918
91 5 817 818 819
92 5 819 821 822
93 2 521 522 526
94 2 521 522 527
95 2 521 522 528
96 4 526 522 527
97 4 526 522 528
98 4 527 522 528
99 1 191 192 193
100 2 191 192 199
101 2 191 192 200
102 2 193 192 199
103 2 193 192 200
104 4 199 192 200
105 2 881 882 886
106 2 881 882 887
107 2 881 882 888
108 4 886 882 887
109 4 886 882 888
110 4 887 882 888
111 1 21 26 24
112 5 661 662 663
113 3 662 663 664
114 6 662 663 665
115 3 664 663 665
116 2 569 570 574
117 2 569 570 575
118 2 569 570 576
119 4 574 570 575
120 4 574 570 576
121 4 575 570 576
122 2 341 342 346
123 2 341 342 347
124 2 341 342 348
125 4 346 342 347
126 4 346 342 348
127 4 347 342 348
128 3 183 184 185
129 1 183 184 186
130 3 185 184 186
131 2 326 325 331
132 2 326 325 332
133 2 326 325 333
134 4 331 325 332
135 4 331 325 333
136 4 332 325 333
137 3 866 867 868
138 6 866 867 869
139 3 868 867 869
140 5 867 869 870
141 5 639 641 642
142 2 857 858 862
143 2 857 858 863
144 2 857 858 864
145 4 862 858 863
146 4 862 858 864
147 4 863 858 864
148 5 855 857 858
149 1 192 191 196
150 2 192 191 197
151 2 192 191 198
152 2 196 191 197
153 2 196 191 198
154 4 197 191 198
155 1 191 196 194
156 2 869 870 874
157 2 869 870 875
158 2 869 870 876
159 4 874 870 875
160 4 874 870 876
161 4 875 870 876
162 3 854 855 856
163 6 854 855 857
164 3 856 855 857
165 2 638 637 643
166 2 638 637 644
167 2 638 637 645
168 4 643 637 644
169 4 643 637 645
170 4 644 637 645
171 5 637 638 639
172 5 853 854 855
173 2 854 853 859
174 2 854 853 860
175 2 854 853 861
176 4 859 853 860
177 4 859 853 861
178 4 860 853 861
179 3 638 639 640
180 6 638 639 641
181 3 640 639 641
182 3 914 915 916
183 6 914 915 917
184 3 916 915 917
185 5 913 914 915
186 3 962 963 964
187 6 962 963 965
188 3 964 963 965
189 5 961 962 963
190 2 962 961 967
191 2 962 961 968
192 2 962 961 969
193 4 967 961 968
194 4 967 961 969
195 4 968 961 969
196 5 963 965 966
197 2 965 966 970
198 2 965 966 971
199 2 965 966 972
200 4 970 966 971
201 4 970 966 972
202 4 971 966 972
203 5 373 374 375
204 2 914 913 919
205 2 914 913 920
206 2 914 913 921
207 4 919 913 920
208 4 919 913 921
209 4 920 913 921
210 2 374 373 379
211 2 374 373 380
212 2 374 373 381
213 4 379 373 380
214 4 379 373 381
215 4 380 373 381
216 3 193 194 195
217 1 193 194 196
218 3 195 194 196
219 2 830 829 835
220 2 830 829 836
221 2 830 829 837
222 4 835 829 836
223 4 835 829 837
224 4 836 829 837
225 5 325 326 327
226 1 202 201 206
227 2 202 201 207
228 2 202 201 208
229 2 206 201 207
230 2 206 201 208
231 4 207 201 208
232 3 818 819 820
233 6 818 819 821
234 3 820 819 821
235 1 141 146 144
236 3 153 154 155
237 1 153 154 156
238 3 155 154 156
239 2 641 642 646
240 2 641 642 647
241 2 641 642 648
242 4 646 642 647
243 4 646 642 648
244 4 647 642 648
245 3 143 144 145
246 1 143 144 146
247 3 145 144 146
248 2 338 337 343
249 2 338 337 344
250 2 338 337 345
251 4 343 337 344
252 4 343 337 345
253 4 344 337 345
254 5 433 434 435
255 1 291 292 293
256 2 291 292 299
257 2 291 292 300
258 2 293 292 299
259 2 293 292 300
260 4 299 292 300
261 2 410 409 415
262 2 410 409 416
263 2 410 409 417
264 4 415 409 416
265 4 415 409 417
266 4 416 409 417
267 2 710 709 715
268 2 710 709 716
269 2 710 709 717
270 4 715 709 716
271 4 715 709 717
272 4 716 709 717
273 5 337 338 339
274 3 338 339 340
275 6 338 339 341
276 3 340 339 341
277 2 770 769 775
278 2 770 769 776
279 2 770 769 777
280 4 775 769 776
281 4 775 769 777
282 4 776 769 777
283 3 410 411 412
284 6 410 411 413
285 3 412 411 413
286 5 339 341 342
287 5 375 377 378
288 3 374 375 376
289 6 374 375 377
290 3 376 375 377
291 5 771 773 774
292 2 377 378 382
293 2 377 378 383
294 2 377 378 384
295 4 382 378 383
296 4 382 378 384
297 4 383 378 384
298 7 1000 1001 1002
299 7 1000 1001 1003
300 7 1000 1001 1004
301 7 1002 1001 1003
302 7 1002 1001 1004
303 7 1003 1001 1004
304 5 769 770 771
305 5 411 413 414
306 1 292 293 294
307 2 557 558 562
308 2 557 558 563
309 2 557 558 564
310 4 562 558 563
311 4 562 558 564
312 4 563 558 564
313 2 413 414 418
314 2 413 414 419
315 2 413 414 420
316 4 418 414 419
317 4 418 414 420
318 4 419 414 420
319 2 773 774 778
320 2 773 774 779
321 2 773 774 780
322 4 778 774 779
323 4 778 774 780
324 4 779 774 780
325 2 434 433 439
326 2 434 433 440
327 2 434 433 441
328 4 439 433 440
329 4 439 433 441
330 4 440 433 441
331 3 770 771 772
332 6 770 771 773
333 3 772 771 773
334 5 409 410 411
335 7 1005 1006 1007
336 7 1005 1006 1008
337 7 1005 1006 1009
338 7 1007 1006 1008
339 7 1007 1006 1009
340 7 1008 1006 1009
341 5 829 830 831
342 1 292 291 296
343 2 292 291 297
344 2 292 291 298
345 2 296 291 297
346 2 296 291 298
347 4 297 291 298
348 5 901 902 903
349 1 152 153 154
350 2 665 666 670
351 2 665 666 671
352 2 665 666 672
353 4 670 666 671
354 4 670 666 672
355 4 671 666 672
356 3 554 555 556
357 6 554 555 557
358 3 556 555 557
359 1 81 82 83
360 2 81 82 89
361 2 81 82 90
362 2 83 82 89
363 2 83 82 90
364 4 89 82 90
365 2 470 469 475
366 2 470 469 476
367 2 470 469 477
368 4 475 469 476
369 4 475 469 477
370 4 476 469 477
371 1 82 81 86
372 2 82 81 87
373 2 82 81 88
374 2 86 81 87
375 2 86 81 88
376 4 87 81 88
377 5 469 470 471
378 2 905 906 910
379 2 905 906 911
380 2 905 906 912
381 4 910 906 911
382 4 910 906 912
383 4 911 906 912
384 3 902 903 904
385 6 902 903 905
386 3 904 903 905
387 3 470 471 472
388 6 470 471 473
389 3 472 471 473
390 2 722 721 727
391 2 722 721 728
392 2 722 721 729
393 4 727 721 728
394 4 727 721 729
395 4 728 721 729
396 3 213 214 215
397 1 213 214 216
398 3 215 214 216
399 3 233 234 235
400 1 233 234 236
401 3 235 234 236
402 1 211 216 214
403 5 471 473 474
404 1 212 213 214
405 2 473 474 478
406 2 473 474 479
407 2 473 474 480
408 4 478 474 479
409 4 478 474 480
410 4 479 474 480
411 2 425 426 430
412 2 425 426 431
413 2 425 426 432
414 4 430 426 431
415 4 430 426 432
416 4 431 426 432
417 3 422 423 424
418 6 422 423 425
419 3 424 423 425
420 5 903 905 906
421 2 542 541 547
422 2 542 541 548
423 2 542 541 549
424 4 547 541 548
425 4 547 541 549
426 4 548 541 549
427 5 423 425 426
428 5 541 542 543
429 1 21 22 23
430 2 21 22 29
431 2 21 22 30
432 2 23 22 29
433 2 23 22 30
434 4 29 22 30
435 1 82 83 84
436 1 231 236 234
437 1 81 86 84
438 5 421 422 423
439 3 253 254 255
440 1 253 254 256
441 3 255 254 256
442 1 252 253 254
443 1 251 252 253
444 2 251 252 259
445 2 251 252 260
446 2 253 252 259
447 2 253 252 260
448 4 259 252 260
449 1 252 251 256
450 2 252 251 257
451 2 252 251 258
452 2 256 251 257
453 2 256 251 258
454 4 257 251 258
455 5 721 722 723
456 1 251 256 254
457 1 22 21 26
458 2 22 21 27
459 2 22 21 28
460 2 26 21 27
461 2 26 21 28
462 4 27 21 28
463 2 566 565 571
464 2 566 565 572
465 2 566 565 573
466 4 571 565 572
467 4 571 565 573
468 4 572 565 573
469 3 722 723 724
470 6 722 723 725
471 3 724 723 725
472 1 232 233 234
473 1 232 231 236
474 2 232 231 237
475 2 232 231 238
476 2 236 231 237
477 2 236 231 238
478 4 237 231 238
479 5 723 725 726
480 1 282 283 284
481 5 603 605 606
482 1 131 136 134
483 1 132 131 136
484 2 132 131 137
485 2 132 131 138
486 2 136 131 137
487 2 136 131 138
488 4 137 131 138
489 2 938 937 943
490 2 938 937 944
491 2 938 937 945
492 4 943 937 944
493 4 943 937 945
494 4 944 937 945
495 3 938 939 940
496 6 938 939 941
497 3 940 939 941
498 3 542 543 544
499 6 542 543 545
500 3 544 543 545
501 1 142 143 144
502 2 362 361 367
503 2 362 361 368
504 2 362 361 369
505 4 367 361 368
506 4 367 361 369
507 4 368 361 369
508 1 142 141 146
509 2 142 141 147
510 2 142 141 148
511 2 146 141 147
512 2 146 141 148
513 4 147 141 148
514 3 566 567 568
515 6 566 567 569
516 3 568 567 569
517 1 241 242 243
518 2 241 242 249
519 2 241 242 250
520 2 243 242 249
521 2 243 242 250
522 4 249 242 250
523 5 939 941 942
524 2 593 594 598
525 2 593 594 599
526 2 593 594 600
527 4 598 594 599
528 4 598 594 600
529 4 599 594 600
530 3 293 294 295
531 1 293 294 296
532 3 295 294 296
533 5 543 545 546
534 2 590 589 595
535 2 590 589 596
536 2 590 589 597
537 4 595 589 596
538 4 595 589 597
539 4 596 589 597
540 5 591 593 594
541 3 590 591 592
542 6 590 591 593
543 3 592 591 593
544 5 951 953 954
545 5 363 365 366
546 5 361 362 363
547 2 545 546 550
548 2 545 546 551
549 2 545 546 552
550 4 550 546 551
551 4 550 546 552
552 4 551 546 552
553 5 589 590 591
554 3 950 951 952
555 6 950 951 953
556 3 952 951 953
557 1 2 3 4
558 1 1 2 3
559 2 1 2 9
560 2 1 2 10
561 2 3 2 9
562 2 3 2 10
563 4 9 2 10
564 1 2 1 6
565 2 2 1 7
566 2 2 1 8
567 2 6 1 7
568 2 6 1 8
569 4 7 1 8
570 3 3 4 5
571 1 3 4 6
572 3 5 4 6
573 1 1 6 4
574 2 950 949 955
575 2 950 949 956
576 2 950 949 957
577 4 955 949 956
578 4 955 949 957
579 4 956 949 957
580 3 362 363 364
581 6 362 363 365
582 3 364 363 365
583 2 365 366 370
584 2 365 366 371
585 2 365 366 372
586 4 370 366 371
587 4 370 366 372
588 4 371 366 372
589 1 72 73 74
590 3 73 74 75
591 1 73 74 76
592 3 75 74 76
593 1 71 76 74
594 1 181 182 183
595 2 181 182 189
596 2 181 182 190
597 2 183 182 189
598 2 183 182 190
599 4 189 182 190
600 1 182 181 186
601 2 182 181 187
602 2 182 181 188
603 2 186 181 187
604 2 186 181 188
605 4 187 181 188
606 1 181 186 184
607 3 123 124 125
608 1 123 124 126
609 3 125 124 126
610 1 121 126 124
611 3 63 64 65
612 1 63 64 66
613 3 65 64 66
614 5 831 833 834
615 3 830 831 832
616 6 830 831 833
617 3 832 831 833
618 2 833 834 838
619 2 833 834 839
620 2 833 834 840
621 4 838 834 839
622 4 838 834 840
623 4 839 834 840
624 5 937 938 939
625 1 102 103 104
626 1 231 232 233
627 2 231 232 239
628 2 231 232 240
629 2 233 232 239
630 2 233 232 240
631 4 239 232 240
632 3 83 84 85
633 1 83 84 86
634 3 85 84 86
635 1 112 111 116
636 2 112 111 117
637 2 112 111 118
638 2 116 111 117
639 2 116 111 118
640 4 117 111 118
641 1 132 133 134
642 1 211 212 213
643 2 211 212 219
644 2 211 212 220
645 2 213 212 219
646 2 213 212 220
647 4 219 212 220
648 2 554 553 559
649 2 554 553 560
650 2 554 553 561
651 4 559 553 560
652 4 559 553 561
653 4 560 553 561
654 5 555 557 558
655 1 111 116 114
656 3 434 435 436
657 6 434 435 437
658 3 436 435 437
659 1 122 121 126
660 2 122 121 127
661 2 122 121 128
662 2 126 121 127
663 2 126 121 128
664 4 127 121 128
665 1 52 53 54
666 5 553 554 555
667 5 949 950 951
668 1 122 123 124
669 1 51 56 54
670 3 53 54 55
671 1 53 54 56
672 3 55 54 56
673 1 291 296 294
674 5 435 437 438
675 2 437 438 442
676 2 437 438 443
677 2 437 438 444
678 4 442 438 443
679 4 442 438 444
680 4 443 438 444
681 1 151 152 153
682 2 151 152 159
683 2 151 152 160
684 2 153 152 159
685 2 153 152 160
686 4 159 152 160
687 1 212 211 216
688 2 212 211 217
689 2 212 211 218
690 2 216 211 217
691 2 216 211 218
692 4 217 211 218
693 1 101 106 104
694 1 141 142 143
695 2 141 142 149
696 2 141 142 150
697 2 143 142 149
698 2 143 142 150
699 4 149 142 150
700 1 151 156 154
701 1 101 102 103
702 2 101 102 109
703 2 101 102 110
704 2 103 102 109
705 2 103 102 110
706 4 109 102 110
707 1 121 122 123
708 2 121 122 129
709 2 121 122 130
710 2 123 122 129
711 2 123 122 130
712 4 129 122 130
713 3 103 104 105
714 1 103 104 106
715 3 105 104 106
716 1 51 52 53
717 2 51 52 59
718 2 51 52 60
719 2 53 52 59
720 2 53 52 60
721 4 59 52 60
722 1 102 101 106
723 2 102 101 107
724 2 102 101 108
725 2 106 101 107
726 2 106 101 108
727 4 107 101 108
728 3 133 134 135
729 1 133 134 136
730 3 135 134 136
731 7 995 996 997
732 7 995 996 998
733 7 995 996 999
734 7 997 996 998
735 7 997 996 999
736 7 998 996 999
737 1 152 151 156
738 2 152 151 157
739 2 152 151 158
740 2 156 151 157
741 2 156 151 158
742 4 157 151 158
743 1 131 132 133
744 2 131 132 139
745 2 131 132 140
746 2 133 132 139
747 2 133 132 140
748 4 139 132 140
749 1 52 51 56
750 2 52 51 57
751 2 52 51 58
752 2 56 51 57
753 2 56 51 58
754 4 57 51 58
755 1 242 243 244
756 1 62 63 64
757 1 71 72 73
758 2 71 72 79
759 2 71 72 80
760 2 73 72 79
761 2 73 72 80
762 4 79 72 80
763 2 734 733 739
764 2 734 733 740
765 2 734 733 741
766 4 739 733 740
767 4 739 733 741
768 4 740 733 741
769 2 605 606 610
770 2 605 606 611
771 2 605 606 612
772 4 610 606 611
773 4 610 606 612
774 4 611 606 612
775 1 182 183 184
776 3 243 244 245
777 1 243 244 246
778 3 245 244 246
779 2 821 822 826
780 2 821 822 827
781 2 821 822 828
782 4 826 822 827
783 4 826 822 828
784 4 827 822 828
785 2 698 697 703
786 2 698 697 704
787 2 698 697 705
788 4 703 697 704
789 4 703 697 705
790 4 704 697 705
791 3 223 224 225
792 1 223 224 226
793 3 225 224 226
794 1 221 226 224
795 1 222 221 226
796 2 222 221 227
797 2 222 221 228
798 2 226 221 227
799 2 226 221 228
800 4 227 221 228
801 1 222 223 224
802 1 221 222 223
803 2 221 222 229
804 2 221 222 230
805 2 223 222 229
806 2 223 222 230
807 4 229 222 230
808 1 12 11 16
809 2 12 11 17
810 2 12 11 18
811 2 16 11 17
812 2 16 11 18
813 4 17 11 18
814 1 11 16 14
815 3 13 14 15
816 1 13 14 16
817 3 15 14 16
818 2 878 877 883
819 2 878 877 884
820 2 878 877 885
821 4 883 877 884
822 4 883 877 885
823 4 884 877 885
824 5 663 665 666
825 2 494 493 499
826 2 494 493 500
827 2 494 493 501
828 4 499 493 500
829 4 499 493 501
830 4 500 493 501
831 2 389 390 394
832 2 389 390 395
833 2 389 390 396
834 4 394 390 395
835 4 394 390 396
836 4 395 390 396
837 2 785 786 790
838 2 785 786 791
839 2 785 786 792
840 4 790 786 791
841 4 790 786 792
842 4 791 786 792
843 3 878 879 880
844 6 878 879 881
845 3 880 879 881
846 2 533 534 538
847 2 533 534 539
848 2 533 534 540
849 4 538 534 539
850 4 538 534 540
851 4 539 534 540
852 5 877 878 879
853 2 302 301 307
854 2 302 301 308
855 2 302 301 309
856 4 307 301 308
857 4 307 301 309
858 4 308 301 309
859 5 783 785 786
860 5 349 350 351
861 5 387 389 390
862 2 350 349 355
863 2 350 349 356
864 2 350 349 357
865 4 355 349 356
866 4 355 349 357
867 4 356 349 357
868 3 782 783 784
869 6 782 783 785
870 3 784 783 785
871 3 350 351 352
872 6 350 351 353
873 3 352 351 353
874 3 626 627 628
875 6 626 627 629
876 3 628 627 629
877 5 879 881 882
878 5 781 782 783
879 1 41 42 43
880 2 41 42 49
881 2 41 42 50
882 2 43 42 49
883 2 43 42 50
884 4 49 42 50
885 5 493 494 495
886 2 629 630 634
887 2 629 630 635
888 2 629 630 636
889 4 634 630 635
890 4 634 630 636
891 4 635 630 636
892 3 494 495 496
893 6 494 495 497
894 3 496 495 497
895 5 627 629 630
896 2 782 781 787
897 2 782 781 788
898 2 782 781 789
899 4 787 781 788
900 4 787 781 789
901 4 788 781 789
902 5 531 533 534
903 5 301 302 303
904 3 23 24 25
905 1 23 24 26
906 3 25 24 26
907 3 314 315 316
908 6 314 315 317
909 3 316 315 317
910 2 314 313 319
911 2 314 313 320
912 2 314 313 321
913 4 319 313 320
914 4 319 313 321
915 4 320 313 321
916 3 518 519 520
917 6 518 519 521
918 3 520 519 521
919 1 281 282 283
920 2 281 282 289
921 2 281 282 290
922 2 283 282 289
923 2 283 282 290
924 4 289 282 290
925 3 302 303 304
926 6 302 303 305
927 3 304 303 305
928 1 31 36 34
929 2 509 510 514
930 2 509 510 515
931 2 509 510 516
932 4 514 510 515
933 4 514 510 516
934 4 515 510 516
935 2 305 306 310
936 2 305 306 311
937 2 305 306 312
938 4 310 306 311
939 4 310 306 312
940 4 311 306 312
941 5 303 305 306
942 5 505 506 507
943 2 578 577 583
944 2 578 577 584
945 2 578 577 585
946 4 583 577 584
947 4 583 577 585
948 4 584 577 585
949 2 482 481 487
950 2 482 481 488
951 2 482 481 489
952 4 487 481 488
953 4 487 481 489
954 4 488 481 489
955 3 506 507 508
956 6 506 507 509
957 3 508 507 509
958 3 674 675 676
959 6 674 675 677
960 3 676 675 677
961 5 675 677 678
962 5 673 674 675
963 5 577 578 579
964 2 674 673 679
965 2 674 673 680
966 2 674 673 681
967 4 679 673 680
968 4 679 673 681
969 4 680 673 681
970 5 507 509 510
971 2 506 505 511
972 2 506 505 512
973 2 506 505 513
974 4 511 505 512
975 4 511 505 513
976 4 512 505 513
977 1 202 203 204
978 3 203 204 205
979 1 203 204 206
980 3 205 204 206
981 2 677 678 682
982 2 677 678 683
983 2 677 678 684
984 4 682 678 683
985 4 682 678 684
986 4 683 678 684
987 1 201 202 203
988 2 201 202 209
989 2 201 202 210
990 2 203 202 209
991 2 203 202 210
992 4 209 202 210
993 3 578 579 580
994 6 578 579 581
995 3 580 579 581
996 5 517 518 519
997 3 326 327 328
998 6 326 327 329
999 3 328 327 329
1000 5 327 329 330
1001 2 713 714 718
1002 2 713 714 719
1003 2 713 714 720
1004 4 718 714 719
1005 4 718 714 720
1006 4 719 714 720
1007 2 518 517 523
1008 2 518 517 524
1009 2 518 517 525
1010 4 523 517 524
1011 4 523 517 525
1012 4 524 517 525
1013 5 579 581 582
1014 5 519 521 522
1015 2 329 330 334
1016 2 329 330 335
1017 2 329 330 336
1018 4 334 330 335
1019 4 334 330 336
1020 4 335 330 336
1021 1 172 173 174
1022 1 11 12 13
1023 2 11 12 19
1024 2 11 12 20
1025 2 13 12 19
1026 2 13 12 20
1027 4 19 12 20
1028 1 12 13 14
1029 3 530 531 532
1030 6 530 531 533
1031 3 532 531 533
1032 1 92 93 94
1033 1 32 33 34
1034 3 93 94 95
1035 1 93 94 96
1036 3 95 94 96
1037 1 91 96 94
1038 5 699 701 702
1039 5 889 890 891
1040 5 697 698 699
1041 3 33 34 35
1042 1 33 34 36
1043 3 35 34 36
1044 5 709 710 711
1045 2 458 457 463
1046 2 458 457 464
1047 2 458 457 465
1048 4 463 457 464
1049 4 463 457 465
1050 4 464 457 465
1051 5 481 482 483
1052 5 313 314 315
1053 5 711 713 714
1054 1 42 43 44
1055 3 890 891 892
1056 6 890 891 893
1057 3 892 891 893
1058 3 386 387 388
1059 6 386 387 389
1060 3 388 387 389
1061 3 698 699 700
1062 6 698 699 701
1063 3 700 699 701
1064 2 461 462 466
1065 2 461 462 467
1066 2 461 462 468
1067 4 466 462 467
1068 4 466 462 468
1069 4 467 462 468
1070 2 893 894 898
1071 2 893 894 899
1072 2 893 894 900
1073 4 898 894 899
1074 4 898 894 900
1075 4 899 894 900
1076 5 457 458 459
1077 3 173 174 175
1078 1 173 174 176
1079 3 175 174 176
1080 1 92 91 96
1081 2 92 91 97
1082 2 92 91 98
1083 2 96 91 97
1084 2 96 91 98
1085 4 97 91 98
1086 1 91 92 93
1087 2 91 92 99
1088 2 91 92 100
1089 2 93 92 99
1090 2 93 92 100
1091 4 99 92 100
1092 2 701 702 706
1093 2 701 702 707
1094 2 701 702 708
1095 4 706 702 707
1096 4 706 702 708
1097 4 707 702 708
1098 5 459 461 462
1099 2 497 498 502
1100 2 497 498 503
1101 2 497 498 504
1102 4 502 498 503
1103 4 502 498 504
1104 4 503 498 504
1105 5 891 893 894
1106 5 495 497 498
1107 2 890 889 895
1108 2 890 889 896
1109 2 890 889 897
1110 4 895 889 896
1111 4 895 889 897
1112 4 896 889 897
1113 1 31 32 33
1114 2 31 32 39
1115 2 31 32 40
1116 2 33 32 39
1117 2 33 32 40
1118 4 39 32 40
1119 3 458 459 460
1120 6 458 459 461
1121 3 460 459 461
1122 1 32 31 36
1123 2 32 31 37
1124 2 32 31 38
1125 2 36 31 37
1126 2 36 31 38
1127 4 37 31 38
1128 5 445 446 447
1129 2 818 817 823
1130 2 818 817 824
1131 2 818 817 825
1132 4 823 817 824
1133 4 823 817 825
1134 4 824 817 825
1135 5 625 626 627
1136 1 201 206 204
1137 2 806 805 811
1138 2 806 805 812
1139 2 806 805 813
1140 4 811 805 812
1141 4 811 805 813
1142 4 812 805 813
1143 5 805 806 807
1144 2 650 649 655
1145 2 650 649 656
1146 2 650 649 657
1147 4 655 649 656
1148 4 655 649 657
1149 4 656 649 657
1150 5 649 650 651
1151 1 261 266 264
1152 3 650 651 652
1153 6 650 651 653
1154 3 652 651 653
1155 5 651 653 654
1156 2 353 354 358
1157 2 353 354 359
1158 2 353 354 360
1159 4 358 354 359
1160 4 358 354 360
1161 4 359 354 360
1162 2 653 654 658
1163 2 653 654 659
1164 2 653 654 660
1165 4 658 654 659
1166 4 658 654 660
1167 4 659 654 660
1168 3 263 264 265
1169 1 263 264 266
1170 3 265 264 266
1171 2 602 601 607
1172 2 602 601 608
1173 2 602 601 609
1174 4 607 601 608
1175 4 607 601 609
1176 4 608 601 609
1177 2 449 450 454
1178 2 449 450 455
1179 2 449 450 456
1180 4 454 450 455
1181 4 454 450 456
1182 4 455 450 456
1183 1 262 261 266
1184 2 262 261 267
1185 2 262 261 268
1186 2 266 261 267
1187 2 266 261 268
1188 4 267 261 268
1189 1 262 263 264
1190 2 617 618 622
1191 2 617 618 623
1192 2 617 618 624
1193 4 622 618 623
1194 4 622 618 624
1195 4 623 618 624
1196 1 261 262 263
1197 2 261 262 269
1198 2 261 262 270
1199 2 263 262 269
1200 2 263 262 270
1201 4 269 262 270
1202 2 530 529 535
1203 2 530 529 536
1204 2 530 529 537
1205 4 535 529 536
1206 4 535 529 537
1207 4 536 529 537
1208 1 241 246 244
1209 7 990 991 992
1210 7 990 991 993
1211 7 990 991 994
1212 7 992 991 993
1213 7 992 991 994
1214 7 993 991 994
1215 5 601 602 603
1216 2 761 762 766
1217 2 761 762 767
1218 2 761 762 768
1219 4 766 762 767
1220 4 766 762 768
1221 4 767 762 768
1222 1 72 71 76
1223 2 72 71 77
1224 2 72 71 78
1225 2 76 71 77
1226 2 76 71 78
1227 4 77 71 78
1228 5 351 353 354
1229 1 171 172 173
1230 2 171 172 179
1231 2 171 172 180
1232 2 173 172 179
1233 2 173 172 180
1234 4 179 172 180
1235 1 62 61 66
1236 2 62 61 67
1237 2 62 61 68
1238 2 66 61 67
1239 2 66 61 68
1240 4 67 61 68
1241 1 242 241 246
1242 2 242 241 247
1243 2 242 241 248
1244 2 246 241 247
1245 2 246 241 248
1246 4 247 241 248
1247 2 422 421 427
1248 2 422 421 428
1249 2 422 421 429
1250 4 427 421 428
1251 4 427 421 429
1252 4 428 421 429
1253 5 615 617 618
1254 3 614 615 616
1255 6 614 615 617
1256 3 616 615 617
1257 5 841 842 843
1258 3 806 807 808
1259 6 806 807 809
1260 3 808 807 809
1261 7 1010 1011 1012
1262 7 1010 1011 1013
1263 7 1010 1011 1014
1264 7 1012 1011 1013
1265 7 1012 1011 1014
1266 7 1013 1011 1014
1267 5 529 530 531
1268 3 283 284 285
1269 1 283 284 286
1270 3 285 284 286
1271 3 758 759 760
1272 6 758 759 761
1273 3 760 759 761
1274 5 567 569 570
1275 2 689 690 694
1276 2 689 690 695
1277 2 689 690 696
1278 4 694 690 695
1279 4 694 690 696
1280 4 695 690 696
1281 5 613 614 615
1282 5 447 449 450
1283 2 794 793 799
1284 2 794 793 800
1285 2 794 793 801
1286 4 799 793 800
1287 4 799 793 801
1288 4 800 793 801
1289 3 686 687 688
1290 6 686 687 689
1291 3 688 687 689
1292 5 747 749 750
1293 2 797 798 802
1294 2 797 798 803
1295 2 797 798 804
1296 4 802 798 803
1297 4 802 798 804
1298 4 803 798 804
1299 5 795 797 798
1300 3 794 795 796
1301 6 794 795 797
1302 3 796 795 797
1303 3 746 747 748
1304 6 746 747 749
1305 3 748 747 749
1306 5 745 746 747
1307 2 746 745 751
1308 2 746 745 752
1309 2 746 745 753
1310 4 751 745 752
1311 4 751 745 753
1312 4 752 745 753
1313 5 687 689 690
1314 5 685 686 687
1315 2 686 685 691
1316 2 686 685 692
1317 2 686 685 693
1318 4 691 685 692
1319 4 691 685 693
1320 4 692 685 693
1321 1 162 163 164
1322 2 485 486 490
1323 2 485 486 491
1324 2 485 486 492
1325 4 490 486 491
1326 4 490 486 492
1327 4 491 486 492
1328 3 163 164 165
1329 1 163 164 166
1330 3 165 164 166
1331 1 161 166 164
1332 1 42 41 46
1333 2 42 41 47
1334 2 42 41 48
1335 2 46 41 47
1336 2 46 41 48
1337 4 47 41 48
1338 1 61 62 63
1339 2 61 62 69
1340 2 61 62 70
1341 2 63 62 69
1342 2 63 62 70
1343 4 69 62 70
1344 1 161 162 163
1345 2 161 162 169
1346 2 161 162 170
1347 2 163 162 169
1348 2 163 162 170
1349 4 169 162 170
1350 5 483 485 486
1351 2 614 613 619
1352 2 614 613 620
1353 2 614 613 621
1354 4 619 613 620
1355 4 619 613 621
1356 4 620 613 621
1357 3 482 483 484
1358 6 482 483 485
1359 3 484 483 485
1360 2 581 582 586
1361 2 581 582 587
1362 2 581 582 588
1363 4 586 582 587
1364 4 586 582 588
1365 4 587 582 588
1366 2 926 925 931
1367 2 926 925 932
1368 2 926 925 933
1369 4 931 925 932
1370 4 931 925 933
1371 4 932 925 933
1372 5 793 794 795
1373 1 162 161 166
1374 2 162 161 167
1375 2 162 161 168
1376 2 166 161 167
1377 2 166 161 168
1378 4 167 161 168
1379 3 602 603 604
1380 6 602 603 605
1381 3 604 603 605
1382 2 758 757 763
1383 2 758 757 764
1384 2 758 757 765
1385 4 763 757 764
1386 4 763 757 765
1387 4 764 757 765
1388 5 733 734 735
1389 5 757 758 759
1390 1 111 112 113
1391 2 111 112 119
1392 2 111 112 120
1393 2 113 112 119
1394 2 113 112 120
1395 4 119 112 120
1396 1 281 286 284
1397 3 113 114 115
1398 1 113 114 116
1399 3 115 114 116
1400 2 626 625 631
1401 2 626 625 632
1402 2 626 625 633
1403 4 631 625 632
1404 4 631 625 633
1405 4 632 625 633
1406 3 842 843 844
1407 6 842 843 845
1408 3 844 843 845
1409 1 171 176 174
1410 2 842 841 847
1411 2 842 841 848
1412 2 842 841 849
1413 4 847 841 848
1414 4 847 841 849
1415 4 848 841 849
1416 3 43 44 45
1417 1 43 44 46
1418 3 45 44 46
1419 2 317 318 322
1420 2 317 318 323
1421 2 317 318 324
1422 4 322 318 323
1423 4 322 318 324
1424 4 323 318 324
1425 2 749 750 754
1426 2 749 750 755
1427 2 749 750 756
1428 4 754 750 755
1429 4 754 750 756
1430 4 755 750 756
1431 5 925 926 927
1432 5 843 845 846
1433 7 980 981 982
1434 7 980 981 983
1435 7 980 981 984
1436 7 982 981 983
1437 7 982 981 984
1438 7 983 981 984
1439 3 446 447 448
1440 6 446 447 449
1441 3 448 447 449
1442 5 807 809 810
1443 2 953 954 958
1444 2 953 954 959
1445 2 953 954 960
1446 4 958 954 959
1447 4 958 954 960
1448 4 959 954 960
1449 5 759 761 762
1450 1 112 113 114
1451 1 282 281 286
1452 2 282 281 287
1453 2 282 281 288
1454 2 286 281 287
1455 2 286 281 288
1456 4 287 281 288
1457 5 315 317 318
1458 2 929 930 934
1459 2 929 930 935
1460 2 929 930 936
1461 4 934 930 935
1462 4 934 930 936
1463 4 935 930 936
1464 5 927 929 930
1465 1 41 46 44
1466 3 926 927 928
1467 6 926 927 929
1468 3 928 927 929
1469 2 809 810 814
1470 2 809 810 815
1471 2 809 810 816
1472 4 814 810 815
1473 4 814 810 816
1474 4 815 810 816
1475 2 737 738 742
1476 2 737 738 743
1477 2 737 738 744
1478 4 742 738 743
1479 4 742 738 744
1480 4 743 738 744
1481 1 172 171 176
1482 2 172 171 177
1483 2 172 171 178
1484 2 176 171 177
1485 2 176 171 178
1486 4 177 171 178
1487 2 845 846 850
1488 2 845 846 851
1489 2 845 846 852
1490 4 850 846 851
1491 4 850 846 852
1492 4 851 846 852
1493 5 735 737 738
1494 3 734 735 736
1495 6 734 735 737
1496 3 736 735 737
1497 5 565 566 567
1498 1 22 23 24
1499 2 941 942 946
1500 2 941 942 947
1501 2 941 942 948
1502 4 946 942 947
1503 4 946 942 948
1504 4 947 942 948

Dihedrals

1 8 399 401 402 406
2 8 399 401 402 407
3 8 399 401 402 408
4 12 398 399 401 402
5 10 400 399 401 402
6 11 400 399 401 402
7 10 397 398 399 400
8 11 397 398 399 400
9 12 397 398 399 401
10 8 399 398 397 403
11 8 399 398 397 404
12 8 399 398 397 405
13 1 271 272 273 274
14 2 271 272 273 274
15 4 273 272 271 276
16 5 273 272 271 276
17 6 273 272 271 277
18 7 273 272 271 277
19 6 273 272 271 278
20 7 273 272 271 278
21 3 271 276 274 273
22 3 271 276 274 275
23 8 274 276 271 277
24 8 274 276 271 278
25 1 272 271 276 274
26 2 272 271 276 274
27 6 276 271 272 279
28 7 276 271 272 279
29 6 276 271 272 280
30 7 276 271 272 280
31 9 277 271 272 279
32 9 277 271 272 280
33 9 278 271 272 279
34 9 278 271 272 280
35 3 272 273 274 275
36 3 272 273 274 276
37 8 274 273 272 279
38 8 274 273 272 280
39 10 865 866 867 868
40 11 865 866 867 868
41 12 865 866 867 869
42 8 867 866 865 871
43 8 867 866 865 872
44 8 867 866 865 873
45 12 710 711 713 714
46 10 712 711 713 714
47 11 712 711 713 714
48 3 61 66 64 63
49 3 61 66 64 65
50 8 64 66 61 67
51 8 64 66 61 68
52 10 385 386 387 388
53 11 385 386 387 388
54 12 385 386 387 389
55 8 387 386 385 391
56 8 387 386 385 392
57 8 387 386 385 393
58 3 192 193 194 195
59 3 192 193 194 196
60 8 194 193 192 199
61 8 194 193 192 200
62 8 915 917 918 922
63 8 915 917 918 923
64 8 915 917 918 924
65 10 817 818 819 820
66 11 817 818 819 820
67 12 817 818 819 821
68 8 819 818 817 823
69 8 819 818 817 824
70 8 819 818 817 825
71 8 819 821 822 826
72 8 819 821 822 827
73 8 819 821 822 828
74 1 191 192 193 194
75 2 191 192 193 194
76 4 193 192 191 196
77 5 193 192 191 196
78 6 193 192 191 197
79 7 193 192 191 197
80 6 193 192 191 198
81 7 193 192 191 198
82 3 21 26 24 23
83 3 21 26 24 25
84 8 24 26 21 27
85 8 24 26 21 28
86 10 661 662 663 664
87 11 661 662 663 664
88 12 661 662 663 665
89 8 663 662 661 667
90 8 663 662 661 668
91 8 663 662 661 669
92 12 662 663 665 666
93 10 664 663 665 666
94 11 664 663 665 666
95 12 866 867 869 870
96 10 868 867 869 870
97 11 868 867 869 870
98 8 867 869 870 874
99 8 867 869 870 875
100 8 867 869 870 876
101 8 639 641 642 646
102 8 639 641 642 647
103 8 639 641 642 648
104 8 855 857 858 862
105 8 855 857 858 863
106 8 855 857 858 864
107 1 192 191 196 194
108 2 192 191 196 194
109 6 196 191 192 199
110 7 196 191 192 199
111 6 196 191 192 200
112 7 196 191 192 200
113 9 197 191 192 199
114 9 197 191 192 200
115 9 198 191 192 199
116 9 198 191 192 200
117 3 191 196 194 193
118 3 191 196 194 195
119 8 194 196 191 197
120 8 194 196 191 198
121 12 854 855 857 858
122 10 856 855 857 858
123 11 856 855 857 858
124 10 637 638 639 640
125 11 637 638 639 640
126 12 637 638 639 641
127 8 639 638 637 643
128 8 639 638 637 644
129 8 639 638 637 645
130 10 853 854 855 856
131 11 853 854 855 856
132 12 853 854 855 857
133 8 855 854 853 859
134 8 855 854 853 860
135 8 855 854 853 861
136 12 638 639 641 642
137 10 640 639 641 642
138 11 640 639 641 642
139 12 914 915 917 918
140 10 916 915 917 918
141 11 916 915 917 918
142 10 913 914 915 916
143 11 913 914 915 916
144 12 913 914 915 917
145 8 915 914 913 919
146 8 915 914 913 920
147 8 915 914 913 921
148 12 962 963 965 966
149 10 964 963 965 966
150 11 964 963 965 966
151 10 961 962 963 964
152 11 961 962 963 964
153 12 961 962 963 965
154 8 963 962 961 967
155 8 963 962 961 968
156 8 963 962 961 969
157 8 963 965 966 970
158 8 963 965 966 971
159 8 963 965 966 972
160 10 373 374 375 376
161 11 373 374 375 376
162 12 373 374 375 377
163 8 375 374 373 379
164 8 375 374 373 380
165 8 375 374 373 381
166 10 325 326 327 328
167 11 325 326 327 328
168 12 325 326 327 329
169 8 327 326 325 331
170 8 327 326 325 332
171 8 327 326 325 333
172 1 202 201 206 204
173 2 202 201 206 204
174 6 206 201 202 209
175 7 206 201 202 209
176 6 206 201 202 210
177 7 206 201 202 210
178 9 207 201 202 209
179 9 207 201 202 210
180 9 208 201 202 209
181 9 208 201 202 210
182 12 818 819 821 822
183 10 820 819 821 822
184 11 820 819 821 822
185 3 141 146 144 143
186 3 141 146 144 145
187 8 144 146 141 147
188 8 144 146 141 148
189 10 433 434 435 436
190 11 433 434 435 436
191 12 433 434 435 437
192 8 435 434 433 439
193 8 435 434 433 440
194 8 435 434 433 441
195 1 291 292 293 294
196 2 291 292 293 294
197 4 293 292 291 296
198 5 293 292 291 296
199 6 293 292 291 297
200 7 293 292 291 297
201 6 293 292 291 298
202 7 293 292 291 298
203 10 337 338 339 340
204 11 337 338 339 340
205 12 337 338 339 341
206 8 339 338 337 343
207 8 339 338 337 344
208 8 339 338 337 345
209 12 338 339 341 342
210 10 340 339 341 342
211 11 340 339 341 342
212 12 410 411 413 414
213 10 412 411 413 414
214 11 412 411 413 414
215 8 339 341 342 346
216 8 339 341 342 347
217 8 339 341 342 348
218 8 375 377 378 382
219 8 375 377 378 383
220 8 375 377 378 384
221 12 374 375 377 378
222 10 376 375 377 378
223 11 376 375 377 378
224 8 771 773 774 778
225 8 771 773 774 779
226 8 771 773 774 780
227 10 769 770 771 772
228 11 769 770 771 772
229 12 769 770 771 773
230 8 771 770 769 775
231 8 771 770 769 776
232 8 771 770 769 777
233 8 411 413 414 418
234 8 411 413 414 419
235 8 411 413 414 420
236 3 292 293 294 295
237 3 292 293 294 296
238 8 294 293 292 299
239 8 294 293 292 300
240 12 770 771 773 774
241 10 772 771 773 774
242 11 772 771 773 774
243 10 409 410 411 412
244 11 409 410 411 412
245 12 409 410 411 413
246 8 411 410 409 415
247 8 411 410 409 416
248 8 411 410 409 417
249 10 829 830 831 832
250 11 829 830 831 832
251 12 829 830 831 833
252 8 831 830 829 835
253 8 831 830 829 836
254 8 831 830 829 837
255 1 292 291 296 294
256 2 292 291 296 294
257 6 296 291 292 299
258 7 296 291 292 299
259 6 296 291 292 300
260 7 296 291 292 300
261 9 297 291 292 299
262 9 297 291 292 300
263 9 298 291 292 299
264 9 298 291 292 300
265 10 901 902 903 904
266 11 901 902 903 904
267 12 901 902 903 905
268 8 903 902 901 907
269 8 903 902 901 908
270 8 903 902 901 909
271 3 152 153 154 155
272 3 152 153 154 156
273 8 154 153 152 159
274 8 154 153 152 160
275 12 554 555 557 558
276 10 556 555 557 558
277 11 556 555 557 558
278 1 81 82 83 84
279 2 81 82 83 84
280 4 83 82 81 86
281 5 83 82 81 86
282 6 83 82 81 87
283 7 83 82 81 87
284 6 83 82 81 88
285 7 83 82 81 88
286 1 82 81 86 84
287 2 82 81 86 84
288 6 86 81 82 89
289 7 86 81 82 89
290 6 86 81 82 90
291 7 86 81 82 90
292 9 87 81 82 89
293 9 87 81 82 90
294 9 88 81 82 89
295 9 88 81 82 90
296 10 469 470 471 472
297 11 469 470 471 472
298 12 469 470 471 473
299 8 471 470 469 475
300 8 471 470 469 476
301 8 471 470 469 477
302 12 902 903 905 906
303 10 904 903 905 906
304 11 904 903 905 906
305 12 470 471 473 474
306 10 472 471 473 474
307 11 472 471 473 474
308 3 211 216 214 213
309 3 211 216 214 215
310 8 214 216 211 217
311 8 214 216 211 218
312 8 471 473 474 478
313 8 471 473 474 479
314 8 471 473 474 480
315 3 212 213 214 215
316 3 212 213 214 216
317 8 214 213 212 219
318 8 214 213 212 220
319 12 422 423 425 426
320 10 424 423 425 426
321 11 424 423 425 426
322 8 903 905 906 910
323 8 903 905 906 911
324 8 903 905 906 912
325 8 423 425 426 430
326 8 423 425 426 431
327 8 423 425 426 432
328 10 541 542 543 544
329 11 541 542 543 544
330 12 541 542 543 545
331 8 543 542 541 547
332 8 543 542 541 548
333 8 543 542 541 549
334 1 21 22 23 24
335 2 21 22 23 24
336 4 23 22 21 26
337 5 23 22 21 26
338 6 23 22 21 27
339 7 23 22 21 27
340 6 23 22 21 28
341 7 23 22 21 28
342 3 82 83 84 85
343 3 82 83 84 86
344 8 84 83 82 89
345 8 84 83 82 90
346 3 231 236 234 233
347 3 231 236 234 235
348 8 234 236 231 237
349 8 234 236 231 238
350 3 81 86 84 83
351 3 81 86 84 85
352 8 84 86 81 87
353 8 84 86 81 88
354 10 421 422 423 424
355 11 421 422 423 424
356 12 421 422 423 425
357 8 423 422 421 427
358 8 423 422 421 428
359 8 423 422 421 429
360 3 252 253 254 255
361 3 252 253 254 256
362 8 254 253 252 259
363 8 254 253 252 260
364 1 251 252 253 254
365 2 251 252 253 254
366 4 253 252 251 256
367 5 253 252 251 256
368 6 253 252 251 257
369 7 253 252 251 257
370 6 253 252 251 258
371 7 253 252 251 258
372 1 252 251 256 254
373 2 252 251 256 254
374 6 256 251 252 259
375 7 256 251 252 259
376 6 256 251 252 260
377 7 256 251 252 260
378 9 257 251 252 259
379 9 257 251 252 260
380 9 258 251 252 259
381 9 258 251 252 260
382 10 721 722 723 724
383 11 721 722 723 724
384 12 721 722 723 725
385 8 723 722 721 727
386 8 723 722 721 728
387 8 723 722 721 729
388 3 251 256 254 253
389 3 251 256 254 255
390 8 254 256 251 257
391 8 254 256 251 258
392 1 22 21 26 24
393 2 22 21 26 24
394 6 26 21 22 29
395 7 26 21 22 29
396 6 26 21 22 30
397 7 26 21 22 30
398 9 27 21 22 29
399 9 27 21 22 30
400 9 28 21 22 29
401 9 28 21 22 30
402 12 722 723 725 726
403 10 724 723 725 726
404 11 724 723 725 726
405 3 232 233 234 235
406 3 232 233 234 236
407 8 234 233 232 239
408 8 234 233 232 240
409 1 232 231 236 234
410 2 232 231 236 234
411 6 236 231 232 239
412 7 236 231 232 239
413 6 236 231 232 240
414 7 236 231 232 240
415 9 237 231 232 239
416 9 237 231 232 240
417 9 238 231 232 239
418 9 238 231 232 240
419 8 723 725 726 730
420 8 723 725 726 731
421 8 723 725 726 732
422 3 282 283 284 285
423 3 282 283 284 286
424 8 284 283 282 289
425 8 284 283 282 290
426 8 603 605 606 610
427 8 603 605 606 611
428 8 603 605 606 612
429 3 131 136 134 133
430 3 131 136 134 135
431 8 134 136 131 137
432 8 134 136 131 138
433 1 132 131 136 134
434 2 132 131 136 134
435 6 136 131 132 139
436 7 136 131 132 139
437 6 136 131 132 140
438 7 136 131 132 140
439 9 137 131 132 139
440 9 137 131 132 140
441 9 138 131 132 139
442 9 138 131 132 140
443 12 938 939 941 942
444 10 940 939 941 942
445 11 940 939 941 942
446 12 542 543 545 546
447 10 544 543 545 546
448 11 544 543 545 546
449 3 142 143 144 145
450 3 142 143 144 146
451 8 144 143 142 149
452 8 144 143 142 150
453 1 142 141 146 144
454 2 142 141 146 144
455 6 146 141 142 149
456 7 146 141 142 149
457 6 146 141 142 150
458 7 146 141 142 150
459 9 147 141 142 149
460 9 147 141 142 150
461 9 148 141 142 149
462 9 148 141 142 150
463 12 566 567 569 570
464 10 568 567 569 570
465 11 568 567 569 570
466 1 241 242 243 244
467 2 241 242 243 244
468 4 243 242 241 246
469 5 243 242 241 246
470 6 243 242 241 247
471 7 243 242 241 247
472 6 243 242 241 248
473 7 243 242 241 248
474 8 939 941 942 946
475 8 939 941 942 947
476 8 939 941 942 948
477 8 543 545 546 550
478 8 543 545 546 551
479 8 543 545 546 552
480 8 591 593 594 598
481 8 591 593 594 599
482 8 591 593 594 600
483 12 590 591 593 594
484 10 592 591 593 594
485 11 592 591 593 594
486 8 951 953 954 958
487 8 951 953 954 959
488 8 951 953 954 960
489 8 363 365 366 370
490 8 363 365 366 371
491 8 363 365 366 372
492 10 361 362 363 364
493 11 361 362 363 364
494 12 361 362 363 365
495 8 363 362 361 367
496 8 363 362 361 368
497 8 363 362 361 369
498 10 589 590 591 592
499 11 589 590 591 592
500 12 589 590 591 593
501 8 591 590 589 595
502 8 591 590 589 596
503 8 591 590 589 597
504 12 950 951 953 954
505 10 952 951 953 954
506 11 952 951 953 954
507 3 2 3 4 5
508 3 2 3 4 6
509 8 4 3 2 9
510 8 4 3 2 10
511 1 1 2 3 4
512 2 1 2 3 4
513 4 3 2 1 6
514 5 3 2 1 6
515 6 3 2 1 7
516 7 3 2 1 7
517 6 3 2 1 8
518 7 3 2 1 8
519 1 2 1 6 4
520 2 2 1 6 4
521 6 6 1 2 9
522 7 6 1 2 9
523 6 6 1 2 10
524 7 6 1 2 10
525 9 7 1 2 9
526 9 7 1 2 10
527 9 8 1 2 9
528 9 8 1 2 10
529 3 1 6 4 3
530 3 1 6 4 5
531 8 4 6 1 7
532 8 4 6 1 8
533 12 362 363 365 366
534 10 364 363 365 366
535 11 364 363 365 366
536 3 72 73 74 75
537 3 72 73 74 76
538 8 74 73 72 79
539 8 74 73 72 80
540 3 71 76 74 73
541 3 71 76 74 75
542 8 74 76 71 77
543 8 74 76 71 78
544 1 181 182 183 184
545 2 181 182 183 184
546 4 183 182 181 186
547 5 183 182 181 186
548 6 183 182 181 187
549 7 183 182 181 187
550 6 183 182 181 188
551 7 183 182 181 188
552 1 182 181 186 184
553 2 182 181 186 184
554 6 186 181 182 189
555 7 186 181 182 189
556 6 186 181 182 190
557 7 186 181 182 190
558 9 187 181 182 189
559 9 187 181 182 190
560 9 188 181 182 189
561 9 188 181 182 190
562 3 181 186 184 183
563 3 181 186 184 185
564 8 184 186 181 187
565 8 184 186 181 188
566 3 121 126 124 123
567 3 121 126 124 125
568 8 124 126 121 127
569 8 124 126 121 128
570 8 831 833 834 838
571 8 831 833 834 839
572 8 831 833 834 840
573 12 830 831 833 834
574 10 832 831 833 834
575 11 832 831 833 834
576 10 937 938 939 940
577 11 937 938 939 940
578 12 937 938 939 941
579 8 939 938 937 943
580 8 939 938 937 944
581 8 939 938 937 945
582 3 102 103 104 105
583 3 102 103 104 106
584 8 104 103 102 109
585 8 104 103 102 110
586 1 231 232 233 234
587 2 231 232 233 234
588 4 233 232 231 236
589 5 233 232 231 236
590 6 233 232 231 237
591 7 233 232 231 237
592 6 233 232 231 238
593 7 233 232 231 238
594 1 112 111 116 114
595 2 112 111 116 114
596 6 116 111 112 119
597 7 116 111 112 119
598 6 116 111 112 120
599 7 116 111 112 120
600 9 117 111 112 119
601 9 117 111 112 120
602 9 118 111 112 119
603 9 118 111 112 120
604 3 132 133 134 135
605 3 132 133 134 136
606 8 134 133 132 139
607 8 134 133 132 140
608 1 211 212 213 214
609 2 211 212 213 214
610 4 213 212 211 216
611 5 213 212 211 216
612 6 213 212 211 217
613 7 213 212 211 217
614 6 213 212 211 218
615 7 213 212 211 218
616 8 555 557 558 562
617 8 555 557 558 563
618 8 555 557 558 564
619 3 111 116 114 113
620 3 111 116 114 115
621 8 114 116 111 117
622 8 114 116 111 118
623 12 434 435 437 438
624 10 436 435 437 438
625 11 436 435 437 438
626 1 122 121 126 124
627 2 122 121 126 124
628 6 126 121 122 129
629 7 126 121 122 129
630 6 126 121 122 130
631 7 126 121 122 130
632 9 127 121 122 129
633 9 127 121 122 130
634 9 128 121 122 129
635 9 128 121 122 130
636 3 52 53 54 55
637 3 52 53 54 56
638 8 54 53 52 59
639 8 54 53 52 60
640 10 553 554 555 556
641 11 553 554 555 556
642 12 553 554 555 557
643 8 555 554 553 559
644 8 555 554 553 560
645 8 555 554 553 561
646 10 949 950 951 952
647 11 949 950 951 952
648 12 949 950 951 953
649 8 951 950 949 955
650 8 951 950 949 956
651 8 951 950 949 957
652 3 122 123 124 125
653 3 122 123 124 126
654 8 124 123 122 129
655 8 124 123 122 130
656 3 51 56 54 53
657 3 51 56 54 55
658 8 54 56 51 57
659 8 54 56 51 58
660 3 291 296 294 293
661 3 291 296 294 295
662 8 294 296 291 297
663 8 294 296 291 298
664 8 435 437 438 442
665 8 435 437 438 443
666 8 435 437 438 444
667 1 151 152 153 154
668 2 151 152 153 154
669 4 153 152 151 156
670 5 153 152 151 156
671 6 153 152 151 157
672 7 153 152 151 157
673 6 153 152 151 158
674 7 153 152 151 158
675 1 212 211 216 214
676 2 212 211 216 214
677 6 216 211 212 219
678 7 216 211 212 219
679 6 216 211 212 220
680 7 216 211 212 220
681 9 217 211 212 219
682 9 217 211 212 220
683 9 218 211 212 219
684 9 218 211 212 220
685 3 101 106 104 103
686 3 101 106 104 105
687 8 104 106 101 107
688 8 104 106 101 108
689 1 141 142 143 144
690 2 141 142 143 144
691 4 143 142 141 146
692 5 143 142 141 146
693 6 143 142 141 147
694 7 143 142 141 147
695 6 143 142 141 148
696 7 143 142 141 148
697 3 151 156 154 153
698 3 151 156 154 155
699 8 154 156 151 157
700 8 154 156 151 158
701 1 101 102 103 104
702 2 101 102 103 104
703 4 103 102 101 106
704 5 103 102 101 106
705 6 103 102 101 107
706 7 103 102 101 107
707 6 103 102 101 108
708 7 103 102 101 108
709 1 121 122 123 124
710 2 121 122 123 124
711 4 123 122 121 126
712 5 123 122 121 126
713 6 123 122 121 127
714 7 123 122 121 127
715 6 123 122 121 128
716 7 123 122 121 128
717 1 51 52 53 54
718 2 51 52 53 54
719 4 53 52 51 56
720 5 53 52 51 56
721 6 53 52 51 57
722 7 53 52 51 57
723 6 53 52 51 58
724 7 53 52 51 58
725 1 102 101 106 104
726 2 102 101 106 104
727 6 106 101 102 109
728 7 106 101 102 109
729 6 106 101 102 110
730 7 106 101 102 110
731 9 107 101 102 109
732 9 107 101 102 110
733 9 108 101 102 109
734 9 108 101 102 110
735 1 152 151 156 154
736 2 152 151 156 154
737 6 156 151 152 159
738 7 156 151 152 159
739 6 156 151 152 160
740 7 156 151 152 160
741 9 157 151 152 159
742 9 157 151 152 160
743 9 158 151 152 159
744 9 158 151 152 160
745 1 131 132 133 134
746 2 131 132 133 134
747 4 133 132 131 136
748 5 133 132 131 136
749 6 133 132 131 137
750 7 133 132 131 137
751 6 133 132 131 138
752 7 133 132 131 138
753 1 52 51 56 54
754 2 52 51 56 54
755 6 56 51 52 59
756 7 56 51 52 59
757 6 56 51 52 60
758 7 56 51 52 60
759 9 57 51 52 59
760 9 57 51 52 60
761 9 58 51 52 59
762 9 58 51 52 60
763 3 242 243 244 245
764 3 242 243 244 246
765 8 244 243 242 249
766 8 244 243 242 250
767 3 62 63 64 65
768 3 62 63 64 66
769 8 64 63 62 69
770 8 64 63 62 70
771 1 71 72 73 74
772 2 71 72 73 74
773 4 73 72 71 76
774 5 73 72 71 76
775 6 73 72 71 77
776 7 73 72 71 77
777 6 73 72 71 78
778 7 73 72 71 78
779 3 182 183 184 185
780 3 182 183 184 186
781 8 184 183 182 189
782 8 184 183 182 190
783 3 221 226 224 223
784 3 221 226 224 225
785 8 224 226 221 227
786 8 224 226 221 228
787 1 222 221 226 224
788 2 222 221 226 224
789 6 226 221 222 229
790 7 226 221 222 229
791 6 226 221 222 230
792 7 226 221 222 230
793 9 227 221 222 229
794 9 227 221 222 230
795 9 228 221 222 229
796 9 228 221 222 230
797 3 222 223 224 225
798 3 222 223 224 226
799 8 224 223 222 229
800 8 224 223 222 230
801 1 221 222 223 224
802 2 221 222 223 224
803 4 223 222 221 226
804 5 223 222 221 226
805 6 223 222 221 227
806 7 223 222 221 227
807 6 223 222 221 228
808 7 223 222 221 228
809 1 12 11 16 14
810 2 12 11 16 14
811 6 16 11 12 19
812 7 16 11 12 19
813 6 16 11 12 20
814 7 16 11 12 20
815 9 17 11 12 19
816 9 17 11 12 20
817 9 18 11 12 19
818 9 18 11 12 20
819 3 11 16 14 13
820 3 11 16 14 15
821 8 14 16 11 17
822 8 14 16 11 18
823 8 663 665 666 670
824 8 663 665 666 671
825 8 663 665 666 672
826 12 878 879 881 882
827 10 880 879 881 882
828 11 880 879 881 882
829 10 877 878 879 880
830 11 877 878 879 880
831 12 877 878 879 881
832 8 879 878 877 883
833 8 879 878 877 884
834 8 879 878 877 885
835 8 783 785 786 790
836 8 783 785 786 791
837 8 783 785 786 792
838 10 349 350 351 352
839 11 349 350 351 352
840 12 349 350 351 353
841 8 351 350 349 355
842 8 351 350 349 356
843 8 351 350 349 357
844 8 387 389 390 394
845 8 387 389 390 395
846 8 387 389 390 396
847 12 782 783 785 786
848 10 784 783 785 786
849 11 784 783 785 786
850 12 350 351 353 354
851 10 352 351 353 354
852 11 352 351 353 354
853 12 626 627 629 630
854 10 628 627 629 630
855 11 628 627 629 630
856 8 879 881 882 886
857 8 879 881 882 887
858 8 879 881 882 888
859 10 781 782 783 784
860 11 781 782 783 784
861 12 781 782 783 785
862 8 783 782 781 787
863 8 783 782 781 788
864 8 783 782 781 789
865 1 41 42 43 44
866 2 41 42 43 44
867 4 43 42 41 46
868 5 43 42 41 46
869 6 43 42 41 47
870 7 43 42 41 47
871 6 43 42 41 48
872 7 43 42 41 48
873 10 493 494 495 496
874 11 493 494 495 496
875 12 493 494 495 497
876 8 495 494 493 499
877 8 495 494 493 500
878 8 495 494 493 501
879 12 494 495 497 498
880 10 496 495 497 498
881 11 496 495 497 498
882 8 627 629 630 634
883 8 627 629 630 635
884 8 627 629 630 636
885 8 531 533 534 538
886 8 531 533 534 539
887 8 531 533 534 540
888 10 301 302 303 304
889 11 301 302 303 304
890 12 301 302 303 305
891 8 303 302 301 307
892 8 303 302 301 308
893 8 303 302 301 309
894 12 314 315 317 318
895 10 316 315 317 318
896 11 316 315 317 318
897 12 518 519 521 522
898 10 520 519 521 522
899 11 520 519 521 522
900 1 281 282 283 284
901 2 281 282 283 284
902 4 283 282 281 286
903 5 283 282 281 286
904 6 283 282 281 287
905 7 283 282 281 287
906 6 283 282 281 288
907 7 283 282 281 288
908 12 302 303 305 306
909 10 304 303 305 306
910 11 304 303 305 306
911 3 31 36 34 33
912 3 31 36 34 35
913 8 34 36 31 37
914 8 34 36 31 38
915 8 303 305 306 310
916 8 303 305 306 311
917 8 303 305 306 312
918 10 505 506 507 508
919 11 505 506 507 508
920 12 505 506 507 509
921 8 507 506 505 511
922 8 507 506 505 512
923 8 507 506 505 513
924 12 506 507 509 510
925 10 508 507 509 510
926 11 508 507 509 510
927 12 674 675 677 678
928 10 676 675 677 678
929 11 676 675 677 678
930 8 675 677 678 682
931 8 675 677 678 683
932 8 675 677 678 684
933 10 673 674 675 676
934 11 673 674 675 676
935 12 673 674 675 677
936 8 675 674 673 679
937 8 675 674 673 680
938 8 675 674 673 681
939 10 577 578 579 580
940 11 577 578 579 580
941 12 577 578 579 581
942 8 579 578 577 583
943 8 579 578 577 584
944 8 579 578 577 585
945 8 507 509 510 514
946 8 507 509 510 515
947 8 507 509 510 516
948 3 202 203 204 205
949 3 202 203 204 206
950 8 204 203 202 209
951 8 204 203 202 210
952 1 201 202 203 204
953 2 201 202 203 204
954 4 203 202 201 206
955 5 203 202 201 206
956 6 203 202 201 207
957 7 203 202 201 207
958 6 203 202 201 208
959 7 203 202 201 208
960 12 578 579 581 582
961 10 580 579 581 582
962 11 580 579 581 582
963 10 517 518 519 520
964 11 517 518 519 520
965 12 517 518 519 521
966 8 519 518 517 523
967 8 519 518 517 524
968 8 519 518 517 525
969 12 326 327 329 330
970 10 328 327 329 330
971 11 328 327 329 330
972 8 327 329 330 334
973 8 327 329 330 335
974 8 327 329 330 336
975 8 579 581 582 586
976 8 579 581 582 587
977 8 579 581 582 588
978 8 519 521 522 526
979 8 519 521 522 527
980 8 519 521 522 528
981 3 172 173 174 175
982 3 172 173 174 176
983 8 174 173 172 179
984 8 174 173 172 180
985 1 11 12 13 14
986 2 11 12 13 14
987 4 13 12 11 16
988 5 13 12 11 16
989 6 13 12 11 17
990 7 13 12 11 17
991 6 13 12 11 18
992 7 13 12 11 18
993 3 12 13 14 15
994 3 12 13 14 16
995 8 14 13 12 19
996 8 14 13 12 20
997 12 530 531 533 534
998 10 532 531 533 534
999 11 532 531 533 534
1000 3 92 93 94 95
1001 3 92 93 94 96
1002 8 94 93 92 99
1003 8 94 93 92 100
1004 3 32 33 34 35
1005 3 32 33 34 36
1006 8 34 33 32 39
1007 8 34 33 32 40
1008 3 91 96 94 93
1009 3 91 96 94 95
1010 8 94 96 91 97
1011 8 94 96 91 98
1012 8 699 701 702 706
1013 8 699 701 702 707
1014 8 699 701 702 708
1015 10 889 890 891 892
1016 11 889 890 891 892
1017 12 889 890 891 893
1018 8 891 890 889 895
1019 8 891 890 889 896
1020 8 891 890 889 897
1021 10 697 698 699 700
1022 11 697 698 699 700
1023 12 697 698 699 701
1024 8 699 698 697 703
1025 8 699 698 697 704
1026 8 699 698 697 705
1027 10 709 710 711 712
1028 11 709 710 711 712
1029 12 709 710 711 713
1030 8 711 710 709 715
1031 8 711 710 709 716
1032 8 711 710 709 717
1033 10 481 482 483 484
1034 11 481 482 483 484
1035 12 481 482 483 485
1036 8 483 482 481 487
1037 8 483 482 481 488
1038 8 483 482 481 489
1039 10 313 314 315 316
1040 11 313 314 315 316
1041 12 313 314 315 317
1042 8 315 314 313 319
1043 8 315 314 313 320
1044 8 315 314 313 321
1045 8 711 713 714 718
1046 8 711 713 714 719
1047 8 711 713 714 720
1048 3 42 43 44 45
1049 3 42 43 44 46
1050 8 44 43 42 49
1051 8 44 43 42 50
1052 12 890 891 893 894
1053 10 892 891 893 894
1054 11 892 891 893 894
1055 12 386 387 389 390
1056 10 388 387 389 390
1057 11 388 387 389 390
1058 12 698 699 701 702
1059 10 700 699 701 702
1060 11 700 699 701 702
1061 10 457 458 459 460
1062 11 457 458 459 460
1063 12 457 458 459 461
1064 8 459 458 457 463
1065 8 459 458 457 464
1066 8 459 458 457 465
1067 1 92 91 96 94
1068 2 92 91 96 94
1069 6 96 91 92 99
1070 7 96 91 92 99
1071 6 96 91 92 100
1072 7 96 91 92 100
1073 9 97 91 92 99
1074 9 97 91 92 100
1075 9 98 91 92 99
1076 9 98 91 92 100
1077 1 91 92 93 94
1078 2 91 92 93 94
1079 4 93 92 91 96
1080 5 93 92 91 96
1081 6 93 92 91 97
1082 7 93 92 91 97
1083 6 93 92 91 98
1084 7 93 92 91 98
1085 8 459 461 462 466
1086 8 459 461 462 467
1087 8 459 461 462 468
1088 8 891 893 894 898
1089 8 891 893 894 899
1090 8 891 893 894 900
1091 8 495 497 498 502
1092 8 495 497 498 503
1093 8 495 497 498 504
1094 1 31 32 33 34
1095 2 31 32 33 34
1096 4 33 32 31 36
1097 5 33 32 31 36
1098 6 33 32 31 37
1099 7 33 32 31 37
1100 6 33 32 31 38
1101 7 33 32 31 38
1102 12 458 459 461 462
1103 10 460 459 461 462
1104 11 460 459 461 462
1105 1 32 31 36 34
1106 2 32 31 36 34
1107 6 36 31 32 39
1108 7 36 31 32 39
1109 6 36 31 32 40
1110 7 36 31 32 40
1111 9 37 31 32 39
1112 9 37 31 32 40
1113 9 38 31 32 39
1114 9 38 31 32 40
1115 10 445 446 447 448
1116 11 445 446 447 448
1117 12 445 446 447 449
1118 8 447 446 445 451
1119 8 447 446 445 452
1120 8 447 446 445 453
1121 10 625 626 627 628
1122 11 625 626 627 628
1123 12 625 626 627 629
1124 8 627 626 625 631
1125 8 627 626 625 632
1126 8 627 626 625 633
1127 3 201 206 204 203
1128 3 201 206 204 205
1129 8 204 206 201 207
1130 8 204 206 201 208
1131 10 805 806 807 808
1132 11 805 806 807 808
1133 12 805 806 807 809
1134 8 807 806 805 811
1135 8 807 806 805 812
1136 8 807 806 805 813
1137 10 649 650 651 652
1138 11 649 650 651 652
1139 12 649 650 651 653
1140 8 651 650 649 655
1141 8 651 650 649 656
1142 8 651 650 649 657
1143 3 261 266 264 263
1144 3 261 266 264 265
1145 8 264 266 261 267
1146 8 264 266 261 268
1147 12 650 651 653 654
1148 10 652 651 653 654
1149 11 652 651 653 654
1150 8 651 653 654 658
1151 8 651 653 654 659
1152 8 651 653 654 660
1153 1 262 261 266 264
1154 2 262 261 266 264
1155 6 266 261 262 269
1156 7 266 261 262 269
1157 6 266 261 262 270
1158 7 266 261 262 270
1159 9 267 261 262 269
1160 9 267 261 262 270
1161 9 268 261 262 269
1162 9 268 261 262 270
1163 3 262 263 264 265
1164 3 262 263 264 266
1165 8 264 263 262 269
1166 8 264 263 262 270
1167 1 261 262 263 264
1168 2 261 262 263 264
1169 4 263 262 261 266
1170 5 263 262 261 266
1171 6 263 262 261 267
1172 7 263 262 261 267
1173 6 263 262 261 268
1174 7 263 262 261 268
1175 3 241 246 244 243
1176 3 241 246 244 245
1177 8 244 246 241 247
1178 8 244 246 241 248
1179 10 601 602 603 604
1180 11 601 602 603 604
1181 12 601 602 603 605
1182 8 603 602 601 607
1183 8 603 602 601 608
1184 8 603 602 601 609
1185 1 72 71 76 74
1186 2 72 71 76 74
1187 6 76 71 72 79
1188 7 76 71 72 79
1189 6 76 71 72 80
1190 7 76 71 72 80
1191 9 77 71 72 79
1192 9 77 71 72 80
1193 9 78 71 72 79
1194 9 78 71 72 80
1195 8 351 353 354 358
1196 8 351 353 354 359
1197 8 351 353 354 360
1198 1 171 172 173 174
1199 2 171 172 173 174
1200 4 173 172 171 176
1201 5 173 172 171 176
1202 6 173 172 171 177
1203 7 173 172 171 177
1204 6 173 172 171 178
1205 7 173 172 171 178
1206 1 62 61 66 64
1207 2 62 61 66 64
1208 6 66 61 62 69
1209 7 66 61 62 69
1210 6 66 61 62 70
1211 7 66 61 62 70
1212 9 67 61 62 69
1213 9 67 61 62 70
1214 9 68 61 62 69
1215 9 68 61 62 70
1216 1 242 241 246 244
1217 2 242 241 246 244
1218 6 246 241 242 249
1219 7 246 241 242 249
1220 6 246 241 242 250
1221 7 246 241 242 250
1222 9 247 241 242 249
1223 9 247 241 242 250
1224 9 248 241 242 249
1225 9 248 241 242 250
1226 8 615 617 618 622
1227 8 615 617 618 623
1228 8 615 617 618 624
1229 12 614 615 617 618
1230 10 616 615 617 618
1231 11 616 615 617 618
1232 10 841 842 843 844
1233 11 841 842 843 844
1234 12 841 842 843 845
1235 8 843 842 841 847
1236 8 843 842 841 848
1237 8 843 842 841 849
1238 12 806 807 809 810
1239 10 808 807 809 810
1240 11 808 807 809 810
1241 10 529 530 531 532
1242 11 529 530 531 532
1243 12 529 530 531 533
1244 8 531 530 529 535
1245 8 531 530 529 536
1246 8 531 530 529 537
1247 12 758 759 761 762
1248 10 760 759 761 762
1249 11 760 759 761 762
1250 8 567 569 570 574
1251 8 567 569 570 575
1252 8 567 569 570 576
1253 10 613 614 615 616
1254 11 613 614 615 616
1255 12 613 614 615 617
1256 8 615 614 613 619
1257 8 615 614 613 620
1258 8 615 614 613 621
1259 8 447 449 450 454
1260 8 447 449 450 455
1261 8 447 449 450 456
1262 12 686 687 689 690
1263 10 688 687 689 690
1264 11 688 687 689 690
1265 8 747 749 750 754
1266 8 747 749 750 755
1267 8 747 749 750 756
1268 8 795 797 798 802
1269 8 795 797 798 803
1270 8 795 797 798 804
1271 12 794 795 797 798
1272 10 796 795 797 798
1273 11 796 795 797 798
1274 12 746 747 749 750
1275 10 748 747 749 750
1276 11 748 747 749 750
1277 10 745 746 747 748
1278 11 745 746 747 748
1279 12 745 746 747 749
1280 8 747 746 745 751
1281 8 747 746 745 752
1282 8 747 746 745 753
1283 8 687 689 690 694
1284 8 687 689 690 695
1285 8 687 689 690 696
1286 10 685 686 687 688
1287 11 685 686 687 688
1288 12 685 686 687 689
1289 8 687 686 685 691
1290 8 687 686 685 692
1291 8 687 686 685 693
1292 3 162 163 164 165
1293 3 162 163 164 166
1294 8 164 163 162 169
1295 8 164 163 162 170
1296 3 161 166 164 163
1297 3 161 166 164 165
1298 8 164 166 161 167
1299 8 164 166 161 168
1300 1 42 41 46 44
1301 2 42 41 46 44
1302 6 46 41 42 49
1303 7 46 41 42 49
1304 6 46 41 42 50
1305 7 46 41 42 50
1306 9 47 41 42 49
1307 9 47 41 42 50
1308 9 48 41 42 49
1309 9 48 41 42 50
1310 1 61 62 63 64
1311 2 61 62 63 64
1312 4 63 62 61 66
1313 5 63 62 61 66
1314 6 63 62 61 67
1315 7 63 62 61 67
1316 6 63 62 61 68
1317 7 63 62 61 68
1318 1 161 162 163 164
1319 2 161 162 163 164
1320 4 163 162 161 166
1321 5 163 162 161 166
1322 6 163 162 161 167
1323 7 163 162 161 167
1324 6 163 162 161 168
1325 7 163 162 161 168
1326 8 483 485 486 490
1327 8 483 485 486 491
1328 8 483 485 486 492
1329 12 482 483 485 486
1330 10 484 483 485 486
1331 11 484 483 485 486
1332 10 793 794 795 796
1333 11 793 794 795 796
1334 12 793 794 795 797
1335 8 795 794 793 799
1336 8 795 794 793 800
1337 8 795 794 793 801
1338 1 162 161 166 164
1339 2 162 161 166 164
1340 6 166 161 162 169
1341 7 166 161 162 169
1342 6 166 161 162 170
1343 7 166 161 162 170
1344 9 167 161 162 169
1345 9 167 161 162 170
1346 9 168 161 162 169
1347 9 168 161 162 170
1348 12 602 603 605 606
1349 10 604 603 605 606
1350 11 604 603 605 606
1351 10 733 734 735 736
1352 11 733 734 735 736
1353 12 733 734 735 737
1354 8 735 734 733 739
1355 8 735 734 733 740
1356 8 735 734 733 741
1357 10 757 758 759 760
1358 11 757 758 759 760
1359 12 757 758 759 761
1360 8 759 758 757 763
1361 8 759 758 757 764
1362 8 759 758 757 765
1363 1 111 112 113 114
1364 2 111 112 113 114
1365 4 113 112 111 116
1366 5 113 112 111 116
1367 6 113 112 111 117
1368 7 113 112 111 117
1369 6 113 112 111 118
1370 7 113 112 111 118
1371 3 281 286 284 283
1372 3 281 286 284 285
1373 8 284 286 281 287
1374 8 284 286 281 288
1375 12 842 843 845 846
1376 10 844 843 845 846
1377 11 844 843 845 846
1378 3 171 176 174 173
1379 3 171 176 174 175
1380 8 174 176 171 177
1381 8 174 176 171 178
1382 10 925 926 927 928
1383 11 925 926 927 928
1384 12 925 926 927 929
1385 8 927 926 925 931
1386 8 927 926 925 932
1387 8 927 926 925 933
1388 8 843 845 846 850
1389 8 843 845 846 851
1390 8 843 845 846 852
1391 12 446 447 449 450
1392 10 448 447 449 450
1393 11 448 447 449 450
1394 8 807 809 810 814
1395 8 807 809 810 815
1396 8 807 809 810 816
1397 8 759 761 762 766
1398 8 759 761 762 767
1399 8 759 761 762 768
1400 3 112 113 114 115
1401 3 112 113 114 116
1402 8 114 113 112 119
1403 8 114 113 112 120
1404 1 282 281 286 284
1405 2 282 281 286 284
1406 6 286 281 282 289
1407 7 286 281 282 289
1408 6 286 281 282 290
1409 7 286 281 282 290
1410 9 287 281 282 289
1411 9 287 281 282 290
1412 9 288 281 282 289
1413 9 288 281 282 290
1414 8 315 317 318 322
1415 8 315 317 318 323
1416 8 315 317 318 324
1417 8 927 929 930 934
1418 8 927 929 930 935
1419 8 927 929 930 936
1420 3 41 46 44 43
1421 3 41 46 44 45
1422 8 44 46 41 47
1423 8 44 46 41 48
1424 12 926 927 929 930
1425 10 928 927 929 930
1426 11 928 927 929 930
1427 1 172 171 176 174
1428 2 172 171 176 174
1429 6 176 171 172 179
1430 7 176 171 172 179
1431 6 176 171 172 180
1432 7 176 171 172 180
1433 9 177 171 172 179
1434 9 177 171 172 180
1435 9 178 171 172 179
1436 9 178 171 172 180
1437 8 735 737 738 742
1438 8 735 737 738 743
1439 8 735 737 738 744
1440 12 734 735 737 738
1441 10 736 735 737 738
1442 11 736 735 737 738
1443 10 565 566 567 568
1444 11 565 566 567 568
1445 12 565 566 567 569
1446 8 567 566 565 571
1447 8 567 566 565 572
1448 8 567 566 565 573
1449 3 22 23 24 25
1450 3 22 23 24 26
1451 8 24 23 22 29
1452 8 24 23 22 30

Impropers

1 1 399 401 398 400
2 1 399 398 400 401
3 1 399 400 401 398
4 1 274 276 273 275
5 1 274 273 275 276
6 1 274 275 276 273
7 1 867 866 868 869
8 1 663 664 665 662
9 1 64 66 63 65
10 1 387 386 388 389
11 1 194 193 195 196
12 1 194 195 196 193
13 1 639 640 641 638
14 1 915 917 914 916
15 1 819 818 820 821
16 1 819 821 818 820
17 1 24 26 23 25
18 1 663 662 664 665
19 1 375 376 377 374
20 1 867 868 869 866
21 1 867 869 866 868
22 1 639 641 638 640
23 1 855 857 854 856
24 1 855 856 857 854
25 1 194 196 193 195
26 1 639 638 640 641
27 1 855 854 856 857
28 1 519 520 521 518
29 1 915 914 916 917
30 1 915 916 917 914
31 1 963 962 964 965
32 1 963 964 965 962
33 1 963 965 962 964
34 1 375 374 376 377
35 1 184 185 186 183
36 1 327 326 328 329
37 1 144 146 143 145
38 1 435 434 436 437
39 1 339 338 340 341
40 1 339 341 338 340
41 1 375 377 374 376
42 1 555 556 557 554
43 1 771 773 770 772
44 1 771 770 772 773
45 1 411 413 410 412
46 1 294 293 295 296
47 1 711 712 713 710
48 1 771 772 773 770
49 1 411 412 413 410
50 1 154 155 156 153
51 1 144 145 146 143
52 1 339 340 341 338
53 1 411 410 412 413
54 1 831 830 832 833
55 1 903 902 904 905
56 1 154 153 155 156
57 1 903 904 905 902
58 1 471 470 472 473
59 1 214 215 216 213
60 1 214 216 213 215
61 1 471 473 470 472
62 1 214 213 215 216
63 1 471 472 473 470
64 1 903 905 902 904
65 1 423 424 425 422
66 1 254 255 256 253
67 1 423 425 422 424
68 1 543 542 544 545
69 1 84 83 85 86
70 1 234 236 233 235
71 1 84 86 83 85
72 1 423 422 424 425
73 1 254 253 255 256
74 1 723 722 724 725
75 1 254 256 253 255
76 1 234 233 235 236
77 1 723 725 722 724
78 1 723 724 725 722
79 1 543 544 545 542
80 1 284 283 285 286
81 1 234 235 236 233
82 1 603 605 602 604
83 1 134 136 133 135
84 1 144 143 145 146
85 1 104 105 106 103
86 1 831 832 833 830
87 1 939 941 938 940
88 1 543 545 542 544
89 1 64 65 66 63
90 1 591 593 590 592
91 1 591 592 593 590
92 1 951 953 950 952
93 1 363 364 365 362
94 1 363 365 362 364
95 1 363 362 364 365
96 1 591 590 592 593
97 1 4 5 6 3
98 1 4 3 5 6
99 1 4 6 3 5
100 1 951 952 953 950
101 1 74 73 75 76
102 1 74 75 76 73
103 1 74 76 73 75
104 1 184 186 183 185
105 1 124 126 123 125
106 1 124 125 126 123
107 1 447 448 449 446
108 1 567 568 569 566
109 1 831 833 830 832
110 1 939 938 940 941
111 1 104 103 105 106
112 1 54 55 56 53
113 1 134 133 135 136
114 1 555 557 554 556
115 1 114 116 113 115
116 1 54 53 55 56
117 1 555 554 556 557
118 1 951 950 952 953
119 1 124 123 125 126
120 1 54 56 53 55
121 1 284 285 286 283
122 1 294 295 296 293
123 1 294 296 293 295
124 1 435 437 434 436
125 1 104 106 103 105
126 1 134 135 136 133
127 1 154 156 153 155
128 1 84 85 86 83
129 1 244 243 245 246
130 1 64 63 65 66
131 1 435 436 437 434
132 1 184 183 185 186
133 1 244 245 246 243
134 1 224 226 223 225
135 1 224 225 226 223
136 1 224 223 225 226
137 1 14 16 13 15
138 1 14 15 16 13
139 1 663 665 662 664
140 1 879 880 881 878
141 1 879 878 880 881
142 1 783 785 782 784
143 1 351 350 352 353
144 1 387 389 386 388
145 1 24 25 26 23
146 1 351 352 353 350
147 1 94 95 96 93
148 1 879 881 878 880
149 1 783 782 784 785
150 1 495 494 496 497
151 1 495 496 497 494
152 1 627 629 626 628
153 1 531 533 530 532
154 1 303 302 304 305
155 1 783 784 785 782
156 1 303 304 305 302
157 1 34 36 33 35
158 1 204 205 206 203
159 1 303 305 302 304
160 1 507 506 508 509
161 1 507 508 509 506
162 1 675 676 677 674
163 1 675 677 674 676
164 1 675 674 676 677
165 1 579 578 580 581
166 1 507 509 506 508
167 1 204 203 205 206
168 1 579 580 581 578
169 1 519 518 520 521
170 1 327 329 326 328
171 1 579 581 578 580
172 1 519 521 518 520
173 1 327 328 329 326
174 1 699 700 701 698
175 1 174 173 175 176
176 1 14 13 15 16
177 1 94 93 95 96
178 1 34 33 35 36
179 1 94 96 93 95
180 1 174 175 176 173
181 1 699 701 698 700
182 1 891 890 892 893
183 1 315 316 317 314
184 1 699 698 700 701
185 1 711 710 712 713
186 1 891 892 893 890
187 1 483 482 484 485
188 1 315 314 316 317
189 1 711 713 710 712
190 1 44 43 45 46
191 1 459 460 461 458
192 1 459 458 460 461
193 1 459 461 458 460
194 1 891 893 890 892
195 1 495 497 494 496
196 1 387 388 389 386
197 1 34 35 36 33
198 1 447 446 448 449
199 1 627 626 628 629
200 1 204 206 203 205
201 1 807 806 808 809
202 1 651 650 652 653
203 1 264 266 263 265
204 1 651 652 653 650
205 1 651 653 650 652
206 1 264 265 266 263
207 1 615 616 617 614
208 1 264 263 265 266
209 1 244 246 243 245
210 1 603 602 604 605
211 1 351 353 350 352
212 1 735 736 737 734
213 1 531 532 533 530
214 1 615 617 614 616
215 1 843 842 844 845
216 1 603 604 605 602
217 1 807 808 809 806
218 1 531 530 532 533
219 1 114 115 116 113
220 1 567 569 566 568
221 1 939 940 941 938
222 1 927 928 929 926
223 1 615 614 616 617
224 1 447 449 446 448
225 1 164 165 166 163
226 1 747 749 746 748
227 1 747 748 749 746
228 1 795 797 794 796
229 1 795 796 797 794
230 1 747 746 748 749
231 1 687 689 686 688
232 1 687 686 688 689
233 1 164 163 165 166
234 1 687 688 689 686
235 1 164 166 163 165
236 1 819 820 821 818
237 1 483 485 482 484
238 1 483 484 485 482
239 1 795 794 796 797
240 1 735 734 736 737
241 1 759 758 760 761
242 1 284 286 283 285
243 1 174 176 173 175
244 1 44 45 46 43
245 1 927 926 928 929
246 1 843 845 842 844
247 1 807 809 806 808
248 1 759 760 761 758
249 1 759 761 758 760
250 1 114 113 115 116
251 1 315 317 314 316
252 1 927 929 926 928
253 1 44 46 43 45
254 1 735 737 734 736
255 1 843 844 845 842
256 1 627 628 629 626
257 1 567 566 568 569
258 1 24 23 25 26
