Title

1014 atoms
944 bonds
1504 angles
1452 dihedrals
258 impropers

8 atom types
6 bond types
7 angle types
12 dihedral types
1 improper types
-0.089000009 22.68429162 xlo xhi
-0.05700000003 22.71629163 ylo yhi
-0.098000005000000015 22.67529163 zlo zhi
0.0 0.0 0.0 xy xz yz

Masses

1	12.01078
2	15.99943
3	12.01078
4	15.99943
5	1.007947
6	6.9412
7	18.998403
8	10.8117


Pair Coeffs

1	0.10884061	3.3795318
2	0.16846514	3.0251065
3	0.086879315	3.4806469
4	0.2102061	3.0398122
5	0.016409246	2.5832257
6	0.0279896	1.8263424
7	0.061	3.1199273
8	0.095	3.4210511

Bond Coeffs

1	215.30139056395	1.533627603844
2	227.0371466687	1.436323905911
3	357.8191474159	1.094206460752
4	291.34206305815	1.356061963393
5	762.0385000435	1.225002296183
6	386.59	1.394


Angle Coeffs

1	91.51855890415	108.1730591511
2	66.75631831595	109.9380527584
3	63.3100334572	123.6058900035
4	36.776637850755	108.3543135269
5	119.8958895535	112.8736161145
6	84.54765779845	120.1049996386
7	80.005	109.5


Dihedral Coeffs

1 1	0.111302960584	3	0
2 1	0.438911435509	1	180
3 1	1.763607254567	2	180
4 1	-0.01533770820035	3	0
5 1	0.4191503124266	2	0
6 1	0.1311347012225	3	0
7 1	0.436546671918	1	0
8 1	0.2631113656674667	3	0
9 1	0.2279946533057	3	0
10 1	0.3021951447071	2	180
11 1	1.350045656671	1	180
12 1	3.481871717726	2	180


Improper Coeffs

1 4.305232227926667	-1	2


Atoms

1	1	1	0.0955	10.141	1.034	17.913
2	1	1	0.0955	10.124001	1.217	19.416
3	1	2	-0.4048	11.029	0.177	19.815001
4	1	3	0.8478	12.073001	0.257	18.903999
5	1	4	-0.5484	13.310001	-0.001	19.096001
6	1	2	-0.4048	11.504001	0.68800002	17.697001
7	1	5	0.0798	9.8649998	1.9780002	17.426001
8	1	5	0.0798	9.4989996	0.16900001	17.615
9	1	5	0.0798	10.602001	2.2060001	19.625
10	1	5	0.0798	9.1420002	1.097	19.872
11	2	1	0.0955	9.1420002	10.131001	7.0939999
12	2	1	0.0955	9.8070002	11.143	6.1859999
13	2	2	-0.4048	10.759	11.719	7.0929999
14	2	3	0.8478	11.285	10.634001	7.7800007
15	2	4	-0.5484	12.467001	10.492	8.2460003
16	2	2	-0.4048	10.249	9.6929998	7.8710003
17	2	5	0.0798	8.7089996	9.3240004	6.4879999
18	2	5	0.0798	8.4049997	10.632	7.7690001
19	2	5	0.0798	10.362	10.561	5.4080005
20	2	5	0.0798	9.132	11.893	5.7770004
21	3	1	0.0955	8.9849997	16.362	19.847
22	3	1	0.0955	10.105	15.345	19.795
23	3	2	-0.4048	11.179	16.166	19.313999
24	3	3	0.8478	11.06	17.349001	20.031002
25	3	4	-0.5484	11.991	18.138	20.410002
26	3	2	-0.4048	9.6899996	17.521999	20.270002
27	3	5	0.0798	8.2299995	16.040001	20.577
28	3	5	0.0798	8.5710001	16.545	18.823999
29	3	5	0.0798	10.324	15.055	20.853003
30	3	5	0.0798	9.9139996	14.499001	19.136999
31	4	1	0.0955	2.1900001	0.70500004	2.846
32	4	1	0.0955	0.78600001	0.98199999	3.3399999
33	4	2	-0.4048	0.15099999	1.3710001	2.1129999
34	4	3	0.8478	0.62	0.46100003	1.176
35	4	4	-0.5484	0.012	-0	0.15099999
36	4	2	-0.4048	1.9220001	0.12899999	1.574
37	4	5	0.0798	2.688	0.0040000002	3.529
38	4	5	0.0798	2.75	1.6610001	2.698
39	4	5	0.0798	0.36199999	-0	3.6670003
40	4	5	0.0798	0.72100008	1.763	4.0960002
41	5	1	0.0955	17.372999	0.86300004	5.4180002
42	5	1	0.0955	17.709999	1.04	3.9530001
43	5	2	-0.4048	19.101999	1.3810002	4.0450001
44	5	3	0.8478	19.611	0.50400001	4.993
45	5	4	-0.5484	20.784	-0.001	5.052
46	5	2	-0.4048	18.57	0.26699999	5.902
47	5	5	0.0798	16.504	0.20100001	5.5170007
48	5	5	0.0798	17.24	1.857	5.9140005
49	5	5	0.0798	17.620001	0.031000001	3.4779999
50	5	5	0.0798	17.136	1.817	3.45
51	6	1	0.0955	1.9990001	4.5560002	19.865
52	6	1	0.0955	3.2860003	5.3520007	19.834
53	6	2	-0.4048	4.079	4.5999999	20.766001
54	6	3	0.8478	3.8240001	3.2739999	20.445999
55	6	4	-0.5484	4.6149998	2.2739999	20.540001
56	6	2	-0.4048	2.5	3.2309999	19.988001
57	6	5	0.0798	1.448	4.7119999	18.929001
58	6	5	0.0798	1.4060001	4.802	20.782001
59	6	5	0.0798	3.7190003	5.2220006	18.811001
60	6	5	0.0798	3.1800003	6.3910003	20.139
61	7	1	0.0955	11.419	8.415	2.7869999
62	7	1	0.0955	12.366	8.6759996	1.635
63	7	2	-0.4048	12.667	7.3299999	1.237
64	7	3	0.8478	11.444	6.6750002	1.276
65	7	4	-0.5484	11.04	5.7140007	0.53600001
66	7	2	-0.4048	10.712	7.2789998	2.3069999
67	7	5	0.0798	10.767001	9.2869997	2.931
68	7	5	0.0798	11.988	8.1239996	3.7049999
69	7	5	0.0798	11.762	9.1610003	0.82800001
70	7	5	0.0798	13.263	9.2290001	1.9060001
71	8	1	0.0955	16.115	10.430001	4.2179999
72	8	1	0.0955	16.858999	9.198	4.684
73	8	2	-0.4048	15.77	8.2729998	4.823
74	8	3	0.8478	14.987	8.4879999	3.698
75	8	4	-0.5484	14.279001	7.6389999	3.0550001
76	8	2	-0.4048	15.119	9.849	3.3860002
77	8	5	0.0798	16.798	11.084	3.6600003
78	8	5	0.0798	15.613001	10.936001	5.0799999
79	8	5	0.0798	17.500999	8.868	3.829
80	8	5	0.0798	17.403	9.3269997	5.618
81	9	1	0.0955	2.434	5.026	4.4949999
82	9	1	0.0955	3.3199999	4.395	3.441
83	9	2	-0.4048	3.8750002	3.303	4.1880002
84	9	3	0.8478	2.8	2.7850003	4.8969998
85	9	4	-0.5484	2.5900002	1.572	5.2389998
86	9	2	-0.4048	1.96	3.872	5.177
87	9	5	0.0798	1.627	5.5879998	4.007
88	9	5	0.0798	3.0439999	5.6389999	5.204
89	9	5	0.0798	2.6390002	3.9820001	2.6550002
90	9	5	0.0798	4.0939999	5.0539999	3.0510001
91	10	1	0.0955	8.3179998	19.804001	1.1619999
92	10	1	0.0955	9.1669998	18.860001	1.987
93	10	2	-0.4048	8.2399998	18.521999	3.03
94	10	3	0.8478	7.0359998	18.316999	2.3710001
95	10	4	-0.5484	6.0960002	17.507	2.6789999
96	10	2	-0.4048	7.0410004	19.188	1.2730001
97	10	5	0.0798	8.6870003	19.820999	0.12800001
98	10	5	0.0798	8.2729998	20.813	1.641
99	10	5	0.0798	9.3430004	17.952999	1.357
100	10	5	0.0798	10.078	19.305	2.3829999
101	11	1	0.0955	10.38	0.61299998	13.455
102	11	1	0.0955	8.927	1.033	13.390001
103	11	2	-0.4048	8.9680004	2.2309999	14.180001
104	11	3	0.8478	10.12	2.8830001	13.762001
105	11	4	-0.5484	10.335001	4.1409998	13.697
106	11	2	-0.4048	11.031	1.876	13.412
107	11	5	0.0798	10.620001	-0.013	12.585
108	11	5	0.0798	10.605	0.125	14.435
109	11	5	0.0798	8.7200003	1.312	12.327
110	11	5	0.0798	8.2290001	0.303	13.797001
111	12	1	0.0955	17.091	2.4530001	11.369
112	12	1	0.0955	17.416	2.1960001	12.825001
113	12	2	-0.4048	18.079	0.92699999	12.723
114	12	3	0.8478	18.908001	1.056	11.618
115	12	4	-0.5484	20.048	0.51300001	11.418
116	12	2	-0.4048	18.246	1.9200001	10.734
117	12	5	0.0798	16.98	3.5320001	11.202001
118	12	5	0.0798	16.198999	1.8559999	11.054
119	12	5	0.0798	18.167	2.9679999	13.127001
120	12	5	0.0798	16.547001	2.148	13.478001
121	13	1	0.0955	14.282	16.690001	3.7060001
122	13	1	0.0955	14.407	16.202	2.279
123	13	2	-0.4048	15.659	15.503	2.3510001
124	13	3	0.8478	15.595001	14.802	3.5469999
125	13	4	-0.5484	16.117001	13.669	3.8269999
126	13	2	-0.4048	14.83	15.589	4.4190001
127	13	5	0.0798	13.224	16.862	3.9449999
128	13	5	0.0798	14.931001	17.586	3.8729999
129	13	5	0.0798	13.589	15.455	2.122
130	13	5	0.0798	14.428	16.995001	1.5320001
131	14	1	0.0955	20.132	7.8959999	19.473
132	14	1	0.0955	18.666	7.6760001	19.780001
133	14	2	-0.4048	18.452999	8.6899996	20.773001
134	14	3	0.8478	19.120001	9.8039999	20.280001
135	14	4	-0.5484	18.816999	11.036	20.431999
136	14	2	-0.4048	20.219	9.3129997	19.562
137	14	5	0.0798	20.356003	7.5240002	18.464001
138	14	5	0.0798	20.773001	7.4450006	20.271
139	14	5	0.0798	18.099001	7.9559999	18.857
140	14	5	0.0798	18.43	6.6830006	20.158003
141	15	1	0.0955	1.591	13.966	7.0890002
142	15	1	0.0955	0.64200008	15.145	7.0510001
143	15	2	-0.4048	1.579	16.231001	6.9810004
144	15	3	0.8478	2.5339999	15.806	6.0680003
145	15	4	-0.5484	3.2160001	16.514999	5.2519999
146	15	2	-0.4048	2.6159999	14.414	6.21
147	15	5	0.0798	1.079	13.070001	6.7150002
148	15	5	0.0798	2.0239999	13.842	8.1129999
149	15	5	0.0798	0.093000002	15.084	6.0780001
150	15	5	0.0798	-0.0089999996	15.226001	7.9200001
151	16	1	0.0955	19.761	8.8470001	10.344
152	16	1	0.0955	19.604	9.6309996	11.63
153	16	2	-0.4048	18.18	9.5679998	11.801
154	16	3	0.8478	17.851	8.2550001	11.493
155	16	4	-0.5484	16.913	7.54	11.986
156	16	2	-0.4048	18.767	7.8439999	10.514001
157	16	5	0.0798	20.774	8.4289999	10.290001
158	16	5	0.0798	19.487	9.4790001	9.4630003
159	16	5	0.0798	20.088001	9.0249996	12.436
160	16	5	0.0798	19.961	10.658001	11.577
161	17	1	0.0955	11.826	15.91	14.01
162	17	1	0.0955	11.674	17.415001	13.954
163	17	2	-0.4048	10.475	17.527	13.172001
164	17	3	0.8478	9.6339998	16.549	13.686
165	17	4	-0.5484	8.3590002	16.57	13.77
166	17	2	-0.4048	10.467	15.504	14.109
167	17	5	0.0798	12.412	15.633	14.896001
168	17	5	0.0798	12.249001	15.521001	13.051
169	17	5	0.0798	11.454	17.754999	14.996
170	17	5	0.0798	12.511	17.934	13.489
171	18	1	0.0955	6.4460001	11.895	17.455999
172	18	1	0.0955	6.3610001	13.152	16.617001
173	18	2	-0.4048	5.8050003	14.066	17.573999
174	18	3	0.8478	6.4980001	13.803	18.747999
175	18	4	-0.5484	6.8099999	14.621	19.68
176	18	2	-0.4048	6.803	12.435001	18.722
177	18	5	0.0798	7.2210002	11.233	17.048
178	18	5	0.0798	5.441	11.411	17.542
179	18	5	0.0798	7.4130006	13.462	16.396999
180	18	5	0.0798	5.7340002	13.061	15.732001
181	19	1	0.0955	7.5200005	14.15	7.0380001
182	19	1	0.0955	6.2860003	13.578	6.3740005
183	19	2	-0.4048	5.757	14.757	5.7480001
184	19	3	0.8478	6.868	15.39	5.2069998
185	19	4	-0.5484	6.9330001	16.098	4.145
186	19	2	-0.4048	7.9380007	15.099	6.0650005
187	19	5	0.0798	8.2580004	13.351001	7.191
188	19	5	0.0798	7.2449999	14.694	7.9759998
189	19	5	0.0798	6.6440005	12.88	5.5770006
190	19	5	0.0798	5.5710001	13.130001	7.0630002
191	20	1	0.0955	10.665001	5.0450001	16.285
192	20	1	0.0955	10.596	5.9970002	17.459999
193	20	2	-0.4048	11.535	5.3759999	18.351999
194	20	3	0.8478	12.599	5.0150003	17.538
195	20	4	-0.5484	13.841	4.9629998	17.839001
196	20	2	-0.4048	12.046	4.7090001	16.287001
197	20	5	0.0798	10.361	5.5700006	15.369
198	20	5	0.0798	10.069	4.1209998	16.490999
199	20	5	0.0798	11.025	6.9689999	17.110001
200	20	5	0.0798	9.6090002	6.0869999	17.909
201	21	1	0.0955	13.957	15.708	10.159
202	21	1	0.0955	12.509001	15.311001	10.349001
203	21	2	-0.4048	12.019	16.451	11.071
204	21	3	0.8478	12.583	17.541	10.423001
205	21	4	-0.5484	12.091	18.711	10.271
206	21	2	-0.4048	13.83	17.108999	9.9490004
207	21	5	0.0798	14.369	15.187	9.2840004
208	21	5	0.0798	14.538001	15.537	11.099
209	21	5	0.0798	12.042	15.304001	9.3319998
210	21	5	0.0798	12.365	14.386	10.906
211	22	1	0.0955	12.604	13.388	19.898001
212	22	1	0.0955	13.651	14.47	19.743
213	22	2	-0.4048	14.599	14.059	20.739
214	22	3	0.8478	14.688	12.682	20.586002
215	22	4	-0.5484	15.703	11.93	20.780001
216	22	2	-0.4048	13.42	12.255	20.166
217	22	5	0.0798	12.038001	13.287	18.962
218	22	5	0.0798	11.961001	13.588	20.792
219	22	5	0.0798	14.110001	14.329	18.733
220	22	5	0.0798	13.285	15.479001	19.924
221	23	1	0.0955	4.3899999	4.027	13.004
222	23	1	0.0955	4.6339998	5.5120001	12.842001
223	23	2	-0.4048	5.7470007	5.6919999	13.731001
224	23	3	0.8478	6.5710001	4.6040001	13.478001
225	23	4	-0.5484	7.8470001	4.5489998	13.541001
226	23	2	-0.4048	5.7220001	3.5450003	13.130001
227	23	5	0.0798	3.885	3.6389999	12.11
228	23	5	0.0798	3.8410001	3.8210001	13.956001
229	23	5	0.0798	4.987	5.6669998	11.792001
230	23	5	0.0798	3.7890003	6.1400003	13.119
231	24	1	0.0955	12.884001	2.1110001	2.049
232	24	1	0.0955	11.89	1.149	2.6620002
233	24	2	-0.4048	12.736	0.012	2.8929999
234	24	3	0.8478	13.909	0.551	3.402
235	24	4	-0.5484	14.713	0.032000002	4.25
236	24	2	-0.4048	14.054001	1.8080001	2.7990003
237	24	5	0.0798	12.541	3.1420002	2.2049999
238	24	5	0.0798	13.068	1.8559999	0.97600007
239	24	5	0.0798	11.594	1.58	3.651
240	24	5	0.0798	11.047	0.90200001	2.0190001
241	25	1	0.0955	9.6269999	7.5679998	11.558
242	25	1	0.0955	9.7259998	7.3330002	10.066
243	25	2	-0.4048	11.085	7.7329998	9.8290005
244	25	3	0.8478	11.798	7.1799998	10.884
245	25	4	-0.5484	13.002	6.7519999	10.884
246	25	2	-0.4048	10.926	7.1750002	11.982001
247	25	5	0.0798	8.8380003	6.9310002	11.978001
248	25	5	0.0798	9.4910002	8.6560001	11.777
249	25	5	0.0798	9.6470003	6.2280006	9.9090004
250	25	5	0.0798	9.0229998	7.914	9.4709997
251	26	1	0.0955	1.868	11.731	17.038
252	26	1	0.0955	2.1440001	12.954	16.190001
253	26	2	-0.4048	3.5780001	12.917	16.139999
254	26	3	0.8478	3.8840003	11.58	15.929001
255	26	4	-0.5484	4.8699999	11.088	15.282001
256	26	2	-0.4048	2.8800001	10.845001	16.576
257	26	5	0.0798	0.85699999	11.359	16.827999
258	26	5	0.0798	2.05	11.952	18.118999
259	26	5	0.0798	1.745	12.733001	15.169
260	26	5	0.0798	1.777	13.887	16.614
261	27	1	0.0955	9.6379995	20.253	8.5509996
262	27	1	0.0955	9.3769999	18.768999	8.4060001
263	27	2	-0.4048	8.0010004	18.705999	8.8109999
264	27	3	0.8478	7.4070001	19.796	8.1899996
265	27	4	-0.5484	6.21	19.900999	7.756
266	27	2	-0.4048	8.3929996	20.791	8.125
267	27	5	0.0798	10.469	20.545002	7.895
268	27	5	0.0798	9.7969999	20.521	9.625
269	27	5	0.0798	9.4390001	18.537001	7.3130007
270	27	5	0.0798	10.011	18.138	9.0270004
271	28	1	0.0955	2.882	13.715	19.937
272	28	1	0.0955	3.9089999	14.802	20.167999
273	28	2	-0.4048	4.3000002	15.082001	18.815001
274	28	3	0.8478	3.1070004	15.097	18.106001
275	28	4	-0.5484	2.8060002	15.8	17.080999
276	28	2	-0.4048	2.266	14.171	18.74
277	28	5	0.0798	2.184	13.684	20.783003
278	28	5	0.0798	3.3840001	12.736	19.732
279	28	5	0.0798	3.355	15.687	20.57
280	28	5	0.0798	4.757	14.498	20.780001
281	29	1	0.0955	1.926	6.6020007	15.127
282	29	1	0.0955	0.58200002	6.6360002	14.431
283	29	2	-0.4048	0.92299998	6.0279999	13.176001
284	29	3	0.8478	1.7400001	4.96	13.519
285	29	4	-0.5484	1.853	3.8320003	12.929
286	29	2	-0.4048	2.438	5.3570004	14.668001
287	29	5	0.0798	1.777	6.6199999	16.214001
288	29	5	0.0798	2.585	7.4229999	14.75
289	29	5	0.0798	-0.089000009	5.9400005	14.995001
290	29	5	0.0798	0.16900001	7.6350002	14.299001
291	30	1	0.0955	16.731001	10.125	0.96899998
292	30	1	0.0955	17.534	11.395	0.78500003
293	30	2	-0.4048	16.528	12.264	0.243
294	30	3	0.8478	15.399	12.006001	1.0089999
295	30	4	-0.5484	14.466	12.817	1.336
296	30	2	-0.4048	15.474	10.654	1.3700001
297	30	5	0.0798	17.195999	9.507	1.7480001
298	30	5	0.0798	16.604	9.5959997	-0.0080000004
299	30	5	0.0798	17.802999	11.756	1.809
300	30	5	0.0798	18.386999	11.296	0.116
301	31	1	0.1266165	6.7250004	15.946001	16.062
302	31	2	-0.3889835	6.652	17.35	15.84
303	31	3	0.7551165	5.7660003	18.049999	16.646999
304	31	4	-0.5800835	5.1060004	17.395	17.497999
305	31	2	-0.3889835	5.6409998	19.426001	16.486
306	31	1	0.1266165	4.7420001	20.156	17.299
307	31	5	0.0582835	5.7179999	15.527	15.933
308	31	5	0.0582835	7.5110002	15.451001	15.463
309	31	5	0.0582835	7.0160003	15.852001	17.146999
310	31	5	0.0582835	5.2780004	20.745001	18.066999
311	31	5	0.0582835	4.151	20.787001	16.606001
312	31	5	0.0582835	4.0830002	19.452999	17.886
313	32	1	0.1266165	16.944	14.632	8.9549999
314	32	2	-0.3889835	17.906	15.518	9.5170002
315	32	3	0.7551165	17.399	16.628	10.179
316	32	4	-0.5800835	16.146999	16.759001	10.229
317	32	2	-0.3889835	18.281	17.538	10.753001
318	32	1	0.1266165	17.782	18.674999	11.433
319	32	5	0.0582835	16.316	15.206001	8.2609997
320	32	5	0.0582835	17.393999	13.719	8.5229998
321	32	5	0.0582835	16.312	14.316	9.8339996
322	32	5	0.0582835	17.882	18.568001	12.529
323	32	5	0.0582835	18.347	19.540001	11.030001
324	32	5	0.0582835	16.673	18.784	11.256
325	33	1	0.1266165	13.437	12.564	3.7509999
326	33	2	-0.3889835	12.248	12.572001	4.5339999
327	33	3	0.7551165	12.096	13.646001	5.4010005
328	33	4	-0.5800835	13.009	14.513	5.4250002
329	33	2	-0.3889835	10.958	13.719	6.1980004
330	33	1	0.1266165	10.786	14.806	7.0880003
331	33	5	0.0582835	14.296	12.596001	4.4349999
332	33	5	0.0582835	13.466	11.744001	3.0120001
333	33	5	0.0582835	13.398	13.535	3.1789999
334	33	5	0.0582835	10.025	15.518	6.7150002
335	33	5	0.0582835	10.515001	14.358	8.0649996
336	33	5	0.0582835	11.735	15.412001	7.1570005
337	34	1	0.1266165	1.2	18.323999	9.7299995
338	34	2	-0.3889835	1.109	17.593	10.948
339	34	3	0.7551165	1.128	16.209999	10.832
340	34	4	-0.5800835	1.221	15.72	9.6750002
341	34	2	-0.3889835	1.0420001	15.430001	11.982001
342	34	1	0.1266165	1.059	14.019001	11.883
343	34	5	0.0582835	0.37200001	18.009001	9.0810003
344	34	5	0.0582835	1.277	19.416	9.8830004
345	34	5	0.0582835	2.1689999	17.976	9.2700005
346	34	5	0.0582835	2.03	13.602	12.212
347	34	5	0.0582835	0.207	13.662	12.495001
348	34	5	0.0582835	0.96100003	13.699001	10.805
349	35	1	0.1266165	7.5850005	16.1	0.57800001
350	35	2	-0.3889835	8.1890001	14.82	0.43099999
351	35	3	0.7551165	9.5550003	14.759001	0.671
352	35	4	-0.5800835	10.141	15.826	0.99400008
353	35	2	-0.3889835	10.213001	13.539	0.546
354	35	1	0.1266165	11.606001	13.458	0.787
355	35	5	0.0582835	8.0979996	16.799	-0.098000005
356	35	5	0.0582835	6.4860005	16.077999	0.47000003
357	35	5	0.0582835	7.816	16.396	1.641
358	35	5	0.0582835	11.821001	12.967	1.7550001
359	35	5	0.0582835	12.031001	12.912001	-0.079000004
360	35	5	0.0582835	12.048	14.491	0.88499999
361	36	1	0.1266165	13.648	9.4110003	11.872
362	36	2	-0.3889835	14.246	10.074	10.763
363	36	3	0.7551165	14.073	9.4700003	9.5249996
364	36	4	-0.5800835	13.411001	8.3990002	9.4840002
365	36	2	-0.3889835	14.630001	10.062	8.3959999
366	36	1	0.1266165	14.464001	9.46	7.1259999
367	36	5	0.0582835	14.049	8.3889999	11.914
368	36	5	0.0582835	13.732	9.9790001	12.815
369	36	5	0.0582835	12.554001	9.3570004	11.605
370	36	5	0.0582835	13.733	10.015	6.5070004
371	36	5	0.0582835	15.475	9.4259996	6.6729999
372	36	5	0.0582835	14.021	8.4280005	7.2350001
373	37	1	0.1266165	11.149	4.211	10.685
374	37	2	-0.3889835	12.496	4.6420002	10.529001
375	37	3	0.7551165	13.256001	3.9449999	9.599
376	37	4	-0.5800835	12.7	3.0009999	8.9779997
377	37	2	-0.3889835	14.583	4.3119998	9.3940001
378	37	1	0.1266165	15.373	3.6129999	8.4510002
379	37	5	0.0582835	11.161001	3.1470001	10.958
380	37	5	0.0582835	10.561	4.855	11.363
381	37	5	0.0582835	10.705	4.3099999	9.6529999
382	37	5	0.0582835	15.533	4.2119999	7.5340004
383	37	5	0.0582835	16.316999	3.362	8.974
384	37	5	0.0582835	14.835	2.687	8.0970001
385	38	1	0.1266165	3.323	3.3570001	16.691999
386	38	2	-0.3889835	4.5289998	4.1110001	16.629
387	38	3	0.7551165	5.4360003	3.9000001	17.658001
388	38	4	-0.5800835	5.1220007	3.0700002	18.552999
389	38	2	-0.3889835	6.6360002	4.6030002	17.662001
390	38	1	0.1266165	7.572	4.4000001	18.704
391	38	5	0.0582835	2.8330002	3.5780001	17.65
392	38	5	0.0582835	2.6800001	3.49	15.804
393	38	5	0.0582835	3.6680002	2.2839999	16.705
394	38	5	0.0582835	8.4390001	3.8039999	18.358999
395	38	5	0.0582835	7.8570004	5.4120007	19.056
396	38	5	0.0582835	7.1129999	3.7850001	19.531
397	39	1	0.1266165	10.327	14.751	3.5160003
398	39	2	-0.3889835	9.1400003	15.084	2.8050003
399	39	3	0.7551165	8	14.372	3.154
400	39	4	-0.5800835	8.1070004	13.502001	4.059
401	39	2	-0.3889835	6.8020005	14.644001	2.5
402	39	1	0.1266165	5.6300001	13.928001	2.8429999
403	39	5	0.0582835	10.519	13.679	3.3770001
404	39	5	0.0582835	11.18	15.408	3.27
405	39	5	0.0582835	10.062	14.93	4.5970001
406	39	5	0.0582835	4.9330001	14.553001	3.4330001
407	39	5	0.0582835	5.1950002	13.583001	1.8840001
408	39	5	0.0582835	5.8820004	13.063001	3.5220001
409	40	1	0.1266165	3.1570003	11.506	7.4270005
410	40	2	-0.3889835	3.131	10.19	6.8850002
411	40	3	0.7551165	2.0150001	9.8660002	6.1240001
412	40	4	-0.5800835	1.1289999	10.749001	5.9780002
413	40	2	-0.3889835	1.921	8.5959997	5.5630007
414	40	1	0.1266165	0.79100007	8.2480001	4.7849998
415	40	5	0.0582835	2.256	11.64	8.04
416	40	5	0.0582835	4.105	11.745	7.941
417	40	5	0.0582835	3.0810001	12.178	6.5250006
418	40	5	0.0582835	1.036	8.2189999	3.7060001
419	40	5	0.0582835	0.44400004	7.2709999	5.1760001
420	40	5	0.0582835	-0.0080000004	9.04	4.8759999
421	41	1	0.1266165	0.97899997	3.553	0.46799999
422	41	2	-0.3889835	2.2130001	4.2610002	0.40900004
423	41	3	0.7551165	2.2550001	5.4730005	1.084
424	41	4	-0.5800835	1.211	5.8450003	1.6849999
425	41	2	-0.3889835	3.4290001	6.2190003	1.0700001
426	41	1	0.1266165	3.4890003	7.4580002	1.752
427	41	5	0.0582835	0.192	4.2090001	0.072999999
428	41	5	0.0582835	1.027	2.5550003	-0.0020000001
429	41	5	0.0582835	0.80000007	3.4010003	1.5710001
430	41	5	0.0582835	4.079	7.3780003	2.684
431	41	5	0.0582835	3.9180002	8.1800003	1.029
432	41	5	0.0582835	2.4590001	7.77	2.0910001
433	42	1	0.1266165	2.2609999	8.4809999	11.078
434	42	2	-0.3889835	2.7540002	7.4780006	10.195
435	42	3	0.7551165	4.098	7.158	10.326
436	42	4	-0.5800835	4.7639999	7.7729998	11.201
437	42	2	-0.3889835	4.6490002	6.1859999	9.4969997
438	42	1	0.1266165	6.0180001	5.8470006	9.6149998
439	42	5	0.0582835	2.8599999	9.3900003	10.929001
440	42	5	0.0582835	1.169	8.6309996	10.999001
441	42	5	0.0582835	2.4749999	8.0740004	12.107
442	42	5	0.0582835	6.1500001	4.8649998	10.107001
443	42	5	0.0582835	6.4260001	5.8730001	8.585
444	42	5	0.0582835	6.5469999	6.5790005	10.292
445	43	1	0.1266165	3.234	11.979	10.975
446	43	2	-0.3889835	3.7720001	11.972	12.293
447	43	3	0.7551165	5.1160002	12.302	12.405
448	43	4	-0.5800835	5.7420006	12.575001	11.346001
449	43	2	-0.3889835	5.7100005	12.316	13.663
450	43	1	0.1266165	7.079	12.649001	13.796
451	43	5	0.0582835	3.8240001	11.283001	10.363001
452	43	5	0.0582835	2.1429999	11.804	10.949
453	43	5	0.0582835	3.4189999	13.028001	10.605
454	43	5	0.0582835	7.2090001	13.664	14.216
455	43	5	0.0582835	7.5220003	11.858	14.433001
456	43	5	0.0582835	7.573	12.692001	12.783001
457	44	1	0.1266165	0.41299999	2.6630001	6.9970007
458	44	2	-0.3889835	1.8099999	2.5450001	7.2420001
459	44	3	0.7551165	2.175	2.2060001	8.5380001
460	44	4	-0.5800835	1.2550001	2.0350001	9.3800001
461	44	2	-0.3889835	3.5250001	2.072	8.8509998
462	44	1	0.1266165	3.9159999	1.7290001	10.166
463	44	5	0.0582835	0.0080000004	3.414	7.6890001
464	44	5	0.0582835	0.171	2.8400002	5.9330006
465	44	5	0.0582835	-0.0050000004	1.6540002	7.2779999
466	44	5	0.0582835	4.257	0.67799997	10.225
467	44	5	0.0582835	4.704	2.4549999	10.448
468	44	5	0.0582835	3.0320001	1.781	10.866001
469	45	1	0.1266165	17.618999	16.749001	17.614
470	45	2	-0.3889835	18.122	15.699	18.434
471	45	3	0.7551165	18.636999	14.597	17.764999
472	45	4	-0.5800835	18.615999	14.613	16.504999
473	45	2	-0.3889835	19.146	13.531	18.500999
474	45	1	0.1266165	19.674	12.399	17.837
475	45	5	0.0582835	16.839001	16.33	16.964001
476	45	5	0.0582835	17.309999	17.639999	18.190001
477	45	5	0.0582835	18.499001	17.046	16.974001
478	45	5	0.0582835	20.778999	12.38	17.886
479	45	5	0.0582835	19.205	11.519001	18.319
480	45	5	0.0582835	19.438	12.445001	16.733999
481	46	1	0.1266165	18.839001	13.578	13.805
482	46	2	-0.3889835	18.332001	13.596	12.475
483	46	3	0.7551165	19.242001	13.295001	11.471
484	46	4	-0.5800835	20.426003	13.036001	11.813001
485	46	2	-0.3889835	18.816	13.293	10.146
486	46	1	0.1266165	19.73	12.989	9.1099997
487	46	5	0.0582835	19.677	14.286001	13.859
488	46	5	0.0582835	18.056999	13.73	14.571
489	46	5	0.0582835	19.243	12.534	13.934001
490	46	5	0.0582835	19.555	11.976	8.6999998
491	46	5	0.0582835	19.606001	13.789	8.3529997
492	46	5	0.0582835	20.784	12.956	9.5109997
493	47	1	0.1266165	9.1029997	15.725001	10.839
494	47	2	-0.3889835	9.6049995	14.657001	10.043
495	47	3	0.7551165	9.9960003	13.516001	10.731
496	47	4	-0.5800835	9.8769999	13.518	11.985001
497	47	2	-0.3889835	10.497	12.431001	10.017
498	47	1	0.1266165	10.901001	11.26	10.701
499	47	5	0.0582835	9.875	15.996	11.572
500	47	5	0.0582835	8.717	16.57	10.240001
501	47	5	0.0582835	8.2290001	15.273	11.39
502	47	5	0.0582835	10.171	10.440001	10.566
503	47	5	0.0582835	11.907	11.012	10.308
504	47	5	0.0582835	10.923	11.442001	11.814001
505	48	1	0.1266165	5.0949998	11.118001	1.045
506	48	2	-0.3889835	6.323	11.819	1.21
507	48	3	0.7551165	7.4800005	11.079	1.005
508	48	4	-0.5800835	7.3520002	9.8649998	0.69499999
509	48	2	-0.3889835	8.717	11.699	1.15
510	48	1	0.1266165	9.9069996	10.961	0.94599998
511	48	5	0.0582835	5.0970001	10.26	1.7309999
512	48	5	0.0582835	4.2069998	11.77	1.124
513	48	5	0.0582835	5.1380005	10.73	-0.013
514	48	5	0.0582835	10.388	11.226	-0.015000001
515	48	5	0.0582835	10.550001	11.174001	1.823
516	48	5	0.0582835	9.677	9.8610001	0.85600007
517	49	1	0.1266165	13.035001	1.766	15.391001
518	49	2	-0.3889835	13.742	1.617	16.617001
519	49	3	0.7551165	13.18	2.2360001	17.725
520	49	4	-0.5800835	12.105	2.872	17.558001
521	49	2	-0.3889835	13.817	2.132	18.958
522	49	1	0.1266165	13.258	2.757	20.098
523	49	5	0.0582835	12.932	2.8410003	15.186
524	49	5	0.0582835	13.47	1.178	14.563
525	49	5	0.0582835	12.013	1.3430001	15.607
526	49	5	0.0582835	12.794	2.017	20.778
527	49	5	0.0582835	14.088	3.319	20.572002
528	49	5	0.0582835	12.411001	3.4389999	19.798
529	50	1	0.1266165	9.6420002	18.865	17.774
530	50	2	-0.3889835	10.447001	17.700001	17.917999
531	50	3	0.7551165	10.046	16.587	17.193001
532	50	4	-0.5800835	9.0150003	16.695	16.476
533	50	2	-0.3889835	10.786	15.413	17.285
534	50	1	0.1266165	10.392	14.267	16.552999
535	50	5	0.0582835	8.6129999	18.605	18.059
536	50	5	0.0582835	10.055	19.747	18.294001
537	50	5	0.0582835	9.6630001	19.082001	16.667999
538	50	5	0.0582835	11.058001	14.092001	15.687
539	50	5	0.0582835	10.395001	13.429001	17.278
540	50	5	0.0582835	9.3699999	14.423	16.101
541	51	1	0.1266165	6.743	7.0359998	20.25
542	51	2	-0.3889835	6.8889999	7.375	18.875
543	51	3	0.7551165	5.7129998	7.5	18.149
544	51	4	-0.5800835	4.6259999	7.3040004	18.756001
545	51	2	-0.3889835	5.7789998	7.8290005	16.799
546	51	1	0.1266165	4.5900002	7.9590006	16.042999
547	51	5	0.0582835	6.1849999	6.092	20.311001
548	51	5	0.0582835	7.6990004	7.0430002	20.804003
549	51	5	0.0582835	6.1000004	7.8610001	20.672001
550	51	5	0.0582835	4.3590002	9.0209999	15.831001
551	51	5	0.0582835	4.7480001	7.3610001	15.124001
552	51	5	0.0582835	3.704	7.5869999	16.635
553	52	1	0.1266165	19.493	4.0440001	8.4110003
554	52	2	-0.3889835	19.777	5.1810002	9.2180004
555	52	3	0.7551165	19.562	5.0310001	10.581001
556	52	4	-0.5800835	19.139	3.9170001	10.988001
557	52	2	-0.3889835	19.819	6.1020002	11.431
558	52	1	0.1266165	19.606001	5.967	12.824
559	52	5	0.0582835	18.445	3.7600002	8.5780001
560	52	5	0.0582835	19.768999	4.1830001	7.3500004
561	52	5	0.0582835	20.155001	3.233	8.8310003
562	52	5	0.0582835	20.562	5.881	13.373001
563	52	5	0.0582835	19.013	6.8530006	13.126
564	52	5	0.0582835	19.059999	5.0050001	13.047
565	53	1	0.1266165	15.976	5.4120007	19.444
566	53	2	-0.3889835	15.023001	6.3930006	19.051001
567	53	3	0.7551165	13.809	6.368	19.722
568	53	4	-0.5800835	13.649	5.4910002	20.612
569	53	2	-0.3889835	12.829	7.2989998	19.389999
570	53	1	0.1266165	11.584	7.2880001	20.063
571	53	5	0.0582835	15.518	4.4219999	19.316
572	53	5	0.0582835	16.955999	5.533	18.950001
573	53	5	0.0582835	16.125999	5.5970001	20.546
574	53	5	0.0582835	11.505001	8.1269999	20.781
575	53	5	0.0582835	10.811	7.3239999	19.27
576	53	5	0.0582835	11.489	6.3600006	20.697001
577	54	1	0.1266165	16.738001	15.64	12.841
578	54	2	-0.3889835	15.996	14.513	12.390001
579	54	3	0.7551165	14.8	14.265001	13.050001
580	54	4	-0.5800835	14.473	15.046	13.983001
581	54	2	-0.3889835	14.022001	13.178	12.662
582	54	1	0.1266165	12.801	12.91	13.324001
583	54	5	0.0582835	16.941999	15.507001	13.912
584	54	5	0.0582835	17.629999	15.85	12.224001
585	54	5	0.0582835	16.027	16.507	12.717
586	54	5	0.0582835	11.931	13.186001	12.697
587	54	5	0.0582835	12.825001	11.832	13.578
588	54	5	0.0582835	12.703	13.553	14.246
589	55	1	0.1266165	3.3610001	15.055	0.81
590	55	2	-0.3889835	2.8640003	15.749001	1.9490001
591	55	3	0.7551165	2.8440001	17.134001	1.859
592	55	4	-0.5800835	3.2620001	17.658001	0.792
593	55	2	-0.3889835	2.3699999	17.879	2.9349999
594	55	1	0.1266165	2.3429999	19.292	2.8610001
595	55	5	0.0582835	4.3800001	15.415	0.61000001
596	55	5	0.0582835	3.2679999	13.958	0.89399999
597	55	5	0.0582835	2.691	15.39	-0.033
598	55	5	0.0582835	1.312	19.67	2.7219999
599	55	5	0.0582835	2.8120003	19.653	3.7969999
600	55	5	0.0582835	2.904	19.649	1.9490001
601	56	1	0.1266165	10.767001	0.95600003	6.6849999
602	56	2	-0.3889835	9.3719997	1.02	6.4099998
603	56	3	0.7551165	8.5270004	0.85799998	7.4990005
604	56	4	-0.5800835	9.0550003	0.66900009	8.6269999
605	56	2	-0.3889835	7.1500006	0.91000009	7.3049998
606	56	1	0.1266165	6.2729998	0.74600005	8.4040003
607	56	5	0.0582835	10.976	-0.014	7.158
608	56	5	0.0582835	11.395	1.1849999	5.8060002
609	56	5	0.0582835	10.938	1.77	7.4460001
610	56	5	0.0582835	5.8170004	1.7079999	8.7040005
611	56	5	0.0582835	5.5250001	-0.0060000001	8.0839996
612	56	5	0.0582835	6.8440003	0.40400001	9.3149996
613	57	1	0.1266165	13.24	17.122	7.0530005
614	57	2	-0.3889835	12.394	17.33	5.927
615	57	3	0.7551165	11.757001	18.561001	5.8610005
616	57	4	-0.5800835	11.975001	19.384001	6.79
617	57	2	-0.3889835	10.914001	18.834	4.7880001
618	57	1	0.1266165	10.256	20.084	4.7049999
619	57	5	0.0582835	12.639	17.261999	7.9610004
620	57	5	0.0582835	13.795	16.167999	7.0100002
621	57	5	0.0582835	13.994001	17.958	6.9899998
622	57	5	0.0582835	10.713	20.732	3.9330003
623	57	5	0.0582835	9.1920004	19.853001	4.5
624	57	5	0.0582835	10.379	20.658001	5.6680007
625	58	1	0.1266165	4.8169999	0.713	13.046
626	58	2	-0.3889835	4.1129999	0.87300003	14.273
627	58	3	0.7551165	2.786	1.2660002	14.168
628	58	4	-0.5800835	2.319	1.448	13.012
629	58	2	-0.3889835	2.0350001	1.4420002	15.326
630	58	1	0.1266165	0.68099999	1.8430001	15.238
631	58	5	0.0582835	4.7690001	1.664	12.499
632	58	5	0.0582835	5.8369999	0.308	13.179001
633	58	5	0.0582835	4.2179999	-0.057	12.481001
634	58	5	0.0582835	-0.0050000004	1.002	15.456
635	58	5	0.0582835	0.56900001	2.687	15.947
636	58	5	0.0582835	0.43000001	2.1500001	14.182
637	59	1	0.1266165	0.52200001	15.089001	14.894
638	59	2	-0.3889835	0.44800001	16.306	15.629
639	59	3	0.7551165	0.99400008	17.424	15.014
640	59	4	-0.5800835	1.505	17.274	13.872
641	59	2	-0.3889835	0.95700002	18.649	15.674
642	59	1	0.1266165	1.5100001	19.799	15.062
643	59	5	0.0582835	1.579	14.892	14.667
644	59	5	0.0582835	-0.0089999996	14.252	15.382
645	59	5	0.0582835	-0.015000001	15.315	13.929
646	59	5	0.0582835	0.71900004	20.480001	14.694
647	59	5	0.0582835	2.1600001	20.267	15.828
648	59	5	0.0582835	2.0929999	19.513	14.14
649	60	1	0.1266165	15.241001	19.712999	13.401001
650	60	2	-0.3889835	15.383	20.488003	12.216
651	60	3	0.7551165	14.763	19.986	11.081
652	60	4	-0.5800835	14.134001	18.9	11.188001
653	60	2	-0.3889835	14.86	20.691002	9.8850002
654	60	1	0.1266165	14.234	20.194	8.717
655	60	5	0.0582835	15.630001	18.705	13.198
656	60	5	0.0582835	15.67	20.201	14.295
657	60	5	0.0582835	14.126	19.643	13.555001
658	60	5	0.0582835	13.326	20.774	8.467
659	60	5	0.0582835	15.005001	20.234001	7.921
660	60	5	0.0582835	13.865	19.142	8.8859997
661	61	1	0.1266165	1.365	4.869	10.167
662	61	2	-0.3889835	2.7180002	4.48	9.9560003
663	61	3	0.7551165	3.1259999	4.3860002	8.632
664	61	4	-0.5800835	2.279	4.6490002	7.7379999
665	61	2	-0.3889835	4.4359999	4.0110002	8.3509998
666	61	1	0.1266165	4.8699999	3.9100001	7.007
667	61	5	0.0582835	0.71799999	4.152	9.6429996
668	61	5	0.0582835	1.117	5.0209999	11.232
669	61	5	0.0582835	1.2810001	5.869	9.6520004
670	61	5	0.0582835	5.527	4.756	6.7290001
671	61	5	0.0582835	5.3759999	2.9270003	6.9260001
672	61	5	0.0582835	3.9920001	3.9860001	6.303
673	62	1	0.1266165	13.542	20.191	5.0150003
674	62	2	-0.3889835	13.318	19.044001	4.2020001
675	62	3	0.7551165	12.912001	19.292	2.8970001
676	62	4	-0.5800835	12.777	20.494001	2.5439999
677	62	2	-0.3889835	12.674	18.219	2.0439999
678	62	1	0.1266165	12.259001	18.452	0.71200007
679	62	5	0.0582835	12.616	20.781	5.0349998
680	62	5	0.0582835	13.954	19.944	6.0100002
681	62	5	0.0582835	14.329	20.776001	4.4580002
682	62	5	0.0582835	13.08	18.263	-0.0060000001
683	62	5	0.0582835	11.382	17.795	0.54799998
684	62	5	0.0582835	11.997	19.540001	0.56599998
685	63	1	0.1266165	6.4650006	0.66399997	20.065001
686	63	2	-0.3889835	5.7810001	0.995	18.862
687	63	3	0.7551165	6.5549998	1.5549999	17.855
688	63	4	-0.5800835	7.7820005	1.725	18.084999
689	63	2	-0.3889835	5.9540005	1.904	16.65
690	63	1	0.1266165	6.7270002	2.477	15.612
691	63	5	0.0582835	6.941	1.576	20.448
692	63	5	0.0582835	5.8270001	0.13500001	20.797003
693	63	5	0.0582835	7.2719998	-0.052000001	19.738001
694	63	5	0.0582835	6.9110003	1.752	14.797
695	63	5	0.0582835	6.1669998	3.3730001	15.276001
696	63	5	0.0582835	7.7550001	2.7480001	15.991
697	64	1	0.1266165	15.398001	8.9820004	15.417
698	64	2	-0.3889835	14.604	8.8509998	16.591
699	64	3	0.7551165	15.287	8.8970003	17.798
700	64	4	-0.5800835	16.538	9.0480003	17.757999
701	64	2	-0.3889835	14.575	8.776	18.988001
702	64	1	0.1266165	15.256	8.8210001	20.228003
703	64	5	0.0582835	16.157	8.1870003	15.429
704	64	5	0.0582835	14.8	9.0340004	14.49
705	64	5	0.0582835	15.917	9.9750004	15.543001
706	64	5	0.0582835	15.088	9.7840004	20.747002
707	64	5	0.0582835	14.889001	7.9489999	20.806
708	64	5	0.0582835	16.371	8.7740002	20.066002
709	65	1	0.1266165	5.7240005	8.9980001	8.382
710	65	2	-0.3889835	6.836	8.7989998	7.5159998
711	65	3	0.7551165	6.777	7.6810002	6.6950006
712	65	4	-0.5800835	5.7600002	6.9429998	6.7820001
713	65	2	-0.3889835	7.8299999	7.4229999	5.822
714	65	1	0.1266165	7.7870007	6.2870002	4.9780002
715	65	5	0.0582835	5.6139998	8.1020002	9.007
716	65	5	0.0582835	5.7740002	9.948	8.9429998
717	65	5	0.0582835	4.8390002	9.0609999	7.6859999
718	65	5	0.0582835	7.5760002	6.5700002	3.9300001
719	65	5	0.0582835	8.7670002	5.783	5.1009998
720	65	5	0.0582835	6.9320006	5.6120005	5.27
721	66	1	0.1266165	8.0380001	10.148	3.6030002
722	66	2	-0.3889835	6.8850002	9.5950003	2.9780002
723	66	3	0.7551165	7.0710001	8.3950005	2.306
724	66	4	-0.5800835	8.2290001	7.8990002	2.303
725	66	2	-0.3889835	5.987	7.7960005	1.6720002
726	66	1	0.1266165	6.158	6.5720005	0.98199999
727	66	5	0.0582835	8.8100004	10.285	2.8330002
728	66	5	0.0582835	7.8189998	11.05	4.2020001
729	66	5	0.0582835	8.3809996	9.3430004	4.3140001
730	66	5	0.0582835	5.723	5.7249999	1.5460001
731	66	5	0.0582835	5.6870003	6.7160006	-0.011
732	66	5	0.0582835	7.2540002	6.322	0.88999999
733	67	1	0.1266165	15.585001	19.735001	1.3740001
734	67	2	-0.3889835	16.459	18.746	1.9060001
735	67	3	0.7551165	16.613001	17.594999	1.145
736	67	4	-0.5800835	15.976	17.52	0.061000004
737	67	2	-0.3889835	17.452999	16.584	1.6040001
738	67	1	0.1266165	17.622	15.404	0.84100002
739	67	5	0.0582835	14.6	19.273001	1.221
740	67	5	0.0582835	15.570001	20.667	1.967
741	67	5	0.0582835	16.025999	19.981001	0.366
742	67	5	0.0582835	18.608999	15.384001	0.34099999
743	67	5	0.0582835	17.479	14.564	1.549
744	67	5	0.0582835	16.872999	15.370001	-0.0020000001
745	68	1	0.1266165	16.767	11.102	13.282
746	68	2	-0.3889835	16.950001	9.7299995	13.616
747	68	3	0.7551165	18.027	9.4420004	14.443001
748	68	4	-0.5800835	18.746	10.404	14.825
749	68	2	-0.3889835	18.267	8.1219997	14.812001
750	68	1	0.1266165	19.361	7.8100004	15.654
751	68	5	0.0582835	17.688999	11.462001	12.806
752	68	5	0.0582835	15.846	11.289	12.702
753	68	5	0.0582835	16.653	11.617001	14.278001
754	68	5	0.0582835	19.024	7.5650001	16.68
755	68	5	0.0582835	19.892	6.9710007	15.162
756	68	5	0.0582835	20.030001	8.71	15.78
757	69	1	0.1266165	0.792	15.682	3.1920002
758	69	2	-0.3889835	1.122	14.507	2.4590001
759	69	3	0.7551165	1.541	13.418001	3.211
760	69	4	-0.5800835	1.595	13.555001	4.4619999
761	69	2	-0.3889835	1.8789999	12.235001	2.5610003
762	69	1	0.1266165	2.309	11.114	3.3110001
763	69	5	0.0582835	1.671	15.973	3.783
764	69	5	0.0582835	0.375	16.487	2.5600002
765	69	5	0.0582835	-0.021	15.35	3.8980002
766	69	5	0.0582835	1.523	10.336	3.3629999
767	69	5	0.0582835	3.2360003	10.758	2.8190002
768	69	5	0.0582835	2.493	11.406001	4.3850002
769	70	1	0.1266165	20.24	15.245	3.8310001
770	70	2	-0.3889835	20.386	16.631001	3.5409999
771	70	3	0.7551165	19.889999	17.509001	4.4949999
772	70	4	-0.5800835	19.357	17.016001	5.5240006
773	70	2	-0.3889835	19.999001	18.879999	4.2779999
774	70	1	0.1266165	19.497999	19.790001	5.2389998
775	70	5	0.0582835	19.172001	15.040001	3.9830003
776	70	5	0.0582835	20.734001	14.591	3.0899999
777	70	5	0.0582835	20.775002	15.110001	4.8140001
778	70	5	0.0582835	20.316999	20.268	5.809
779	70	5	0.0582835	18.882999	20.518999	4.6739998
780	70	5	0.0582835	18.888	19.245001	6.0170002
781	71	1	0.1266165	5.2850003	10.474	19.796
782	71	2	-0.3889835	6.4809999	10.213001	19.069
783	71	3	0.7551165	7.6599998	10.642	19.662001
784	71	4	-0.5800835	7.579	11.219	20.778999
785	71	2	-0.3889835	8.8690004	10.421	19.007999
786	71	1	0.1266165	10.081	10.851001	19.597
787	71	5	0.0582835	5.223	11.556	19.973
788	71	5	0.0582835	4.3870001	10.031	19.329
789	71	5	0.0582835	5.4439998	9.9569998	20.785
790	71	5	0.0582835	10.658001	9.9989996	20.003002
791	71	5	0.0582835	10.625	11.401	18.802999
792	71	5	0.0582835	9.8730001	11.507	20.490999
793	72	1	0.1266165	14.399	11.968001	15.683001
794	72	2	-0.3889835	13.485001	12.893	16.261999
795	72	3	0.7551165	13.94	14.197001	16.396999
796	72	4	-0.5800835	15.109	14.454001	16.003
797	72	2	-0.3889835	13.101	15.156001	16.955999
798	72	1	0.1266165	13.548001	16.49	17.101999
799	72	5	0.0582835	15.314001	11.966	16.291
800	72	5	0.0582835	13.958	10.97	15.51
801	72	5	0.0582835	14.641	12.412	14.675001
802	72	5	0.0582835	13.077001	17.159	16.357
803	72	5	0.0582835	13.314	16.775	18.146999
804	72	5	0.0582835	14.654001	16.559999	16.889999
805	73	1	0.1266165	15.933	5.0440001	4.7909999
806	73	2	-0.3889835	16.086	3.678	5.1609998
807	73	3	0.7551165	14.977001	3.0739999	5.7360001
808	73	4	-0.5800835	13.939	3.773	5.8839998
809	73	2	-0.3889835	15.054001	1.7400001	6.1230001
810	73	1	0.1266165	13.933	1.107	6.7119999
811	73	5	0.0582835	15.643	5.6100006	5.6870003
812	73	5	0.0582835	16.808001	5.4500003	4.2519999
813	73	5	0.0582835	15.063	5.0410004	4.073
814	73	5	0.0582835	13.444	0.41000003	6.0050006
815	73	5	0.0582835	14.314001	0.60299999	7.6230001
816	73	5	0.0582835	13.137001	1.868	6.9590001
817	74	1	0.1266165	1.513	10.293001	13.575
818	74	2	-0.3889835	2.161	9.7939997	14.74
819	74	3	0.7551165	1.329	9.415	15.785
820	74	4	-0.5800835	0.086999997	9.5430002	15.621
821	74	2	-0.3889835	1.893	8.9169998	16.955
822	74	1	0.1266165	1.061	8.526	18.032
823	74	5	0.0582835	0.89600003	11.153001	13.87
824	74	5	0.0582835	2.2090001	10.491	12.740001
825	74	5	0.0582835	0.82999998	9.4549999	13.256001
826	74	5	0.0582835	1.005	7.4250002	18.120001
827	74	5	0.0582835	1.4850001	9.0109997	18.933001
828	74	5	0.0582835	-0.003	8.8529997	17.844999
829	75	1	0.1266165	16.704	17.606001	6.224
830	75	2	-0.3889835	17.421	16.552	6.8590002
831	75	3	0.7551165	17.65	15.421	6.0879998
832	75	4	-0.5800835	17.211	15.417	4.9070001
833	75	2	-0.3889835	18.344	14.35	6.6430001
834	75	1	0.1266165	18.587	13.188	5.8720007
835	75	5	0.0582835	15.74	17.205999	5.8829999
836	75	5	0.0582835	16.631001	18.518	6.8449998
837	75	5	0.0582835	17.327999	17.860001	5.3200002
838	75	5	0.0582835	19.645	13.129	5.5510001
839	75	5	0.0582835	18.280001	12.334	6.5079999
840	75	5	0.0582835	17.997999	13.224	4.9099998
841	76	1	0.1266165	16.080999	5.4450006	13.380001
842	76	2	-0.3889835	15.617	4.132	13.673
843	76	3	0.7551165	14.916	3.4920001	12.659
844	76	4	-0.5800835	14.749001	4.1170001	11.578001
845	76	2	-0.3889835	14.432	2.2060001	12.875
846	76	1	0.1266165	13.716001	1.5390002	11.853
847	76	5	0.0582835	15.213001	6.0599999	13.103
848	76	5	0.0582835	16.712	5.8730001	14.180001
849	76	5	0.0582835	16.732	5.3130002	12.469
850	76	5	0.0582835	14.328001	0.74699998	11.38
851	76	5	0.0582835	12.798	1.145	12.334
852	76	5	0.0582835	13.472	2.2520001	11.013
853	77	1	0.1266165	7.665	6.1430001	15.499
854	77	2	-0.3889835	7.8210001	6.652	14.179
855	77	3	0.7551165	7.2530003	7.895	13.933
856	77	4	-0.5800835	6.6539998	8.4630003	14.884
857	77	2	-0.3889835	7.3660002	8.4549999	12.664
858	77	1	0.1266165	6.7940001	9.7209997	12.395
859	77	5	0.0582835	6.5900002	6.0949998	15.721001
860	77	5	0.0582835	8.2139997	5.1999998	15.669001
861	77	5	0.0582835	8.132	6.9310002	16.156
862	77	5	0.0582835	7.5679998	10.508001	12.323
863	77	5	0.0582835	6.2140007	9.5979996	11.459
864	77	5	0.0582835	6.1360002	10.045	13.252
865	78	1	0.1266165	5.3940005	20.127001	3.421
866	78	2	-0.3889835	6.2129998	19.511999	4.4109998
867	78	3	0.7551165	5.546	18.799	5.3969998
868	78	4	-0.5800835	4.2880001	18.754999	5.3390002
869	78	2	-0.3889835	6.2820001	18.172001	6.3980002
870	78	1	0.1266165	5.618	17.441	7.4120002
871	78	5	0.0582835	4.6890001	20.797003	3.931
872	78	5	0.0582835	5.9750004	20.600002	2.609
873	78	5	0.0582835	4.8150001	19.271	2.9710002
874	78	5	0.0582835	5.7319999	16.35	7.2649999
875	78	5	0.0582835	6.0489998	17.794001	8.3699999
876	78	5	0.0582835	4.506	17.622	7.3640003
877	79	1	0.1266165	12.866	7.2670002	14.077
878	79	2	-0.3889835	13.997001	7.0300002	14.908
879	79	3	0.7551165	14.342001	5.6989999	15.105
880	79	4	-0.5800835	13.636	4.822	14.54
881	79	2	-0.3889835	15.437001	5.3920002	15.906
882	79	1	0.1266165	15.803001	4.0419998	16.118
883	79	5	0.0582835	12.008	6.7360001	14.510001
884	79	5	0.0582835	12.691001	8.3389997	13.876
885	79	5	0.0582835	13.134001	6.777	13.098001
886	79	5	0.0582835	16.712	3.7750003	15.547
887	79	5	0.0582835	15.933	3.931	17.212999
888	79	5	0.0582835	15.003	3.3510003	15.722
889	80	1	0.1266165	6.645	17.871	11.11
890	80	2	-0.3889835	6.5469999	17.226999	12.376001
891	80	3	0.7551165	5.3969998	16.48	12.593001
892	80	4	-0.5800835	4.546	16.431999	11.666001
893	80	2	-0.3889835	5.2340002	15.823001	13.808001
894	80	1	0.1266165	4.0679998	15.056	14.048
895	80	5	0.0582835	5.7680006	18.521	10.99
896	80	5	0.0582835	7.6160002	18.372	10.950001
897	80	5	0.0582835	6.5710001	17.028	10.364
898	80	5	0.0582835	4.2800002	13.971	14
899	80	5	0.0582835	3.6919999	15.379	15.039
900	80	5	0.0582835	3.3070002	15.235	13.235001
901	81	1	0.1266165	19.402	7.224	7.1129999
902	81	2	-0.3889835	18.537001	6.3400002	7.8179998
903	81	3	0.7551165	17.458	6.928	8.4639997
904	81	4	-0.5800835	17.334	8.1789999	8.3780003
905	81	2	-0.3889835	16.570999	6.125	9.1730003
906	81	1	0.1266165	15.466	6.7070003	9.8389997
907	81	5	0.0582835	19.777	7.9730005	7.8249998
908	81	5	0.0582835	20.187	6.7000003	6.5390005
909	81	5	0.0582835	18.726999	7.7399998	6.3720007
910	81	5	0.0582835	14.519	6.5070004	9.302
911	81	5	0.0582835	15.476	6.289	10.865001
912	81	5	0.0582835	15.559	7.8310003	9.8459997
913	82	1	0.1266165	8.0979996	3.9030001	1.2690001
914	82	2	-0.3889835	9.3959999	4.4780002	1.3660001
915	82	3	0.7551165	9.9829998	4.4499998	2.6240001
916	82	4	-0.5800835	9.3280001	3.927	3.5650001
917	82	2	-0.3889835	11.253	4.994	2.7939999
918	82	1	0.1266165	11.866001	4.974	4.0689998
919	82	5	0.0582835	7.4410005	4.4219999	1.9809999
920	82	5	0.0582835	7.7150006	3.865	0.233
921	82	5	0.0582835	8.2379999	2.8410003	1.619
922	82	5	0.0582835	12.672	4.2179999	4.119
923	82	5	0.0582835	12.231001	6.006	4.2449999
924	82	5	0.0582835	11.125001	4.6550002	4.8569999
925	83	1	0.1266165	13.141001	19.757999	16.452999
926	83	2	-0.3889835	11.754	19.572001	16.195
927	83	3	0.7551165	11.311001	19.958	14.937
928	83	4	-0.5800835	12.159	20.436001	14.138
929	83	2	-0.3889835	9.9659996	19.806	14.614
930	83	1	0.1266165	9.4960003	20.195	13.337001
931	83	5	0.0582835	13.377	20.82	16.302
932	83	5	0.0582835	13.461	19.349001	17.427999
933	83	5	0.0582835	13.656	19.159	15.648001
934	83	5	0.0582835	9.2880001	19.316	12.698001
935	83	5	0.0582835	8.5970001	20.816	13.522
936	83	5	0.0582835	10.293001	20.769001	12.783001
937	84	1	0.1266165	3.9690003	15.509	9.1289997
938	84	2	-0.3889835	4.7129998	14.398001	8.6400003
939	84	3	0.7551165	5.7670002	13.973	9.4370003
940	84	4	-0.5800835	5.9780002	14.596	10.512
941	84	2	-0.3889835	6.54	12.892	9.0229998
942	84	1	0.1266165	7.619	12.445001	9.8219995
943	84	5	0.0582835	4.664	16.346001	9.2779999
944	84	5	0.0582835	3.086	15.748	8.5089998
945	84	5	0.0582835	3.5940001	15.170001	10.137
946	84	5	0.0582835	7.3740001	11.498001	10.339001
947	84	5	0.0582835	8.4840002	12.351	9.1359997
948	84	5	0.0582835	7.823	13.18	10.653
949	85	1	0.1266165	17.157	11.381001	10.305
950	85	2	-0.3889835	16.635	11.691	9.0179996
951	85	3	0.7551165	15.302	12.075	8.9770002
952	85	4	-0.5800835	14.67	12.117	10.066
953	85	2	-0.3889835	14.724001	12.393	7.7519999
954	85	1	0.1266165	13.366001	12.786001	7.6900001
955	85	5	0.0582835	16.542	10.581001	10.739001
956	85	5	0.0582835	18.243	11.175001	10.297001
957	85	5	0.0582835	16.996	12.323	10.904001
958	85	5	0.0582835	13.267001	13.874001	7.5130005
959	85	5	0.0582835	12.91	12.174	6.8870001
960	85	5	0.0582835	12.860001	12.611	8.684
961	86	1	0.1266165	9.158	3.7130001	6.48
962	86	2	-0.3889835	9.1110001	2.9700003	7.6929998
963	86	3	0.7551165	8.7010002	3.6689999	8.8199997
964	86	4	-0.5800835	8.4090004	4.8860002	8.6809998
965	86	2	-0.3889835	8.632	3.007	10.042
966	86	1	0.1266165	8.217	3.7030003	11.202001
967	86	5	0.0582835	9.8269997	4.5710001	6.631
968	86	5	0.0582835	9.3959999	3.0920002	5.5980005
969	86	5	0.0582835	8.1059999	4.0970001	6.3490005
970	86	5	0.0582835	7.1890001	3.4200001	11.498001
971	86	5	0.0582835	8.9700003	3.4690001	11.981
972	86	5	0.0582835	8.1610003	4.8109999	10.997
973	87	6	1	4.5370002	7.408	5.0139999
974	88	6	1	18.426001	3.335	4.7950001
975	89	6	1	18.174	17.959	8.5970001
976	90	6	1	1.244	16.165001	18.586
977	91	6	1	9.4379997	3.7520001	20.670002
978	92	6	1	16.903	19.799999	9.3179998
979	93	6	1	3.5350001	17.521999	15.924
980	94	7	-0.5	17.344999	20.514	16.136999
981	94	8	1	17.905001	19.636	15.141
982	94	7	-0.5	16.971001	18.545	14.935001
983	94	7	-0.5	18.083	20.309999	13.857001
984	94	7	-0.5	19.16	19.080999	15.602001
985	95	7	-0.5	3.869	9.54	4.9169998
986	95	8	1	5.2249999	10	5.066
987	95	7	-0.5	5.4910002	10.953001	4.0029998
988	95	7	-0.5	5.4320002	10.693001	6.336
989	95	7	-0.5	6.1529999	8.8970003	4.9310002
990	96	7	-0.5	4.5799999	20.444	13.400001
991	96	8	1	5.8779998	19.913	13.727001
992	96	7	-0.5	5.6870003	18.594999	14.304
993	96	7	-0.5	6.7189999	19.756001	12.542
994	96	7	-0.5	6.5350003	20.75	14.709
995	97	7	-0.5	10.157	10.063	14.131001
996	97	8	1	10.208	11.280001	14.899
997	97	7	-0.5	11.536001	11.388	15.475
998	97	7	-0.5	9.9940004	12.462	14.065
999	97	7	-0.5	9.2440004	11.238001	15.979
1000	98	7	-0.5	11.958	6.4020004	6.4440002
1001	98	8	1	11.174001	7.5430007	6.8410006
1002	98	7	-0.5	11.919001	8.2620001	7.8590007
1003	98	7	-0.5	10.949	8.4659996	5.73
1004	98	7	-0.5	9.9139996	7.1180005	7.4130006
1005	99	7	-0.5	0.25400001	9.085	7.1859999
1006	99	8	1	0.89900005	8.8439999	8.4510002
1007	99	7	-0.5	2.2360001	8.3470001	8.1809998
1008	99	7	-0.5	1.038	10.07	9.2360001
1009	99	7	-0.5	0.18099999	7.8380003	9.2040005
1010	100	7	-0.5	16.889999	13.226	17.240999
1011	100	8	1	16.358	12.870001	18.532
1012	100	7	-0.5	16.299	14.076	19.337
1013	100	7	-0.5	14.999	12.340001	18.436001
1014	100	7	-0.5	17.228001	11.922001	19.195

Bonds

1	1	1	2
2	2	1	6
3	3	1	7
4	3	1	8
5	2	2	3
6	3	2	9
7	3	2	10
8	4	3	4
9	5	4	5
10	4	4	6
11	1	11	12
12	2	11	16
13	3	11	17
14	3	11	18
15	2	12	13
16	3	12	19
17	3	12	20
18	4	13	14
19	5	14	15
20	4	14	16
21	1	21	22
22	2	21	26
23	3	21	27
24	3	21	28
25	2	22	23
26	3	22	29
27	3	22	30
28	4	23	24
29	5	24	25
30	4	24	26
31	1	31	32
32	2	31	36
33	3	31	37
34	3	31	38
35	2	32	33
36	3	32	39
37	3	32	40
38	4	33	34
39	5	34	35
40	4	34	36
41	1	41	42
42	2	41	46
43	3	41	47
44	3	41	48
45	2	42	43
46	3	42	49
47	3	42	50
48	4	43	44
49	5	44	45
50	4	44	46
51	1	51	52
52	2	51	56
53	3	51	57
54	3	51	58
55	2	52	53
56	3	52	59
57	3	52	60
58	4	53	54
59	5	54	55
60	4	54	56
61	1	61	62
62	2	61	66
63	3	61	67
64	3	61	68
65	2	62	63
66	3	62	69
67	3	62	70
68	4	63	64
69	5	64	65
70	4	64	66
71	1	71	72
72	2	71	76
73	3	71	77
74	3	71	78
75	2	72	73
76	3	72	79
77	3	72	80
78	4	73	74
79	5	74	75
80	4	74	76
81	1	81	82
82	2	81	86
83	3	81	87
84	3	81	88
85	2	82	83
86	3	82	89
87	3	82	90
88	4	83	84
89	5	84	85
90	4	84	86
91	1	91	92
92	2	91	96
93	3	91	97
94	3	91	98
95	2	92	93
96	3	92	99
97	3	92	100
98	4	93	94
99	5	94	95
100	4	94	96
101	1	101	102
102	2	101	106
103	3	101	107
104	3	101	108
105	2	102	103
106	3	102	109
107	3	102	110
108	4	103	104
109	5	104	105
110	4	104	106
111	1	111	112
112	2	111	116
113	3	111	117
114	3	111	118
115	2	112	113
116	3	112	119
117	3	112	120
118	4	113	114
119	5	114	115
120	4	114	116
121	1	121	122
122	2	121	126
123	3	121	127
124	3	121	128
125	2	122	123
126	3	122	129
127	3	122	130
128	4	123	124
129	5	124	125
130	4	124	126
131	1	131	132
132	2	131	136
133	3	131	137
134	3	131	138
135	2	132	133
136	3	132	139
137	3	132	140
138	4	133	134
139	5	134	135
140	4	134	136
141	1	141	142
142	2	141	146
143	3	141	147
144	3	141	148
145	2	142	143
146	3	142	149
147	3	142	150
148	4	143	144
149	5	144	145
150	4	144	146
151	1	151	152
152	2	151	156
153	3	151	157
154	3	151	158
155	2	152	153
156	3	152	159
157	3	152	160
158	4	153	154
159	5	154	155
160	4	154	156
161	1	161	162
162	2	161	166
163	3	161	167
164	3	161	168
165	2	162	163
166	3	162	169
167	3	162	170
168	4	163	164
169	5	164	165
170	4	164	166
171	1	171	172
172	2	171	176
173	3	171	177
174	3	171	178
175	2	172	173
176	3	172	179
177	3	172	180
178	4	173	174
179	5	174	175
180	4	174	176
181	1	181	182
182	2	181	186
183	3	181	187
184	3	181	188
185	2	182	183
186	3	182	189
187	3	182	190
188	4	183	184
189	5	184	185
190	4	184	186
191	1	191	192
192	2	191	196
193	3	191	197
194	3	191	198
195	2	192	193
196	3	192	199
197	3	192	200
198	4	193	194
199	5	194	195
200	4	194	196
201	1	201	202
202	2	201	206
203	3	201	207
204	3	201	208
205	2	202	203
206	3	202	209
207	3	202	210
208	4	203	204
209	5	204	205
210	4	204	206
211	1	211	212
212	2	211	216
213	3	211	217
214	3	211	218
215	2	212	213
216	3	212	219
217	3	212	220
218	4	213	214
219	5	214	215
220	4	214	216
221	1	221	222
222	2	221	226
223	3	221	227
224	3	221	228
225	2	222	223
226	3	222	229
227	3	222	230
228	4	223	224
229	5	224	225
230	4	224	226
231	1	231	232
232	2	231	236
233	3	231	237
234	3	231	238
235	2	232	233
236	3	232	239
237	3	232	240
238	4	233	234
239	5	234	235
240	4	234	236
241	1	241	242
242	2	241	246
243	3	241	247
244	3	241	248
245	2	242	243
246	3	242	249
247	3	242	250
248	4	243	244
249	5	244	245
250	4	244	246
251	1	251	252
252	2	251	256
253	3	251	257
254	3	251	258
255	2	252	253
256	3	252	259
257	3	252	260
258	4	253	254
259	5	254	255
260	4	254	256
261	1	261	262
262	2	261	266
263	3	261	267
264	3	261	268
265	2	262	263
266	3	262	269
267	3	262	270
268	4	263	264
269	5	264	265
270	4	264	266
271	1	271	272
272	2	271	276
273	3	271	277
274	3	271	278
275	2	272	273
276	3	272	279
277	3	272	280
278	4	273	274
279	5	274	275
280	4	274	276
281	1	281	282
282	2	281	286
283	3	281	287
284	3	281	288
285	2	282	283
286	3	282	289
287	3	282	290
288	4	283	284
289	5	284	285
290	4	284	286
291	1	291	292
292	2	291	296
293	3	291	297
294	3	291	298
295	2	292	293
296	3	292	299
297	3	292	300
298	4	293	294
299	5	294	295
300	4	294	296
301	2	301	302
302	3	301	307
303	3	301	308
304	3	301	309
305	4	302	303
306	5	303	304
307	4	303	305
308	2	305	306
309	3	306	310
310	3	306	311
311	3	306	312
312	2	313	314
313	3	313	319
314	3	313	320
315	3	313	321
316	4	314	315
317	5	315	316
318	4	315	317
319	2	317	318
320	3	318	322
321	3	318	323
322	3	318	324
323	2	325	326
324	3	325	331
325	3	325	332
326	3	325	333
327	4	326	327
328	5	327	328
329	4	327	329
330	2	329	330
331	3	330	334
332	3	330	335
333	3	330	336
334	2	337	338
335	3	337	343
336	3	337	344
337	3	337	345
338	4	338	339
339	5	339	340
340	4	339	341
341	2	341	342
342	3	342	346
343	3	342	347
344	3	342	348
345	2	349	350
346	3	349	355
347	3	349	356
348	3	349	357
349	4	350	351
350	5	351	352
351	4	351	353
352	2	353	354
353	3	354	358
354	3	354	359
355	3	354	360
356	2	361	362
357	3	361	367
358	3	361	368
359	3	361	369
360	4	362	363
361	5	363	364
362	4	363	365
363	2	365	366
364	3	366	370
365	3	366	371
366	3	366	372
367	2	373	374
368	3	373	379
369	3	373	380
370	3	373	381
371	4	374	375
372	5	375	376
373	4	375	377
374	2	377	378
375	3	378	382
376	3	378	383
377	3	378	384
378	2	385	386
379	3	385	391
380	3	385	392
381	3	385	393
382	4	386	387
383	5	387	388
384	4	387	389
385	2	389	390
386	3	390	394
387	3	390	395
388	3	390	396
389	2	397	398
390	3	397	403
391	3	397	404
392	3	397	405
393	4	398	399
394	5	399	400
395	4	399	401
396	2	401	402
397	3	402	406
398	3	402	407
399	3	402	408
400	2	409	410
401	3	409	415
402	3	409	416
403	3	409	417
404	4	410	411
405	5	411	412
406	4	411	413
407	2	413	414
408	3	414	418
409	3	414	419
410	3	414	420
411	2	421	422
412	3	421	427
413	3	421	428
414	3	421	429
415	4	422	423
416	5	423	424
417	4	423	425
418	2	425	426
419	3	426	430
420	3	426	431
421	3	426	432
422	2	433	434
423	3	433	439
424	3	433	440
425	3	433	441
426	4	434	435
427	5	435	436
428	4	435	437
429	2	437	438
430	3	438	442
431	3	438	443
432	3	438	444
433	2	445	446
434	3	445	451
435	3	445	452
436	3	445	453
437	4	446	447
438	5	447	448
439	4	447	449
440	2	449	450
441	3	450	454
442	3	450	455
443	3	450	456
444	2	457	458
445	3	457	463
446	3	457	464
447	3	457	465
448	4	458	459
449	5	459	460
450	4	459	461
451	2	461	462
452	3	462	466
453	3	462	467
454	3	462	468
455	2	469	470
456	3	469	475
457	3	469	476
458	3	469	477
459	4	470	471
460	5	471	472
461	4	471	473
462	2	473	474
463	3	474	478
464	3	474	479
465	3	474	480
466	2	481	482
467	3	481	487
468	3	481	488
469	3	481	489
470	4	482	483
471	5	483	484
472	4	483	485
473	2	485	486
474	3	486	490
475	3	486	491
476	3	486	492
477	2	493	494
478	3	493	499
479	3	493	500
480	3	493	501
481	4	494	495
482	5	495	496
483	4	495	497
484	2	497	498
485	3	498	502
486	3	498	503
487	3	498	504
488	2	505	506
489	3	505	511
490	3	505	512
491	3	505	513
492	4	506	507
493	5	507	508
494	4	507	509
495	2	509	510
496	3	510	514
497	3	510	515
498	3	510	516
499	2	517	518
500	3	517	523
501	3	517	524
502	3	517	525
503	4	518	519
504	5	519	520
505	4	519	521
506	2	521	522
507	3	522	526
508	3	522	527
509	3	522	528
510	2	529	530
511	3	529	535
512	3	529	536
513	3	529	537
514	4	530	531
515	5	531	532
516	4	531	533
517	2	533	534
518	3	534	538
519	3	534	539
520	3	534	540
521	2	541	542
522	3	541	547
523	3	541	548
524	3	541	549
525	4	542	543
526	5	543	544
527	4	543	545
528	2	545	546
529	3	546	550
530	3	546	551
531	3	546	552
532	2	553	554
533	3	553	559
534	3	553	560
535	3	553	561
536	4	554	555
537	5	555	556
538	4	555	557
539	2	557	558
540	3	558	562
541	3	558	563
542	3	558	564
543	2	565	566
544	3	565	571
545	3	565	572
546	3	565	573
547	4	566	567
548	5	567	568
549	4	567	569
550	2	569	570
551	3	570	574
552	3	570	575
553	3	570	576
554	2	577	578
555	3	577	583
556	3	577	584
557	3	577	585
558	4	578	579
559	5	579	580
560	4	579	581
561	2	581	582
562	3	582	586
563	3	582	587
564	3	582	588
565	2	589	590
566	3	589	595
567	3	589	596
568	3	589	597
569	4	590	591
570	5	591	592
571	4	591	593
572	2	593	594
573	3	594	598
574	3	594	599
575	3	594	600
576	2	601	602
577	3	601	607
578	3	601	608
579	3	601	609
580	4	602	603
581	5	603	604
582	4	603	605
583	2	605	606
584	3	606	610
585	3	606	611
586	3	606	612
587	2	613	614
588	3	613	619
589	3	613	620
590	3	613	621
591	4	614	615
592	5	615	616
593	4	615	617
594	2	617	618
595	3	618	622
596	3	618	623
597	3	618	624
598	2	625	626
599	3	625	631
600	3	625	632
601	3	625	633
602	4	626	627
603	5	627	628
604	4	627	629
605	2	629	630
606	3	630	634
607	3	630	635
608	3	630	636
609	2	637	638
610	3	637	643
611	3	637	644
612	3	637	645
613	4	638	639
614	5	639	640
615	4	639	641
616	2	641	642
617	3	642	646
618	3	642	647
619	3	642	648
620	2	649	650
621	3	649	655
622	3	649	656
623	3	649	657
624	4	650	651
625	5	651	652
626	4	651	653
627	2	653	654
628	3	654	658
629	3	654	659
630	3	654	660
631	2	661	662
632	3	661	667
633	3	661	668
634	3	661	669
635	4	662	663
636	5	663	664
637	4	663	665
638	2	665	666
639	3	666	670
640	3	666	671
641	3	666	672
642	2	673	674
643	3	673	679
644	3	673	680
645	3	673	681
646	4	674	675
647	5	675	676
648	4	675	677
649	2	677	678
650	3	678	682
651	3	678	683
652	3	678	684
653	2	685	686
654	3	685	691
655	3	685	692
656	3	685	693
657	4	686	687
658	5	687	688
659	4	687	689
660	2	689	690
661	3	690	694
662	3	690	695
663	3	690	696
664	2	697	698
665	3	697	703
666	3	697	704
667	3	697	705
668	4	698	699
669	5	699	700
670	4	699	701
671	2	701	702
672	3	702	706
673	3	702	707
674	3	702	708
675	2	709	710
676	3	709	715
677	3	709	716
678	3	709	717
679	4	710	711
680	5	711	712
681	4	711	713
682	2	713	714
683	3	714	718
684	3	714	719
685	3	714	720
686	2	721	722
687	3	721	727
688	3	721	728
689	3	721	729
690	4	722	723
691	5	723	724
692	4	723	725
693	2	725	726
694	3	726	730
695	3	726	731
696	3	726	732
697	2	733	734
698	3	733	739
699	3	733	740
700	3	733	741
701	4	734	735
702	5	735	736
703	4	735	737
704	2	737	738
705	3	738	742
706	3	738	743
707	3	738	744
708	2	745	746
709	3	745	751
710	3	745	752
711	3	745	753
712	4	746	747
713	5	747	748
714	4	747	749
715	2	749	750
716	3	750	754
717	3	750	755
718	3	750	756
719	2	757	758
720	3	757	763
721	3	757	764
722	3	757	765
723	4	758	759
724	5	759	760
725	4	759	761
726	2	761	762
727	3	762	766
728	3	762	767
729	3	762	768
730	2	769	770
731	3	769	775
732	3	769	776
733	3	769	777
734	4	770	771
735	5	771	772
736	4	771	773
737	2	773	774
738	3	774	778
739	3	774	779
740	3	774	780
741	2	781	782
742	3	781	787
743	3	781	788
744	3	781	789
745	4	782	783
746	5	783	784
747	4	783	785
748	2	785	786
749	3	786	790
750	3	786	791
751	3	786	792
752	2	793	794
753	3	793	799
754	3	793	800
755	3	793	801
756	4	794	795
757	5	795	796
758	4	795	797
759	2	797	798
760	3	798	802
761	3	798	803
762	3	798	804
763	2	805	806
764	3	805	811
765	3	805	812
766	3	805	813
767	4	806	807
768	5	807	808
769	4	807	809
770	2	809	810
771	3	810	814
772	3	810	815
773	3	810	816
774	2	817	818
775	3	817	823
776	3	817	824
777	3	817	825
778	4	818	819
779	5	819	820
780	4	819	821
781	2	821	822
782	3	822	826
783	3	822	827
784	3	822	828
785	2	829	830
786	3	829	835
787	3	829	836
788	3	829	837
789	4	830	831
790	5	831	832
791	4	831	833
792	2	833	834
793	3	834	838
794	3	834	839
795	3	834	840
796	2	841	842
797	3	841	847
798	3	841	848
799	3	841	849
800	4	842	843
801	5	843	844
802	4	843	845
803	2	845	846
804	3	846	850
805	3	846	851
806	3	846	852
807	2	853	854
808	3	853	859
809	3	853	860
810	3	853	861
811	4	854	855
812	5	855	856
813	4	855	857
814	2	857	858
815	3	858	862
816	3	858	863
817	3	858	864
818	2	865	866
819	3	865	871
820	3	865	872
821	3	865	873
822	4	866	867
823	5	867	868
824	4	867	869
825	2	869	870
826	3	870	874
827	3	870	875
828	3	870	876
829	2	877	878
830	3	877	883
831	3	877	884
832	3	877	885
833	4	878	879
834	5	879	880
835	4	879	881
836	2	881	882
837	3	882	886
838	3	882	887
839	3	882	888
840	2	889	890
841	3	889	895
842	3	889	896
843	3	889	897
844	4	890	891
845	5	891	892
846	4	891	893
847	2	893	894
848	3	894	898
849	3	894	899
850	3	894	900
851	2	901	902
852	3	901	907
853	3	901	908
854	3	901	909
855	4	902	903
856	5	903	904
857	4	903	905
858	2	905	906
859	3	906	910
860	3	906	911
861	3	906	912
862	2	913	914
863	3	913	919
864	3	913	920
865	3	913	921
866	4	914	915
867	5	915	916
868	4	915	917
869	2	917	918
870	3	918	922
871	3	918	923
872	3	918	924
873	2	925	926
874	3	925	931
875	3	925	932
876	3	925	933
877	4	926	927
878	5	927	928
879	4	927	929
880	2	929	930
881	3	930	934
882	3	930	935
883	3	930	936
884	2	937	938
885	3	937	943
886	3	937	944
887	3	937	945
888	4	938	939
889	5	939	940
890	4	939	941
891	2	941	942
892	3	942	946
893	3	942	947
894	3	942	948
895	2	949	950
896	3	949	955
897	3	949	956
898	3	949	957
899	4	950	951
900	5	951	952
901	4	951	953
902	2	953	954
903	3	954	958
904	3	954	959
905	3	954	960
906	2	961	962
907	3	961	967
908	3	961	968
909	3	961	969
910	4	962	963
911	5	963	964
912	4	963	965
913	2	965	966
914	3	966	970
915	3	966	971
916	3	966	972
917	6	980	981
918	6	981	982
919	6	981	983
920	6	981	984
921	6	985	986
922	6	986	987
923	6	986	988
924	6	986	989
925	6	990	991
926	6	991	992
927	6	991	993
928	6	991	994
929	6	995	996
930	6	996	997
931	6	996	998
932	6	996	999
933	6	1000	1001
934	6	1001	1002
935	6	1001	1003
936	6	1001	1004
937	6	1005	1006
938	6	1006	1007
939	6	1006	1008
940	6	1006	1009
941	6	1010	1011
942	6	1011	1012
943	6	1011	1013
944	6	1011	1014

Angles

1	1	1	2	3
2	2	1	2	9
3	2	1	2	10
4	1	1	6	4
5	1	2	1	6
6	2	2	1	7
7	2	2	1	8
8	1	2	3	4
9	2	3	2	9
10	2	3	2	10
11	3	3	4	5
12	1	3	4	6
13	3	5	4	6
14	2	6	1	7
15	2	6	1	8
16	4	7	1	8
17	4	9	2	10
18	1	11	12	13
19	2	11	12	19
20	2	11	12	20
21	1	11	16	14
22	1	12	11	16
23	2	12	11	17
24	2	12	11	18
25	1	12	13	14
26	2	13	12	19
27	2	13	12	20
28	3	13	14	15
29	1	13	14	16
30	3	15	14	16
31	2	16	11	17
32	2	16	11	18
33	4	17	11	18
34	4	19	12	20
35	1	21	22	23
36	2	21	22	29
37	2	21	22	30
38	1	21	26	24
39	1	22	21	26
40	2	22	21	27
41	2	22	21	28
42	1	22	23	24
43	2	23	22	29
44	2	23	22	30
45	3	23	24	25
46	1	23	24	26
47	3	25	24	26
48	2	26	21	27
49	2	26	21	28
50	4	27	21	28
51	4	29	22	30
52	1	31	32	33
53	2	31	32	39
54	2	31	32	40
55	1	31	36	34
56	1	32	31	36
57	2	32	31	37
58	2	32	31	38
59	1	32	33	34
60	2	33	32	39
61	2	33	32	40
62	3	33	34	35
63	1	33	34	36
64	3	35	34	36
65	2	36	31	37
66	2	36	31	38
67	4	37	31	38
68	4	39	32	40
69	1	41	42	43
70	2	41	42	49
71	2	41	42	50
72	1	41	46	44
73	1	42	41	46
74	2	42	41	47
75	2	42	41	48
76	1	42	43	44
77	2	43	42	49
78	2	43	42	50
79	3	43	44	45
80	1	43	44	46
81	3	45	44	46
82	2	46	41	47
83	2	46	41	48
84	4	47	41	48
85	4	49	42	50
86	1	51	52	53
87	2	51	52	59
88	2	51	52	60
89	1	51	56	54
90	1	52	51	56
91	2	52	51	57
92	2	52	51	58
93	1	52	53	54
94	2	53	52	59
95	2	53	52	60
96	3	53	54	55
97	1	53	54	56
98	3	55	54	56
99	2	56	51	57
100	2	56	51	58
101	4	57	51	58
102	4	59	52	60
103	1	61	62	63
104	2	61	62	69
105	2	61	62	70
106	1	61	66	64
107	1	62	61	66
108	2	62	61	67
109	2	62	61	68
110	1	62	63	64
111	2	63	62	69
112	2	63	62	70
113	3	63	64	65
114	1	63	64	66
115	3	65	64	66
116	2	66	61	67
117	2	66	61	68
118	4	67	61	68
119	4	69	62	70
120	1	71	72	73
121	2	71	72	79
122	2	71	72	80
123	1	71	76	74
124	1	72	71	76
125	2	72	71	77
126	2	72	71	78
127	1	72	73	74
128	2	73	72	79
129	2	73	72	80
130	3	73	74	75
131	1	73	74	76
132	3	75	74	76
133	2	76	71	77
134	2	76	71	78
135	4	77	71	78
136	4	79	72	80
137	1	81	82	83
138	2	81	82	89
139	2	81	82	90
140	1	81	86	84
141	1	82	81	86
142	2	82	81	87
143	2	82	81	88
144	1	82	83	84
145	2	83	82	89
146	2	83	82	90
147	3	83	84	85
148	1	83	84	86
149	3	85	84	86
150	2	86	81	87
151	2	86	81	88
152	4	87	81	88
153	4	89	82	90
154	1	91	92	93
155	2	91	92	99
156	2	91	92	100
157	1	91	96	94
158	1	92	91	96
159	2	92	91	97
160	2	92	91	98
161	1	92	93	94
162	2	93	92	99
163	2	93	92	100
164	3	93	94	95
165	1	93	94	96
166	3	95	94	96
167	2	96	91	97
168	2	96	91	98
169	4	97	91	98
170	4	99	92	100
171	1	101	102	103
172	2	101	102	109
173	2	101	102	110
174	1	101	106	104
175	1	102	101	106
176	2	102	101	107
177	2	102	101	108
178	1	102	103	104
179	2	103	102	109
180	2	103	102	110
181	3	103	104	105
182	1	103	104	106
183	3	105	104	106
184	2	106	101	107
185	2	106	101	108
186	4	107	101	108
187	4	109	102	110
188	1	111	112	113
189	2	111	112	119
190	2	111	112	120
191	1	111	116	114
192	1	112	111	116
193	2	112	111	117
194	2	112	111	118
195	1	112	113	114
196	2	113	112	119
197	2	113	112	120
198	3	113	114	115
199	1	113	114	116
200	3	115	114	116
201	2	116	111	117
202	2	116	111	118
203	4	117	111	118
204	4	119	112	120
205	1	121	122	123
206	2	121	122	129
207	2	121	122	130
208	1	121	126	124
209	1	122	121	126
210	2	122	121	127
211	2	122	121	128
212	1	122	123	124
213	2	123	122	129
214	2	123	122	130
215	3	123	124	125
216	1	123	124	126
217	3	125	124	126
218	2	126	121	127
219	2	126	121	128
220	4	127	121	128
221	4	129	122	130
222	1	131	132	133
223	2	131	132	139
224	2	131	132	140
225	1	131	136	134
226	1	132	131	136
227	2	132	131	137
228	2	132	131	138
229	1	132	133	134
230	2	133	132	139
231	2	133	132	140
232	3	133	134	135
233	1	133	134	136
234	3	135	134	136
235	2	136	131	137
236	2	136	131	138
237	4	137	131	138
238	4	139	132	140
239	1	141	142	143
240	2	141	142	149
241	2	141	142	150
242	1	141	146	144
243	1	142	141	146
244	2	142	141	147
245	2	142	141	148
246	1	142	143	144
247	2	143	142	149
248	2	143	142	150
249	3	143	144	145
250	1	143	144	146
251	3	145	144	146
252	2	146	141	147
253	2	146	141	148
254	4	147	141	148
255	4	149	142	150
256	1	151	152	153
257	2	151	152	159
258	2	151	152	160
259	1	151	156	154
260	1	152	151	156
261	2	152	151	157
262	2	152	151	158
263	1	152	153	154
264	2	153	152	159
265	2	153	152	160
266	3	153	154	155
267	1	153	154	156
268	3	155	154	156
269	2	156	151	157
270	2	156	151	158
271	4	157	151	158
272	4	159	152	160
273	1	161	162	163
274	2	161	162	169
275	2	161	162	170
276	1	161	166	164
277	1	162	161	166
278	2	162	161	167
279	2	162	161	168
280	1	162	163	164
281	2	163	162	169
282	2	163	162	170
283	3	163	164	165
284	1	163	164	166
285	3	165	164	166
286	2	166	161	167
287	2	166	161	168
288	4	167	161	168
289	4	169	162	170
290	1	171	172	173
291	2	171	172	179
292	2	171	172	180
293	1	171	176	174
294	1	172	171	176
295	2	172	171	177
296	2	172	171	178
297	1	172	173	174
298	2	173	172	179
299	2	173	172	180
300	3	173	174	175
301	1	173	174	176
302	3	175	174	176
303	2	176	171	177
304	2	176	171	178
305	4	177	171	178
306	4	179	172	180
307	1	181	182	183
308	2	181	182	189
309	2	181	182	190
310	1	181	186	184
311	1	182	181	186
312	2	182	181	187
313	2	182	181	188
314	1	182	183	184
315	2	183	182	189
316	2	183	182	190
317	3	183	184	185
318	1	183	184	186
319	3	185	184	186
320	2	186	181	187
321	2	186	181	188
322	4	187	181	188
323	4	189	182	190
324	1	191	192	193
325	2	191	192	199
326	2	191	192	200
327	1	191	196	194
328	1	192	191	196
329	2	192	191	197
330	2	192	191	198
331	1	192	193	194
332	2	193	192	199
333	2	193	192	200
334	3	193	194	195
335	1	193	194	196
336	3	195	194	196
337	2	196	191	197
338	2	196	191	198
339	4	197	191	198
340	4	199	192	200
341	1	201	202	203
342	2	201	202	209
343	2	201	202	210
344	1	201	206	204
345	1	202	201	206
346	2	202	201	207
347	2	202	201	208
348	1	202	203	204
349	2	203	202	209
350	2	203	202	210
351	3	203	204	205
352	1	203	204	206
353	3	205	204	206
354	2	206	201	207
355	2	206	201	208
356	4	207	201	208
357	4	209	202	210
358	1	211	212	213
359	2	211	212	219
360	2	211	212	220
361	1	211	216	214
362	1	212	211	216
363	2	212	211	217
364	2	212	211	218
365	1	212	213	214
366	2	213	212	219
367	2	213	212	220
368	3	213	214	215
369	1	213	214	216
370	3	215	214	216
371	2	216	211	217
372	2	216	211	218
373	4	217	211	218
374	4	219	212	220
375	1	221	222	223
376	2	221	222	229
377	2	221	222	230
378	1	221	226	224
379	1	222	221	226
380	2	222	221	227
381	2	222	221	228
382	1	222	223	224
383	2	223	222	229
384	2	223	222	230
385	3	223	224	225
386	1	223	224	226
387	3	225	224	226
388	2	226	221	227
389	2	226	221	228
390	4	227	221	228
391	4	229	222	230
392	1	231	232	233
393	2	231	232	239
394	2	231	232	240
395	1	231	236	234
396	1	232	231	236
397	2	232	231	237
398	2	232	231	238
399	1	232	233	234
400	2	233	232	239
401	2	233	232	240
402	3	233	234	235
403	1	233	234	236
404	3	235	234	236
405	2	236	231	237
406	2	236	231	238
407	4	237	231	238
408	4	239	232	240
409	1	241	242	243
410	2	241	242	249
411	2	241	242	250
412	1	241	246	244
413	1	242	241	246
414	2	242	241	247
415	2	242	241	248
416	1	242	243	244
417	2	243	242	249
418	2	243	242	250
419	3	243	244	245
420	1	243	244	246
421	3	245	244	246
422	2	246	241	247
423	2	246	241	248
424	4	247	241	248
425	4	249	242	250
426	1	251	252	253
427	2	251	252	259
428	2	251	252	260
429	1	251	256	254
430	1	252	251	256
431	2	252	251	257
432	2	252	251	258
433	1	252	253	254
434	2	253	252	259
435	2	253	252	260
436	3	253	254	255
437	1	253	254	256
438	3	255	254	256
439	2	256	251	257
440	2	256	251	258
441	4	257	251	258
442	4	259	252	260
443	1	261	262	263
444	2	261	262	269
445	2	261	262	270
446	1	261	266	264
447	1	262	261	266
448	2	262	261	267
449	2	262	261	268
450	1	262	263	264
451	2	263	262	269
452	2	263	262	270
453	3	263	264	265
454	1	263	264	266
455	3	265	264	266
456	2	266	261	267
457	2	266	261	268
458	4	267	261	268
459	4	269	262	270
460	1	271	272	273
461	2	271	272	279
462	2	271	272	280
463	1	271	276	274
464	1	272	271	276
465	2	272	271	277
466	2	272	271	278
467	1	272	273	274
468	2	273	272	279
469	2	273	272	280
470	3	273	274	275
471	1	273	274	276
472	3	275	274	276
473	2	276	271	277
474	2	276	271	278
475	4	277	271	278
476	4	279	272	280
477	1	281	282	283
478	2	281	282	289
479	2	281	282	290
480	1	281	286	284
481	1	282	281	286
482	2	282	281	287
483	2	282	281	288
484	1	282	283	284
485	2	283	282	289
486	2	283	282	290
487	3	283	284	285
488	1	283	284	286
489	3	285	284	286
490	2	286	281	287
491	2	286	281	288
492	4	287	281	288
493	4	289	282	290
494	1	291	292	293
495	2	291	292	299
496	2	291	292	300
497	1	291	296	294
498	1	292	291	296
499	2	292	291	297
500	2	292	291	298
501	1	292	293	294
502	2	293	292	299
503	2	293	292	300
504	3	293	294	295
505	1	293	294	296
506	3	295	294	296
507	2	296	291	297
508	2	296	291	298
509	4	297	291	298
510	4	299	292	300
511	5	301	302	303
512	2	302	301	307
513	2	302	301	308
514	2	302	301	309
515	3	302	303	304
516	6	302	303	305
517	5	303	305	306
518	3	304	303	305
519	2	305	306	310
520	2	305	306	311
521	2	305	306	312
522	4	307	301	308
523	4	307	301	309
524	4	308	301	309
525	4	310	306	311
526	4	310	306	312
527	4	311	306	312
528	5	313	314	315
529	2	314	313	319
530	2	314	313	320
531	2	314	313	321
532	3	314	315	316
533	6	314	315	317
534	5	315	317	318
535	3	316	315	317
536	2	317	318	322
537	2	317	318	323
538	2	317	318	324
539	4	319	313	320
540	4	319	313	321
541	4	320	313	321
542	4	322	318	323
543	4	322	318	324
544	4	323	318	324
545	5	325	326	327
546	2	326	325	331
547	2	326	325	332
548	2	326	325	333
549	3	326	327	328
550	6	326	327	329
551	5	327	329	330
552	3	328	327	329
553	2	329	330	334
554	2	329	330	335
555	2	329	330	336
556	4	331	325	332
557	4	331	325	333
558	4	332	325	333
559	4	334	330	335
560	4	334	330	336
561	4	335	330	336
562	5	337	338	339
563	2	338	337	343
564	2	338	337	344
565	2	338	337	345
566	3	338	339	340
567	6	338	339	341
568	5	339	341	342
569	3	340	339	341
570	2	341	342	346
571	2	341	342	347
572	2	341	342	348
573	4	343	337	344
574	4	343	337	345
575	4	344	337	345
576	4	346	342	347
577	4	346	342	348
578	4	347	342	348
579	5	349	350	351
580	2	350	349	355
581	2	350	349	356
582	2	350	349	357
583	3	350	351	352
584	6	350	351	353
585	5	351	353	354
586	3	352	351	353
587	2	353	354	358
588	2	353	354	359
589	2	353	354	360
590	4	355	349	356
591	4	355	349	357
592	4	356	349	357
593	4	358	354	359
594	4	358	354	360
595	4	359	354	360
596	5	361	362	363
597	2	362	361	367
598	2	362	361	368
599	2	362	361	369
600	3	362	363	364
601	6	362	363	365
602	5	363	365	366
603	3	364	363	365
604	2	365	366	370
605	2	365	366	371
606	2	365	366	372
607	4	367	361	368
608	4	367	361	369
609	4	368	361	369
610	4	370	366	371
611	4	370	366	372
612	4	371	366	372
613	5	373	374	375
614	2	374	373	379
615	2	374	373	380
616	2	374	373	381
617	3	374	375	376
618	6	374	375	377
619	5	375	377	378
620	3	376	375	377
621	2	377	378	382
622	2	377	378	383
623	2	377	378	384
624	4	379	373	380
625	4	379	373	381
626	4	380	373	381
627	4	382	378	383
628	4	382	378	384
629	4	383	378	384
630	5	385	386	387
631	2	386	385	391
632	2	386	385	392
633	2	386	385	393
634	3	386	387	388
635	6	386	387	389
636	5	387	389	390
637	3	388	387	389
638	2	389	390	394
639	2	389	390	395
640	2	389	390	396
641	4	391	385	392
642	4	391	385	393
643	4	392	385	393
644	4	394	390	395
645	4	394	390	396
646	4	395	390	396
647	5	397	398	399
648	2	398	397	403
649	2	398	397	404
650	2	398	397	405
651	3	398	399	400
652	6	398	399	401
653	5	399	401	402
654	3	400	399	401
655	2	401	402	406
656	2	401	402	407
657	2	401	402	408
658	4	403	397	404
659	4	403	397	405
660	4	404	397	405
661	4	406	402	407
662	4	406	402	408
663	4	407	402	408
664	5	409	410	411
665	2	410	409	415
666	2	410	409	416
667	2	410	409	417
668	3	410	411	412
669	6	410	411	413
670	5	411	413	414
671	3	412	411	413
672	2	413	414	418
673	2	413	414	419
674	2	413	414	420
675	4	415	409	416
676	4	415	409	417
677	4	416	409	417
678	4	418	414	419
679	4	418	414	420
680	4	419	414	420
681	5	421	422	423
682	2	422	421	427
683	2	422	421	428
684	2	422	421	429
685	3	422	423	424
686	6	422	423	425
687	5	423	425	426
688	3	424	423	425
689	2	425	426	430
690	2	425	426	431
691	2	425	426	432
692	4	427	421	428
693	4	427	421	429
694	4	428	421	429
695	4	430	426	431
696	4	430	426	432
697	4	431	426	432
698	5	433	434	435
699	2	434	433	439
700	2	434	433	440
701	2	434	433	441
702	3	434	435	436
703	6	434	435	437
704	5	435	437	438
705	3	436	435	437
706	2	437	438	442
707	2	437	438	443
708	2	437	438	444
709	4	439	433	440
710	4	439	433	441
711	4	440	433	441
712	4	442	438	443
713	4	442	438	444
714	4	443	438	444
715	5	445	446	447
716	2	446	445	451
717	2	446	445	452
718	2	446	445	453
719	3	446	447	448
720	6	446	447	449
721	5	447	449	450
722	3	448	447	449
723	2	449	450	454
724	2	449	450	455
725	2	449	450	456
726	4	451	445	452
727	4	451	445	453
728	4	452	445	453
729	4	454	450	455
730	4	454	450	456
731	4	455	450	456
732	5	457	458	459
733	2	458	457	463
734	2	458	457	464
735	2	458	457	465
736	3	458	459	460
737	6	458	459	461
738	5	459	461	462
739	3	460	459	461
740	2	461	462	466
741	2	461	462	467
742	2	461	462	468
743	4	463	457	464
744	4	463	457	465
745	4	464	457	465
746	4	466	462	467
747	4	466	462	468
748	4	467	462	468
749	5	469	470	471
750	2	470	469	475
751	2	470	469	476
752	2	470	469	477
753	3	470	471	472
754	6	470	471	473
755	5	471	473	474
756	3	472	471	473
757	2	473	474	478
758	2	473	474	479
759	2	473	474	480
760	4	475	469	476
761	4	475	469	477
762	4	476	469	477
763	4	478	474	479
764	4	478	474	480
765	4	479	474	480
766	5	481	482	483
767	2	482	481	487
768	2	482	481	488
769	2	482	481	489
770	3	482	483	484
771	6	482	483	485
772	5	483	485	486
773	3	484	483	485
774	2	485	486	490
775	2	485	486	491
776	2	485	486	492
777	4	487	481	488
778	4	487	481	489
779	4	488	481	489
780	4	490	486	491
781	4	490	486	492
782	4	491	486	492
783	5	493	494	495
784	2	494	493	499
785	2	494	493	500
786	2	494	493	501
787	3	494	495	496
788	6	494	495	497
789	5	495	497	498
790	3	496	495	497
791	2	497	498	502
792	2	497	498	503
793	2	497	498	504
794	4	499	493	500
795	4	499	493	501
796	4	500	493	501
797	4	502	498	503
798	4	502	498	504
799	4	503	498	504
800	5	505	506	507
801	2	506	505	511
802	2	506	505	512
803	2	506	505	513
804	3	506	507	508
805	6	506	507	509
806	5	507	509	510
807	3	508	507	509
808	2	509	510	514
809	2	509	510	515
810	2	509	510	516
811	4	511	505	512
812	4	511	505	513
813	4	512	505	513
814	4	514	510	515
815	4	514	510	516
816	4	515	510	516
817	5	517	518	519
818	2	518	517	523
819	2	518	517	524
820	2	518	517	525
821	3	518	519	520
822	6	518	519	521
823	5	519	521	522
824	3	520	519	521
825	2	521	522	526
826	2	521	522	527
827	2	521	522	528
828	4	523	517	524
829	4	523	517	525
830	4	524	517	525
831	4	526	522	527
832	4	526	522	528
833	4	527	522	528
834	5	529	530	531
835	2	530	529	535
836	2	530	529	536
837	2	530	529	537
838	3	530	531	532
839	6	530	531	533
840	5	531	533	534
841	3	532	531	533
842	2	533	534	538
843	2	533	534	539
844	2	533	534	540
845	4	535	529	536
846	4	535	529	537
847	4	536	529	537
848	4	538	534	539
849	4	538	534	540
850	4	539	534	540
851	5	541	542	543
852	2	542	541	547
853	2	542	541	548
854	2	542	541	549
855	3	542	543	544
856	6	542	543	545
857	5	543	545	546
858	3	544	543	545
859	2	545	546	550
860	2	545	546	551
861	2	545	546	552
862	4	547	541	548
863	4	547	541	549
864	4	548	541	549
865	4	550	546	551
866	4	550	546	552
867	4	551	546	552
868	5	553	554	555
869	2	554	553	559
870	2	554	553	560
871	2	554	553	561
872	3	554	555	556
873	6	554	555	557
874	5	555	557	558
875	3	556	555	557
876	2	557	558	562
877	2	557	558	563
878	2	557	558	564
879	4	559	553	560
880	4	559	553	561
881	4	560	553	561
882	4	562	558	563
883	4	562	558	564
884	4	563	558	564
885	5	565	566	567
886	2	566	565	571
887	2	566	565	572
888	2	566	565	573
889	3	566	567	568
890	6	566	567	569
891	5	567	569	570
892	3	568	567	569
893	2	569	570	574
894	2	569	570	575
895	2	569	570	576
896	4	571	565	572
897	4	571	565	573
898	4	572	565	573
899	4	574	570	575
900	4	574	570	576
901	4	575	570	576
902	5	577	578	579
903	2	578	577	583
904	2	578	577	584
905	2	578	577	585
906	3	578	579	580
907	6	578	579	581
908	5	579	581	582
909	3	580	579	581
910	2	581	582	586
911	2	581	582	587
912	2	581	582	588
913	4	583	577	584
914	4	583	577	585
915	4	584	577	585
916	4	586	582	587
917	4	586	582	588
918	4	587	582	588
919	5	589	590	591
920	2	590	589	595
921	2	590	589	596
922	2	590	589	597
923	3	590	591	592
924	6	590	591	593
925	5	591	593	594
926	3	592	591	593
927	2	593	594	598
928	2	593	594	599
929	2	593	594	600
930	4	595	589	596
931	4	595	589	597
932	4	596	589	597
933	4	598	594	599
934	4	598	594	600
935	4	599	594	600
936	5	601	602	603
937	2	602	601	607
938	2	602	601	608
939	2	602	601	609
940	3	602	603	604
941	6	602	603	605
942	5	603	605	606
943	3	604	603	605
944	2	605	606	610
945	2	605	606	611
946	2	605	606	612
947	4	607	601	608
948	4	607	601	609
949	4	608	601	609
950	4	610	606	611
951	4	610	606	612
952	4	611	606	612
953	5	613	614	615
954	2	614	613	619
955	2	614	613	620
956	2	614	613	621
957	3	614	615	616
958	6	614	615	617
959	5	615	617	618
960	3	616	615	617
961	2	617	618	622
962	2	617	618	623
963	2	617	618	624
964	4	619	613	620
965	4	619	613	621
966	4	620	613	621
967	4	622	618	623
968	4	622	618	624
969	4	623	618	624
970	5	625	626	627
971	2	626	625	631
972	2	626	625	632
973	2	626	625	633
974	3	626	627	628
975	6	626	627	629
976	5	627	629	630
977	3	628	627	629
978	2	629	630	634
979	2	629	630	635
980	2	629	630	636
981	4	631	625	632
982	4	631	625	633
983	4	632	625	633
984	4	634	630	635
985	4	634	630	636
986	4	635	630	636
987	5	637	638	639
988	2	638	637	643
989	2	638	637	644
990	2	638	637	645
991	3	638	639	640
992	6	638	639	641
993	5	639	641	642
994	3	640	639	641
995	2	641	642	646
996	2	641	642	647
997	2	641	642	648
998	4	643	637	644
999	4	643	637	645
1000	4	644	637	645
1001	4	646	642	647
1002	4	646	642	648
1003	4	647	642	648
1004	5	649	650	651
1005	2	650	649	655
1006	2	650	649	656
1007	2	650	649	657
1008	3	650	651	652
1009	6	650	651	653
1010	5	651	653	654
1011	3	652	651	653
1012	2	653	654	658
1013	2	653	654	659
1014	2	653	654	660
1015	4	655	649	656
1016	4	655	649	657
1017	4	656	649	657
1018	4	658	654	659
1019	4	658	654	660
1020	4	659	654	660
1021	5	661	662	663
1022	2	662	661	667
1023	2	662	661	668
1024	2	662	661	669
1025	3	662	663	664
1026	6	662	663	665
1027	5	663	665	666
1028	3	664	663	665
1029	2	665	666	670
1030	2	665	666	671
1031	2	665	666	672
1032	4	667	661	668
1033	4	667	661	669
1034	4	668	661	669
1035	4	670	666	671
1036	4	670	666	672
1037	4	671	666	672
1038	5	673	674	675
1039	2	674	673	679
1040	2	674	673	680
1041	2	674	673	681
1042	3	674	675	676
1043	6	674	675	677
1044	5	675	677	678
1045	3	676	675	677
1046	2	677	678	682
1047	2	677	678	683
1048	2	677	678	684
1049	4	679	673	680
1050	4	679	673	681
1051	4	680	673	681
1052	4	682	678	683
1053	4	682	678	684
1054	4	683	678	684
1055	5	685	686	687
1056	2	686	685	691
1057	2	686	685	692
1058	2	686	685	693
1059	3	686	687	688
1060	6	686	687	689
1061	5	687	689	690
1062	3	688	687	689
1063	2	689	690	694
1064	2	689	690	695
1065	2	689	690	696
1066	4	691	685	692
1067	4	691	685	693
1068	4	692	685	693
1069	4	694	690	695
1070	4	694	690	696
1071	4	695	690	696
1072	5	697	698	699
1073	2	698	697	703
1074	2	698	697	704
1075	2	698	697	705
1076	3	698	699	700
1077	6	698	699	701
1078	5	699	701	702
1079	3	700	699	701
1080	2	701	702	706
1081	2	701	702	707
1082	2	701	702	708
1083	4	703	697	704
1084	4	703	697	705
1085	4	704	697	705
1086	4	706	702	707
1087	4	706	702	708
1088	4	707	702	708
1089	5	709	710	711
1090	2	710	709	715
1091	2	710	709	716
1092	2	710	709	717
1093	3	710	711	712
1094	6	710	711	713
1095	5	711	713	714
1096	3	712	711	713
1097	2	713	714	718
1098	2	713	714	719
1099	2	713	714	720
1100	4	715	709	716
1101	4	715	709	717
1102	4	716	709	717
1103	4	718	714	719
1104	4	718	714	720
1105	4	719	714	720
1106	5	721	722	723
1107	2	722	721	727
1108	2	722	721	728
1109	2	722	721	729
1110	3	722	723	724
1111	6	722	723	725
1112	5	723	725	726
1113	3	724	723	725
1114	2	725	726	730
1115	2	725	726	731
1116	2	725	726	732
1117	4	727	721	728
1118	4	727	721	729
1119	4	728	721	729
1120	4	730	726	731
1121	4	730	726	732
1122	4	731	726	732
1123	5	733	734	735
1124	2	734	733	739
1125	2	734	733	740
1126	2	734	733	741
1127	3	734	735	736
1128	6	734	735	737
1129	5	735	737	738
1130	3	736	735	737
1131	2	737	738	742
1132	2	737	738	743
1133	2	737	738	744
1134	4	739	733	740
1135	4	739	733	741
1136	4	740	733	741
1137	4	742	738	743
1138	4	742	738	744
1139	4	743	738	744
1140	5	745	746	747
1141	2	746	745	751
1142	2	746	745	752
1143	2	746	745	753
1144	3	746	747	748
1145	6	746	747	749
1146	5	747	749	750
1147	3	748	747	749
1148	2	749	750	754
1149	2	749	750	755
1150	2	749	750	756
1151	4	751	745	752
1152	4	751	745	753
1153	4	752	745	753
1154	4	754	750	755
1155	4	754	750	756
1156	4	755	750	756
1157	5	757	758	759
1158	2	758	757	763
1159	2	758	757	764
1160	2	758	757	765
1161	3	758	759	760
1162	6	758	759	761
1163	5	759	761	762
1164	3	760	759	761
1165	2	761	762	766
1166	2	761	762	767
1167	2	761	762	768
1168	4	763	757	764
1169	4	763	757	765
1170	4	764	757	765
1171	4	766	762	767
1172	4	766	762	768
1173	4	767	762	768
1174	5	769	770	771
1175	2	770	769	775
1176	2	770	769	776
1177	2	770	769	777
1178	3	770	771	772
1179	6	770	771	773
1180	5	771	773	774
1181	3	772	771	773
1182	2	773	774	778
1183	2	773	774	779
1184	2	773	774	780
1185	4	775	769	776
1186	4	775	769	777
1187	4	776	769	777
1188	4	778	774	779
1189	4	778	774	780
1190	4	779	774	780
1191	5	781	782	783
1192	2	782	781	787
1193	2	782	781	788
1194	2	782	781	789
1195	3	782	783	784
1196	6	782	783	785
1197	5	783	785	786
1198	3	784	783	785
1199	2	785	786	790
1200	2	785	786	791
1201	2	785	786	792
1202	4	787	781	788
1203	4	787	781	789
1204	4	788	781	789
1205	4	790	786	791
1206	4	790	786	792
1207	4	791	786	792
1208	5	793	794	795
1209	2	794	793	799
1210	2	794	793	800
1211	2	794	793	801
1212	3	794	795	796
1213	6	794	795	797
1214	5	795	797	798
1215	3	796	795	797
1216	2	797	798	802
1217	2	797	798	803
1218	2	797	798	804
1219	4	799	793	800
1220	4	799	793	801
1221	4	800	793	801
1222	4	802	798	803
1223	4	802	798	804
1224	4	803	798	804
1225	5	805	806	807
1226	2	806	805	811
1227	2	806	805	812
1228	2	806	805	813
1229	3	806	807	808
1230	6	806	807	809
1231	5	807	809	810
1232	3	808	807	809
1233	2	809	810	814
1234	2	809	810	815
1235	2	809	810	816
1236	4	811	805	812
1237	4	811	805	813
1238	4	812	805	813
1239	4	814	810	815
1240	4	814	810	816
1241	4	815	810	816
1242	5	817	818	819
1243	2	818	817	823
1244	2	818	817	824
1245	2	818	817	825
1246	3	818	819	820
1247	6	818	819	821
1248	5	819	821	822
1249	3	820	819	821
1250	2	821	822	826
1251	2	821	822	827
1252	2	821	822	828
1253	4	823	817	824
1254	4	823	817	825
1255	4	824	817	825
1256	4	826	822	827
1257	4	826	822	828
1258	4	827	822	828
1259	5	829	830	831
1260	2	830	829	835
1261	2	830	829	836
1262	2	830	829	837
1263	3	830	831	832
1264	6	830	831	833
1265	5	831	833	834
1266	3	832	831	833
1267	2	833	834	838
1268	2	833	834	839
1269	2	833	834	840
1270	4	835	829	836
1271	4	835	829	837
1272	4	836	829	837
1273	4	838	834	839
1274	4	838	834	840
1275	4	839	834	840
1276	5	841	842	843
1277	2	842	841	847
1278	2	842	841	848
1279	2	842	841	849
1280	3	842	843	844
1281	6	842	843	845
1282	5	843	845	846
1283	3	844	843	845
1284	2	845	846	850
1285	2	845	846	851
1286	2	845	846	852
1287	4	847	841	848
1288	4	847	841	849
1289	4	848	841	849
1290	4	850	846	851
1291	4	850	846	852
1292	4	851	846	852
1293	5	853	854	855
1294	2	854	853	859
1295	2	854	853	860
1296	2	854	853	861
1297	3	854	855	856
1298	6	854	855	857
1299	5	855	857	858
1300	3	856	855	857
1301	2	857	858	862
1302	2	857	858	863
1303	2	857	858	864
1304	4	859	853	860
1305	4	859	853	861
1306	4	860	853	861
1307	4	862	858	863
1308	4	862	858	864
1309	4	863	858	864
1310	5	865	866	867
1311	2	866	865	871
1312	2	866	865	872
1313	2	866	865	873
1314	3	866	867	868
1315	6	866	867	869
1316	5	867	869	870
1317	3	868	867	869
1318	2	869	870	874
1319	2	869	870	875
1320	2	869	870	876
1321	4	871	865	872
1322	4	871	865	873
1323	4	872	865	873
1324	4	874	870	875
1325	4	874	870	876
1326	4	875	870	876
1327	5	877	878	879
1328	2	878	877	883
1329	2	878	877	884
1330	2	878	877	885
1331	3	878	879	880
1332	6	878	879	881
1333	5	879	881	882
1334	3	880	879	881
1335	2	881	882	886
1336	2	881	882	887
1337	2	881	882	888
1338	4	883	877	884
1339	4	883	877	885
1340	4	884	877	885
1341	4	886	882	887
1342	4	886	882	888
1343	4	887	882	888
1344	5	889	890	891
1345	2	890	889	895
1346	2	890	889	896
1347	2	890	889	897
1348	3	890	891	892
1349	6	890	891	893
1350	5	891	893	894
1351	3	892	891	893
1352	2	893	894	898
1353	2	893	894	899
1354	2	893	894	900
1355	4	895	889	896
1356	4	895	889	897
1357	4	896	889	897
1358	4	898	894	899
1359	4	898	894	900
1360	4	899	894	900
1361	5	901	902	903
1362	2	902	901	907
1363	2	902	901	908
1364	2	902	901	909
1365	3	902	903	904
1366	6	902	903	905
1367	5	903	905	906
1368	3	904	903	905
1369	2	905	906	910
1370	2	905	906	911
1371	2	905	906	912
1372	4	907	901	908
1373	4	907	901	909
1374	4	908	901	909
1375	4	910	906	911
1376	4	910	906	912
1377	4	911	906	912
1378	5	913	914	915
1379	2	914	913	919
1380	2	914	913	920
1381	2	914	913	921
1382	3	914	915	916
1383	6	914	915	917
1384	5	915	917	918
1385	3	916	915	917
1386	2	917	918	922
1387	2	917	918	923
1388	2	917	918	924
1389	4	919	913	920
1390	4	919	913	921
1391	4	920	913	921
1392	4	922	918	923
1393	4	922	918	924
1394	4	923	918	924
1395	5	925	926	927
1396	2	926	925	931
1397	2	926	925	932
1398	2	926	925	933
1399	3	926	927	928
1400	6	926	927	929
1401	5	927	929	930
1402	3	928	927	929
1403	2	929	930	934
1404	2	929	930	935
1405	2	929	930	936
1406	4	931	925	932
1407	4	931	925	933
1408	4	932	925	933
1409	4	934	930	935
1410	4	934	930	936
1411	4	935	930	936
1412	5	937	938	939
1413	2	938	937	943
1414	2	938	937	944
1415	2	938	937	945
1416	3	938	939	940
1417	6	938	939	941
1418	5	939	941	942
1419	3	940	939	941
1420	2	941	942	946
1421	2	941	942	947
1422	2	941	942	948
1423	4	943	937	944
1424	4	943	937	945
1425	4	944	937	945
1426	4	946	942	947
1427	4	946	942	948
1428	4	947	942	948
1429	5	949	950	951
1430	2	950	949	955
1431	2	950	949	956
1432	2	950	949	957
1433	3	950	951	952
1434	6	950	951	953
1435	5	951	953	954
1436	3	952	951	953
1437	2	953	954	958
1438	2	953	954	959
1439	2	953	954	960
1440	4	955	949	956
1441	4	955	949	957
1442	4	956	949	957
1443	4	958	954	959
1444	4	958	954	960
1445	4	959	954	960
1446	5	961	962	963
1447	2	962	961	967
1448	2	962	961	968
1449	2	962	961	969
1450	3	962	963	964
1451	6	962	963	965
1452	5	963	965	966
1453	3	964	963	965
1454	2	965	966	970
1455	2	965	966	971
1456	2	965	966	972
1457	4	967	961	968
1458	4	967	961	969
1459	4	968	961	969
1460	4	970	966	971
1461	4	970	966	972
1462	4	971	966	972
1463	7	980	981	982
1464	7	980	981	983
1465	7	980	981	984
1466	7	982	981	983
1467	7	982	981	984
1468	7	983	981	984
1469	7	985	986	987
1470	7	985	986	988
1471	7	985	986	989
1472	7	987	986	988
1473	7	987	986	989
1474	7	988	986	989
1475	7	990	991	992
1476	7	990	991	993
1477	7	990	991	994
1478	7	992	991	993
1479	7	992	991	994
1480	7	993	991	994
1481	7	995	996	997
1482	7	995	996	998
1483	7	995	996	999
1484	7	997	996	998
1485	7	997	996	999
1486	7	998	996	999
1487	7	1000	1001	1002
1488	7	1000	1001	1003
1489	7	1000	1001	1004
1490	7	1002	1001	1003
1491	7	1002	1001	1004
1492	7	1003	1001	1004
1493	7	1005	1006	1007
1494	7	1005	1006	1008
1495	7	1005	1006	1009
1496	7	1007	1006	1008
1497	7	1007	1006	1009
1498	7	1008	1006	1009
1499	7	1010	1011	1012
1500	7	1010	1011	1013
1501	7	1010	1011	1014
1502	7	1012	1011	1013
1503	7	1012	1011	1014
1504	7	1013	1011	1014

Dihedrals

1	1	1	2	3	4
2	2	1	2	3	4
3	3	1	6	4	3
4	3	1	6	4	5
5	1	2	1	6	4
6	2	2	1	6	4
7	3	2	3	4	5
8	3	2	3	4	6
9	4	3	2	1	6
10	5	3	2	1	6
11	6	3	2	1	7
12	7	3	2	1	7
13	6	3	2	1	8
14	7	3	2	1	8
15	8	4	3	2	9
16	8	4	3	2	10
17	8	4	6	1	7
18	8	4	6	1	8
19	6	6	1	2	9
20	7	6	1	2	9
21	6	6	1	2	10
22	7	6	1	2	10
23	9	7	1	2	9
24	9	7	1	2	10
25	9	8	1	2	9
26	9	8	1	2	10
27	1	11	12	13	14
28	2	11	12	13	14
29	3	11	16	14	13
30	3	11	16	14	15
31	1	12	11	16	14
32	2	12	11	16	14
33	3	12	13	14	15
34	3	12	13	14	16
35	4	13	12	11	16
36	5	13	12	11	16
37	6	13	12	11	17
38	7	13	12	11	17
39	6	13	12	11	18
40	7	13	12	11	18
41	8	14	13	12	19
42	8	14	13	12	20
43	8	14	16	11	17
44	8	14	16	11	18
45	6	16	11	12	19
46	7	16	11	12	19
47	6	16	11	12	20
48	7	16	11	12	20
49	9	17	11	12	19
50	9	17	11	12	20
51	9	18	11	12	19
52	9	18	11	12	20
53	1	21	22	23	24
54	2	21	22	23	24
55	3	21	26	24	23
56	3	21	26	24	25
57	1	22	21	26	24
58	2	22	21	26	24
59	3	22	23	24	25
60	3	22	23	24	26
61	4	23	22	21	26
62	5	23	22	21	26
63	6	23	22	21	27
64	7	23	22	21	27
65	6	23	22	21	28
66	7	23	22	21	28
67	8	24	23	22	29
68	8	24	23	22	30
69	8	24	26	21	27
70	8	24	26	21	28
71	6	26	21	22	29
72	7	26	21	22	29
73	6	26	21	22	30
74	7	26	21	22	30
75	9	27	21	22	29
76	9	27	21	22	30
77	9	28	21	22	29
78	9	28	21	22	30
79	1	31	32	33	34
80	2	31	32	33	34
81	3	31	36	34	33
82	3	31	36	34	35
83	1	32	31	36	34
84	2	32	31	36	34
85	3	32	33	34	35
86	3	32	33	34	36
87	4	33	32	31	36
88	5	33	32	31	36
89	6	33	32	31	37
90	7	33	32	31	37
91	6	33	32	31	38
92	7	33	32	31	38
93	8	34	33	32	39
94	8	34	33	32	40
95	8	34	36	31	37
96	8	34	36	31	38
97	6	36	31	32	39
98	7	36	31	32	39
99	6	36	31	32	40
100	7	36	31	32	40
101	9	37	31	32	39
102	9	37	31	32	40
103	9	38	31	32	39
104	9	38	31	32	40
105	1	41	42	43	44
106	2	41	42	43	44
107	3	41	46	44	43
108	3	41	46	44	45
109	1	42	41	46	44
110	2	42	41	46	44
111	3	42	43	44	45
112	3	42	43	44	46
113	4	43	42	41	46
114	5	43	42	41	46
115	6	43	42	41	47
116	7	43	42	41	47
117	6	43	42	41	48
118	7	43	42	41	48
119	8	44	43	42	49
120	8	44	43	42	50
121	8	44	46	41	47
122	8	44	46	41	48
123	6	46	41	42	49
124	7	46	41	42	49
125	6	46	41	42	50
126	7	46	41	42	50
127	9	47	41	42	49
128	9	47	41	42	50
129	9	48	41	42	49
130	9	48	41	42	50
131	1	51	52	53	54
132	2	51	52	53	54
133	3	51	56	54	53
134	3	51	56	54	55
135	1	52	51	56	54
136	2	52	51	56	54
137	3	52	53	54	55
138	3	52	53	54	56
139	4	53	52	51	56
140	5	53	52	51	56
141	6	53	52	51	57
142	7	53	52	51	57
143	6	53	52	51	58
144	7	53	52	51	58
145	8	54	53	52	59
146	8	54	53	52	60
147	8	54	56	51	57
148	8	54	56	51	58
149	6	56	51	52	59
150	7	56	51	52	59
151	6	56	51	52	60
152	7	56	51	52	60
153	9	57	51	52	59
154	9	57	51	52	60
155	9	58	51	52	59
156	9	58	51	52	60
157	1	61	62	63	64
158	2	61	62	63	64
159	3	61	66	64	63
160	3	61	66	64	65
161	1	62	61	66	64
162	2	62	61	66	64
163	3	62	63	64	65
164	3	62	63	64	66
165	4	63	62	61	66
166	5	63	62	61	66
167	6	63	62	61	67
168	7	63	62	61	67
169	6	63	62	61	68
170	7	63	62	61	68
171	8	64	63	62	69
172	8	64	63	62	70
173	8	64	66	61	67
174	8	64	66	61	68
175	6	66	61	62	69
176	7	66	61	62	69
177	6	66	61	62	70
178	7	66	61	62	70
179	9	67	61	62	69
180	9	67	61	62	70
181	9	68	61	62	69
182	9	68	61	62	70
183	1	71	72	73	74
184	2	71	72	73	74
185	3	71	76	74	73
186	3	71	76	74	75
187	1	72	71	76	74
188	2	72	71	76	74
189	3	72	73	74	75
190	3	72	73	74	76
191	4	73	72	71	76
192	5	73	72	71	76
193	6	73	72	71	77
194	7	73	72	71	77
195	6	73	72	71	78
196	7	73	72	71	78
197	8	74	73	72	79
198	8	74	73	72	80
199	8	74	76	71	77
200	8	74	76	71	78
201	6	76	71	72	79
202	7	76	71	72	79
203	6	76	71	72	80
204	7	76	71	72	80
205	9	77	71	72	79
206	9	77	71	72	80
207	9	78	71	72	79
208	9	78	71	72	80
209	1	81	82	83	84
210	2	81	82	83	84
211	3	81	86	84	83
212	3	81	86	84	85
213	1	82	81	86	84
214	2	82	81	86	84
215	3	82	83	84	85
216	3	82	83	84	86
217	4	83	82	81	86
218	5	83	82	81	86
219	6	83	82	81	87
220	7	83	82	81	87
221	6	83	82	81	88
222	7	83	82	81	88
223	8	84	83	82	89
224	8	84	83	82	90
225	8	84	86	81	87
226	8	84	86	81	88
227	6	86	81	82	89
228	7	86	81	82	89
229	6	86	81	82	90
230	7	86	81	82	90
231	9	87	81	82	89
232	9	87	81	82	90
233	9	88	81	82	89
234	9	88	81	82	90
235	1	91	92	93	94
236	2	91	92	93	94
237	3	91	96	94	93
238	3	91	96	94	95
239	1	92	91	96	94
240	2	92	91	96	94
241	3	92	93	94	95
242	3	92	93	94	96
243	4	93	92	91	96
244	5	93	92	91	96
245	6	93	92	91	97
246	7	93	92	91	97
247	6	93	92	91	98
248	7	93	92	91	98
249	8	94	93	92	99
250	8	94	93	92	100
251	8	94	96	91	97
252	8	94	96	91	98
253	6	96	91	92	99
254	7	96	91	92	99
255	6	96	91	92	100
256	7	96	91	92	100
257	9	97	91	92	99
258	9	97	91	92	100
259	9	98	91	92	99
260	9	98	91	92	100
261	1	101	102	103	104
262	2	101	102	103	104
263	3	101	106	104	103
264	3	101	106	104	105
265	1	102	101	106	104
266	2	102	101	106	104
267	3	102	103	104	105
268	3	102	103	104	106
269	4	103	102	101	106
270	5	103	102	101	106
271	6	103	102	101	107
272	7	103	102	101	107
273	6	103	102	101	108
274	7	103	102	101	108
275	8	104	103	102	109
276	8	104	103	102	110
277	8	104	106	101	107
278	8	104	106	101	108
279	6	106	101	102	109
280	7	106	101	102	109
281	6	106	101	102	110
282	7	106	101	102	110
283	9	107	101	102	109
284	9	107	101	102	110
285	9	108	101	102	109
286	9	108	101	102	110
287	1	111	112	113	114
288	2	111	112	113	114
289	3	111	116	114	113
290	3	111	116	114	115
291	1	112	111	116	114
292	2	112	111	116	114
293	3	112	113	114	115
294	3	112	113	114	116
295	4	113	112	111	116
296	5	113	112	111	116
297	6	113	112	111	117
298	7	113	112	111	117
299	6	113	112	111	118
300	7	113	112	111	118
301	8	114	113	112	119
302	8	114	113	112	120
303	8	114	116	111	117
304	8	114	116	111	118
305	6	116	111	112	119
306	7	116	111	112	119
307	6	116	111	112	120
308	7	116	111	112	120
309	9	117	111	112	119
310	9	117	111	112	120
311	9	118	111	112	119
312	9	118	111	112	120
313	1	121	122	123	124
314	2	121	122	123	124
315	3	121	126	124	123
316	3	121	126	124	125
317	1	122	121	126	124
318	2	122	121	126	124
319	3	122	123	124	125
320	3	122	123	124	126
321	4	123	122	121	126
322	5	123	122	121	126
323	6	123	122	121	127
324	7	123	122	121	127
325	6	123	122	121	128
326	7	123	122	121	128
327	8	124	123	122	129
328	8	124	123	122	130
329	8	124	126	121	127
330	8	124	126	121	128
331	6	126	121	122	129
332	7	126	121	122	129
333	6	126	121	122	130
334	7	126	121	122	130
335	9	127	121	122	129
336	9	127	121	122	130
337	9	128	121	122	129
338	9	128	121	122	130
339	1	131	132	133	134
340	2	131	132	133	134
341	3	131	136	134	133
342	3	131	136	134	135
343	1	132	131	136	134
344	2	132	131	136	134
345	3	132	133	134	135
346	3	132	133	134	136
347	4	133	132	131	136
348	5	133	132	131	136
349	6	133	132	131	137
350	7	133	132	131	137
351	6	133	132	131	138
352	7	133	132	131	138
353	8	134	133	132	139
354	8	134	133	132	140
355	8	134	136	131	137
356	8	134	136	131	138
357	6	136	131	132	139
358	7	136	131	132	139
359	6	136	131	132	140
360	7	136	131	132	140
361	9	137	131	132	139
362	9	137	131	132	140
363	9	138	131	132	139
364	9	138	131	132	140
365	1	141	142	143	144
366	2	141	142	143	144
367	3	141	146	144	143
368	3	141	146	144	145
369	1	142	141	146	144
370	2	142	141	146	144
371	3	142	143	144	145
372	3	142	143	144	146
373	4	143	142	141	146
374	5	143	142	141	146
375	6	143	142	141	147
376	7	143	142	141	147
377	6	143	142	141	148
378	7	143	142	141	148
379	8	144	143	142	149
380	8	144	143	142	150
381	8	144	146	141	147
382	8	144	146	141	148
383	6	146	141	142	149
384	7	146	141	142	149
385	6	146	141	142	150
386	7	146	141	142	150
387	9	147	141	142	149
388	9	147	141	142	150
389	9	148	141	142	149
390	9	148	141	142	150
391	1	151	152	153	154
392	2	151	152	153	154
393	3	151	156	154	153
394	3	151	156	154	155
395	1	152	151	156	154
396	2	152	151	156	154
397	3	152	153	154	155
398	3	152	153	154	156
399	4	153	152	151	156
400	5	153	152	151	156
401	6	153	152	151	157
402	7	153	152	151	157
403	6	153	152	151	158
404	7	153	152	151	158
405	8	154	153	152	159
406	8	154	153	152	160
407	8	154	156	151	157
408	8	154	156	151	158
409	6	156	151	152	159
410	7	156	151	152	159
411	6	156	151	152	160
412	7	156	151	152	160
413	9	157	151	152	159
414	9	157	151	152	160
415	9	158	151	152	159
416	9	158	151	152	160
417	1	161	162	163	164
418	2	161	162	163	164
419	3	161	166	164	163
420	3	161	166	164	165
421	1	162	161	166	164
422	2	162	161	166	164
423	3	162	163	164	165
424	3	162	163	164	166
425	4	163	162	161	166
426	5	163	162	161	166
427	6	163	162	161	167
428	7	163	162	161	167
429	6	163	162	161	168
430	7	163	162	161	168
431	8	164	163	162	169
432	8	164	163	162	170
433	8	164	166	161	167
434	8	164	166	161	168
435	6	166	161	162	169
436	7	166	161	162	169
437	6	166	161	162	170
438	7	166	161	162	170
439	9	167	161	162	169
440	9	167	161	162	170
441	9	168	161	162	169
442	9	168	161	162	170
443	1	171	172	173	174
444	2	171	172	173	174
445	3	171	176	174	173
446	3	171	176	174	175
447	1	172	171	176	174
448	2	172	171	176	174
449	3	172	173	174	175
450	3	172	173	174	176
451	4	173	172	171	176
452	5	173	172	171	176
453	6	173	172	171	177
454	7	173	172	171	177
455	6	173	172	171	178
456	7	173	172	171	178
457	8	174	173	172	179
458	8	174	173	172	180
459	8	174	176	171	177
460	8	174	176	171	178
461	6	176	171	172	179
462	7	176	171	172	179
463	6	176	171	172	180
464	7	176	171	172	180
465	9	177	171	172	179
466	9	177	171	172	180
467	9	178	171	172	179
468	9	178	171	172	180
469	1	181	182	183	184
470	2	181	182	183	184
471	3	181	186	184	183
472	3	181	186	184	185
473	1	182	181	186	184
474	2	182	181	186	184
475	3	182	183	184	185
476	3	182	183	184	186
477	4	183	182	181	186
478	5	183	182	181	186
479	6	183	182	181	187
480	7	183	182	181	187
481	6	183	182	181	188
482	7	183	182	181	188
483	8	184	183	182	189
484	8	184	183	182	190
485	8	184	186	181	187
486	8	184	186	181	188
487	6	186	181	182	189
488	7	186	181	182	189
489	6	186	181	182	190
490	7	186	181	182	190
491	9	187	181	182	189
492	9	187	181	182	190
493	9	188	181	182	189
494	9	188	181	182	190
495	1	191	192	193	194
496	2	191	192	193	194
497	3	191	196	194	193
498	3	191	196	194	195
499	1	192	191	196	194
500	2	192	191	196	194
501	3	192	193	194	195
502	3	192	193	194	196
503	4	193	192	191	196
504	5	193	192	191	196
505	6	193	192	191	197
506	7	193	192	191	197
507	6	193	192	191	198
508	7	193	192	191	198
509	8	194	193	192	199
510	8	194	193	192	200
511	8	194	196	191	197
512	8	194	196	191	198
513	6	196	191	192	199
514	7	196	191	192	199
515	6	196	191	192	200
516	7	196	191	192	200
517	9	197	191	192	199
518	9	197	191	192	200
519	9	198	191	192	199
520	9	198	191	192	200
521	1	201	202	203	204
522	2	201	202	203	204
523	3	201	206	204	203
524	3	201	206	204	205
525	1	202	201	206	204
526	2	202	201	206	204
527	3	202	203	204	205
528	3	202	203	204	206
529	4	203	202	201	206
530	5	203	202	201	206
531	6	203	202	201	207
532	7	203	202	201	207
533	6	203	202	201	208
534	7	203	202	201	208
535	8	204	203	202	209
536	8	204	203	202	210
537	8	204	206	201	207
538	8	204	206	201	208
539	6	206	201	202	209
540	7	206	201	202	209
541	6	206	201	202	210
542	7	206	201	202	210
543	9	207	201	202	209
544	9	207	201	202	210
545	9	208	201	202	209
546	9	208	201	202	210
547	1	211	212	213	214
548	2	211	212	213	214
549	3	211	216	214	213
550	3	211	216	214	215
551	1	212	211	216	214
552	2	212	211	216	214
553	3	212	213	214	215
554	3	212	213	214	216
555	4	213	212	211	216
556	5	213	212	211	216
557	6	213	212	211	217
558	7	213	212	211	217
559	6	213	212	211	218
560	7	213	212	211	218
561	8	214	213	212	219
562	8	214	213	212	220
563	8	214	216	211	217
564	8	214	216	211	218
565	6	216	211	212	219
566	7	216	211	212	219
567	6	216	211	212	220
568	7	216	211	212	220
569	9	217	211	212	219
570	9	217	211	212	220
571	9	218	211	212	219
572	9	218	211	212	220
573	1	221	222	223	224
574	2	221	222	223	224
575	3	221	226	224	223
576	3	221	226	224	225
577	1	222	221	226	224
578	2	222	221	226	224
579	3	222	223	224	225
580	3	222	223	224	226
581	4	223	222	221	226
582	5	223	222	221	226
583	6	223	222	221	227
584	7	223	222	221	227
585	6	223	222	221	228
586	7	223	222	221	228
587	8	224	223	222	229
588	8	224	223	222	230
589	8	224	226	221	227
590	8	224	226	221	228
591	6	226	221	222	229
592	7	226	221	222	229
593	6	226	221	222	230
594	7	226	221	222	230
595	9	227	221	222	229
596	9	227	221	222	230
597	9	228	221	222	229
598	9	228	221	222	230
599	1	231	232	233	234
600	2	231	232	233	234
601	3	231	236	234	233
602	3	231	236	234	235
603	1	232	231	236	234
604	2	232	231	236	234
605	3	232	233	234	235
606	3	232	233	234	236
607	4	233	232	231	236
608	5	233	232	231	236
609	6	233	232	231	237
610	7	233	232	231	237
611	6	233	232	231	238
612	7	233	232	231	238
613	8	234	233	232	239
614	8	234	233	232	240
615	8	234	236	231	237
616	8	234	236	231	238
617	6	236	231	232	239
618	7	236	231	232	239
619	6	236	231	232	240
620	7	236	231	232	240
621	9	237	231	232	239
622	9	237	231	232	240
623	9	238	231	232	239
624	9	238	231	232	240
625	1	241	242	243	244
626	2	241	242	243	244
627	3	241	246	244	243
628	3	241	246	244	245
629	1	242	241	246	244
630	2	242	241	246	244
631	3	242	243	244	245
632	3	242	243	244	246
633	4	243	242	241	246
634	5	243	242	241	246
635	6	243	242	241	247
636	7	243	242	241	247
637	6	243	242	241	248
638	7	243	242	241	248
639	8	244	243	242	249
640	8	244	243	242	250
641	8	244	246	241	247
642	8	244	246	241	248
643	6	246	241	242	249
644	7	246	241	242	249
645	6	246	241	242	250
646	7	246	241	242	250
647	9	247	241	242	249
648	9	247	241	242	250
649	9	248	241	242	249
650	9	248	241	242	250
651	1	251	252	253	254
652	2	251	252	253	254
653	3	251	256	254	253
654	3	251	256	254	255
655	1	252	251	256	254
656	2	252	251	256	254
657	3	252	253	254	255
658	3	252	253	254	256
659	4	253	252	251	256
660	5	253	252	251	256
661	6	253	252	251	257
662	7	253	252	251	257
663	6	253	252	251	258
664	7	253	252	251	258
665	8	254	253	252	259
666	8	254	253	252	260
667	8	254	256	251	257
668	8	254	256	251	258
669	6	256	251	252	259
670	7	256	251	252	259
671	6	256	251	252	260
672	7	256	251	252	260
673	9	257	251	252	259
674	9	257	251	252	260
675	9	258	251	252	259
676	9	258	251	252	260
677	1	261	262	263	264
678	2	261	262	263	264
679	3	261	266	264	263
680	3	261	266	264	265
681	1	262	261	266	264
682	2	262	261	266	264
683	3	262	263	264	265
684	3	262	263	264	266
685	4	263	262	261	266
686	5	263	262	261	266
687	6	263	262	261	267
688	7	263	262	261	267
689	6	263	262	261	268
690	7	263	262	261	268
691	8	264	263	262	269
692	8	264	263	262	270
693	8	264	266	261	267
694	8	264	266	261	268
695	6	266	261	262	269
696	7	266	261	262	269
697	6	266	261	262	270
698	7	266	261	262	270
699	9	267	261	262	269
700	9	267	261	262	270
701	9	268	261	262	269
702	9	268	261	262	270
703	1	271	272	273	274
704	2	271	272	273	274
705	3	271	276	274	273
706	3	271	276	274	275
707	1	272	271	276	274
708	2	272	271	276	274
709	3	272	273	274	275
710	3	272	273	274	276
711	4	273	272	271	276
712	5	273	272	271	276
713	6	273	272	271	277
714	7	273	272	271	277
715	6	273	272	271	278
716	7	273	272	271	278
717	8	274	273	272	279
718	8	274	273	272	280
719	8	274	276	271	277
720	8	274	276	271	278
721	6	276	271	272	279
722	7	276	271	272	279
723	6	276	271	272	280
724	7	276	271	272	280
725	9	277	271	272	279
726	9	277	271	272	280
727	9	278	271	272	279
728	9	278	271	272	280
729	1	281	282	283	284
730	2	281	282	283	284
731	3	281	286	284	283
732	3	281	286	284	285
733	1	282	281	286	284
734	2	282	281	286	284
735	3	282	283	284	285
736	3	282	283	284	286
737	4	283	282	281	286
738	5	283	282	281	286
739	6	283	282	281	287
740	7	283	282	281	287
741	6	283	282	281	288
742	7	283	282	281	288
743	8	284	283	282	289
744	8	284	283	282	290
745	8	284	286	281	287
746	8	284	286	281	288
747	6	286	281	282	289
748	7	286	281	282	289
749	6	286	281	282	290
750	7	286	281	282	290
751	9	287	281	282	289
752	9	287	281	282	290
753	9	288	281	282	289
754	9	288	281	282	290
755	1	291	292	293	294
756	2	291	292	293	294
757	3	291	296	294	293
758	3	291	296	294	295
759	1	292	291	296	294
760	2	292	291	296	294
761	3	292	293	294	295
762	3	292	293	294	296
763	4	293	292	291	296
764	5	293	292	291	296
765	6	293	292	291	297
766	7	293	292	291	297
767	6	293	292	291	298
768	7	293	292	291	298
769	8	294	293	292	299
770	8	294	293	292	300
771	8	294	296	291	297
772	8	294	296	291	298
773	6	296	291	292	299
774	7	296	291	292	299
775	6	296	291	292	300
776	7	296	291	292	300
777	9	297	291	292	299
778	9	297	291	292	300
779	9	298	291	292	299
780	9	298	291	292	300
781	10	301	302	303	304
782	11	301	302	303	304
783	12	301	302	303	305
784	12	302	303	305	306
785	8	303	302	301	307
786	8	303	302	301	308
787	8	303	302	301	309
788	8	303	305	306	310
789	8	303	305	306	311
790	8	303	305	306	312
791	10	304	303	305	306
792	11	304	303	305	306
793	10	313	314	315	316
794	11	313	314	315	316
795	12	313	314	315	317
796	12	314	315	317	318
797	8	315	314	313	319
798	8	315	314	313	320
799	8	315	314	313	321
800	8	315	317	318	322
801	8	315	317	318	323
802	8	315	317	318	324
803	10	316	315	317	318
804	11	316	315	317	318
805	10	325	326	327	328
806	11	325	326	327	328
807	12	325	326	327	329
808	12	326	327	329	330
809	8	327	326	325	331
810	8	327	326	325	332
811	8	327	326	325	333
812	8	327	329	330	334
813	8	327	329	330	335
814	8	327	329	330	336
815	10	328	327	329	330
816	11	328	327	329	330
817	10	337	338	339	340
818	11	337	338	339	340
819	12	337	338	339	341
820	12	338	339	341	342
821	8	339	338	337	343
822	8	339	338	337	344
823	8	339	338	337	345
824	8	339	341	342	346
825	8	339	341	342	347
826	8	339	341	342	348
827	10	340	339	341	342
828	11	340	339	341	342
829	10	349	350	351	352
830	11	349	350	351	352
831	12	349	350	351	353
832	12	350	351	353	354
833	8	351	350	349	355
834	8	351	350	349	356
835	8	351	350	349	357
836	8	351	353	354	358
837	8	351	353	354	359
838	8	351	353	354	360
839	10	352	351	353	354
840	11	352	351	353	354
841	10	361	362	363	364
842	11	361	362	363	364
843	12	361	362	363	365
844	12	362	363	365	366
845	8	363	362	361	367
846	8	363	362	361	368
847	8	363	362	361	369
848	8	363	365	366	370
849	8	363	365	366	371
850	8	363	365	366	372
851	10	364	363	365	366
852	11	364	363	365	366
853	10	373	374	375	376
854	11	373	374	375	376
855	12	373	374	375	377
856	12	374	375	377	378
857	8	375	374	373	379
858	8	375	374	373	380
859	8	375	374	373	381
860	8	375	377	378	382
861	8	375	377	378	383
862	8	375	377	378	384
863	10	376	375	377	378
864	11	376	375	377	378
865	10	385	386	387	388
866	11	385	386	387	388
867	12	385	386	387	389
868	12	386	387	389	390
869	8	387	386	385	391
870	8	387	386	385	392
871	8	387	386	385	393
872	8	387	389	390	394
873	8	387	389	390	395
874	8	387	389	390	396
875	10	388	387	389	390
876	11	388	387	389	390
877	10	397	398	399	400
878	11	397	398	399	400
879	12	397	398	399	401
880	12	398	399	401	402
881	8	399	398	397	403
882	8	399	398	397	404
883	8	399	398	397	405
884	8	399	401	402	406
885	8	399	401	402	407
886	8	399	401	402	408
887	10	400	399	401	402
888	11	400	399	401	402
889	10	409	410	411	412
890	11	409	410	411	412
891	12	409	410	411	413
892	12	410	411	413	414
893	8	411	410	409	415
894	8	411	410	409	416
895	8	411	410	409	417
896	8	411	413	414	418
897	8	411	413	414	419
898	8	411	413	414	420
899	10	412	411	413	414
900	11	412	411	413	414
901	10	421	422	423	424
902	11	421	422	423	424
903	12	421	422	423	425
904	12	422	423	425	426
905	8	423	422	421	427
906	8	423	422	421	428
907	8	423	422	421	429
908	8	423	425	426	430
909	8	423	425	426	431
910	8	423	425	426	432
911	10	424	423	425	426
912	11	424	423	425	426
913	10	433	434	435	436
914	11	433	434	435	436
915	12	433	434	435	437
916	12	434	435	437	438
917	8	435	434	433	439
918	8	435	434	433	440
919	8	435	434	433	441
920	8	435	437	438	442
921	8	435	437	438	443
922	8	435	437	438	444
923	10	436	435	437	438
924	11	436	435	437	438
925	10	445	446	447	448
926	11	445	446	447	448
927	12	445	446	447	449
928	12	446	447	449	450
929	8	447	446	445	451
930	8	447	446	445	452
931	8	447	446	445	453
932	8	447	449	450	454
933	8	447	449	450	455
934	8	447	449	450	456
935	10	448	447	449	450
936	11	448	447	449	450
937	10	457	458	459	460
938	11	457	458	459	460
939	12	457	458	459	461
940	12	458	459	461	462
941	8	459	458	457	463
942	8	459	458	457	464
943	8	459	458	457	465
944	8	459	461	462	466
945	8	459	461	462	467
946	8	459	461	462	468
947	10	460	459	461	462
948	11	460	459	461	462
949	10	469	470	471	472
950	11	469	470	471	472
951	12	469	470	471	473
952	12	470	471	473	474
953	8	471	470	469	475
954	8	471	470	469	476
955	8	471	470	469	477
956	8	471	473	474	478
957	8	471	473	474	479
958	8	471	473	474	480
959	10	472	471	473	474
960	11	472	471	473	474
961	10	481	482	483	484
962	11	481	482	483	484
963	12	481	482	483	485
964	12	482	483	485	486
965	8	483	482	481	487
966	8	483	482	481	488
967	8	483	482	481	489
968	8	483	485	486	490
969	8	483	485	486	491
970	8	483	485	486	492
971	10	484	483	485	486
972	11	484	483	485	486
973	10	493	494	495	496
974	11	493	494	495	496
975	12	493	494	495	497
976	12	494	495	497	498
977	8	495	494	493	499
978	8	495	494	493	500
979	8	495	494	493	501
980	8	495	497	498	502
981	8	495	497	498	503
982	8	495	497	498	504
983	10	496	495	497	498
984	11	496	495	497	498
985	10	505	506	507	508
986	11	505	506	507	508
987	12	505	506	507	509
988	12	506	507	509	510
989	8	507	506	505	511
990	8	507	506	505	512
991	8	507	506	505	513
992	8	507	509	510	514
993	8	507	509	510	515
994	8	507	509	510	516
995	10	508	507	509	510
996	11	508	507	509	510
997	10	517	518	519	520
998	11	517	518	519	520
999	12	517	518	519	521
1000	12	518	519	521	522
1001	8	519	518	517	523
1002	8	519	518	517	524
1003	8	519	518	517	525
1004	8	519	521	522	526
1005	8	519	521	522	527
1006	8	519	521	522	528
1007	10	520	519	521	522
1008	11	520	519	521	522
1009	10	529	530	531	532
1010	11	529	530	531	532
1011	12	529	530	531	533
1012	12	530	531	533	534
1013	8	531	530	529	535
1014	8	531	530	529	536
1015	8	531	530	529	537
1016	8	531	533	534	538
1017	8	531	533	534	539
1018	8	531	533	534	540
1019	10	532	531	533	534
1020	11	532	531	533	534
1021	10	541	542	543	544
1022	11	541	542	543	544
1023	12	541	542	543	545
1024	12	542	543	545	546
1025	8	543	542	541	547
1026	8	543	542	541	548
1027	8	543	542	541	549
1028	8	543	545	546	550
1029	8	543	545	546	551
1030	8	543	545	546	552
1031	10	544	543	545	546
1032	11	544	543	545	546
1033	10	553	554	555	556
1034	11	553	554	555	556
1035	12	553	554	555	557
1036	12	554	555	557	558
1037	8	555	554	553	559
1038	8	555	554	553	560
1039	8	555	554	553	561
1040	8	555	557	558	562
1041	8	555	557	558	563
1042	8	555	557	558	564
1043	10	556	555	557	558
1044	11	556	555	557	558
1045	10	565	566	567	568
1046	11	565	566	567	568
1047	12	565	566	567	569
1048	12	566	567	569	570
1049	8	567	566	565	571
1050	8	567	566	565	572
1051	8	567	566	565	573
1052	8	567	569	570	574
1053	8	567	569	570	575
1054	8	567	569	570	576
1055	10	568	567	569	570
1056	11	568	567	569	570
1057	10	577	578	579	580
1058	11	577	578	579	580
1059	12	577	578	579	581
1060	12	578	579	581	582
1061	8	579	578	577	583
1062	8	579	578	577	584
1063	8	579	578	577	585
1064	8	579	581	582	586
1065	8	579	581	582	587
1066	8	579	581	582	588
1067	10	580	579	581	582
1068	11	580	579	581	582
1069	10	589	590	591	592
1070	11	589	590	591	592
1071	12	589	590	591	593
1072	12	590	591	593	594
1073	8	591	590	589	595
1074	8	591	590	589	596
1075	8	591	590	589	597
1076	8	591	593	594	598
1077	8	591	593	594	599
1078	8	591	593	594	600
1079	10	592	591	593	594
1080	11	592	591	593	594
1081	10	601	602	603	604
1082	11	601	602	603	604
1083	12	601	602	603	605
1084	12	602	603	605	606
1085	8	603	602	601	607
1086	8	603	602	601	608
1087	8	603	602	601	609
1088	8	603	605	606	610
1089	8	603	605	606	611
1090	8	603	605	606	612
1091	10	604	603	605	606
1092	11	604	603	605	606
1093	10	613	614	615	616
1094	11	613	614	615	616
1095	12	613	614	615	617
1096	12	614	615	617	618
1097	8	615	614	613	619
1098	8	615	614	613	620
1099	8	615	614	613	621
1100	8	615	617	618	622
1101	8	615	617	618	623
1102	8	615	617	618	624
1103	10	616	615	617	618
1104	11	616	615	617	618
1105	10	625	626	627	628
1106	11	625	626	627	628
1107	12	625	626	627	629
1108	12	626	627	629	630
1109	8	627	626	625	631
1110	8	627	626	625	632
1111	8	627	626	625	633
1112	8	627	629	630	634
1113	8	627	629	630	635
1114	8	627	629	630	636
1115	10	628	627	629	630
1116	11	628	627	629	630
1117	10	637	638	639	640
1118	11	637	638	639	640
1119	12	637	638	639	641
1120	12	638	639	641	642
1121	8	639	638	637	643
1122	8	639	638	637	644
1123	8	639	638	637	645
1124	8	639	641	642	646
1125	8	639	641	642	647
1126	8	639	641	642	648
1127	10	640	639	641	642
1128	11	640	639	641	642
1129	10	649	650	651	652
1130	11	649	650	651	652
1131	12	649	650	651	653
1132	12	650	651	653	654
1133	8	651	650	649	655
1134	8	651	650	649	656
1135	8	651	650	649	657
1136	8	651	653	654	658
1137	8	651	653	654	659
1138	8	651	653	654	660
1139	10	652	651	653	654
1140	11	652	651	653	654
1141	10	661	662	663	664
1142	11	661	662	663	664
1143	12	661	662	663	665
1144	12	662	663	665	666
1145	8	663	662	661	667
1146	8	663	662	661	668
1147	8	663	662	661	669
1148	8	663	665	666	670
1149	8	663	665	666	671
1150	8	663	665	666	672
1151	10	664	663	665	666
1152	11	664	663	665	666
1153	10	673	674	675	676
1154	11	673	674	675	676
1155	12	673	674	675	677
1156	12	674	675	677	678
1157	8	675	674	673	679
1158	8	675	674	673	680
1159	8	675	674	673	681
1160	8	675	677	678	682
1161	8	675	677	678	683
1162	8	675	677	678	684
1163	10	676	675	677	678
1164	11	676	675	677	678
1165	10	685	686	687	688
1166	11	685	686	687	688
1167	12	685	686	687	689
1168	12	686	687	689	690
1169	8	687	686	685	691
1170	8	687	686	685	692
1171	8	687	686	685	693
1172	8	687	689	690	694
1173	8	687	689	690	695
1174	8	687	689	690	696
1175	10	688	687	689	690
1176	11	688	687	689	690
1177	10	697	698	699	700
1178	11	697	698	699	700
1179	12	697	698	699	701
1180	12	698	699	701	702
1181	8	699	698	697	703
1182	8	699	698	697	704
1183	8	699	698	697	705
1184	8	699	701	702	706
1185	8	699	701	702	707
1186	8	699	701	702	708
1187	10	700	699	701	702
1188	11	700	699	701	702
1189	10	709	710	711	712
1190	11	709	710	711	712
1191	12	709	710	711	713
1192	12	710	711	713	714
1193	8	711	710	709	715
1194	8	711	710	709	716
1195	8	711	710	709	717
1196	8	711	713	714	718
1197	8	711	713	714	719
1198	8	711	713	714	720
1199	10	712	711	713	714
1200	11	712	711	713	714
1201	10	721	722	723	724
1202	11	721	722	723	724
1203	12	721	722	723	725
1204	12	722	723	725	726
1205	8	723	722	721	727
1206	8	723	722	721	728
1207	8	723	722	721	729
1208	8	723	725	726	730
1209	8	723	725	726	731
1210	8	723	725	726	732
1211	10	724	723	725	726
1212	11	724	723	725	726
1213	10	733	734	735	736
1214	11	733	734	735	736
1215	12	733	734	735	737
1216	12	734	735	737	738
1217	8	735	734	733	739
1218	8	735	734	733	740
1219	8	735	734	733	741
1220	8	735	737	738	742
1221	8	735	737	738	743
1222	8	735	737	738	744
1223	10	736	735	737	738
1224	11	736	735	737	738
1225	10	745	746	747	748
1226	11	745	746	747	748
1227	12	745	746	747	749
1228	12	746	747	749	750
1229	8	747	746	745	751
1230	8	747	746	745	752
1231	8	747	746	745	753
1232	8	747	749	750	754
1233	8	747	749	750	755
1234	8	747	749	750	756
1235	10	748	747	749	750
1236	11	748	747	749	750
1237	10	757	758	759	760
1238	11	757	758	759	760
1239	12	757	758	759	761
1240	12	758	759	761	762
1241	8	759	758	757	763
1242	8	759	758	757	764
1243	8	759	758	757	765
1244	8	759	761	762	766
1245	8	759	761	762	767
1246	8	759	761	762	768
1247	10	760	759	761	762
1248	11	760	759	761	762
1249	10	769	770	771	772
1250	11	769	770	771	772
1251	12	769	770	771	773
1252	12	770	771	773	774
1253	8	771	770	769	775
1254	8	771	770	769	776
1255	8	771	770	769	777
1256	8	771	773	774	778
1257	8	771	773	774	779
1258	8	771	773	774	780
1259	10	772	771	773	774
1260	11	772	771	773	774
1261	10	781	782	783	784
1262	11	781	782	783	784
1263	12	781	782	783	785
1264	12	782	783	785	786
1265	8	783	782	781	787
1266	8	783	782	781	788
1267	8	783	782	781	789
1268	8	783	785	786	790
1269	8	783	785	786	791
1270	8	783	785	786	792
1271	10	784	783	785	786
1272	11	784	783	785	786
1273	10	793	794	795	796
1274	11	793	794	795	796
1275	12	793	794	795	797
1276	12	794	795	797	798
1277	8	795	794	793	799
1278	8	795	794	793	800
1279	8	795	794	793	801
1280	8	795	797	798	802
1281	8	795	797	798	803
1282	8	795	797	798	804
1283	10	796	795	797	798
1284	11	796	795	797	798
1285	10	805	806	807	808
1286	11	805	806	807	808
1287	12	805	806	807	809
1288	12	806	807	809	810
1289	8	807	806	805	811
1290	8	807	806	805	812
1291	8	807	806	805	813
1292	8	807	809	810	814
1293	8	807	809	810	815
1294	8	807	809	810	816
1295	10	808	807	809	810
1296	11	808	807	809	810
1297	10	817	818	819	820
1298	11	817	818	819	820
1299	12	817	818	819	821
1300	12	818	819	821	822
1301	8	819	818	817	823
1302	8	819	818	817	824
1303	8	819	818	817	825
1304	8	819	821	822	826
1305	8	819	821	822	827
1306	8	819	821	822	828
1307	10	820	819	821	822
1308	11	820	819	821	822
1309	10	829	830	831	832
1310	11	829	830	831	832
1311	12	829	830	831	833
1312	12	830	831	833	834
1313	8	831	830	829	835
1314	8	831	830	829	836
1315	8	831	830	829	837
1316	8	831	833	834	838
1317	8	831	833	834	839
1318	8	831	833	834	840
1319	10	832	831	833	834
1320	11	832	831	833	834
1321	10	841	842	843	844
1322	11	841	842	843	844
1323	12	841	842	843	845
1324	12	842	843	845	846
1325	8	843	842	841	847
1326	8	843	842	841	848
1327	8	843	842	841	849
1328	8	843	845	846	850
1329	8	843	845	846	851
1330	8	843	845	846	852
1331	10	844	843	845	846
1332	11	844	843	845	846
1333	10	853	854	855	856
1334	11	853	854	855	856
1335	12	853	854	855	857
1336	12	854	855	857	858
1337	8	855	854	853	859
1338	8	855	854	853	860
1339	8	855	854	853	861
1340	8	855	857	858	862
1341	8	855	857	858	863
1342	8	855	857	858	864
1343	10	856	855	857	858
1344	11	856	855	857	858
1345	10	865	866	867	868
1346	11	865	866	867	868
1347	12	865	866	867	869
1348	12	866	867	869	870
1349	8	867	866	865	871
1350	8	867	866	865	872
1351	8	867	866	865	873
1352	8	867	869	870	874
1353	8	867	869	870	875
1354	8	867	869	870	876
1355	10	868	867	869	870
1356	11	868	867	869	870
1357	10	877	878	879	880
1358	11	877	878	879	880
1359	12	877	878	879	881
1360	12	878	879	881	882
1361	8	879	878	877	883
1362	8	879	878	877	884
1363	8	879	878	877	885
1364	8	879	881	882	886
1365	8	879	881	882	887
1366	8	879	881	882	888
1367	10	880	879	881	882
1368	11	880	879	881	882
1369	10	889	890	891	892
1370	11	889	890	891	892
1371	12	889	890	891	893
1372	12	890	891	893	894
1373	8	891	890	889	895
1374	8	891	890	889	896
1375	8	891	890	889	897
1376	8	891	893	894	898
1377	8	891	893	894	899
1378	8	891	893	894	900
1379	10	892	891	893	894
1380	11	892	891	893	894
1381	10	901	902	903	904
1382	11	901	902	903	904
1383	12	901	902	903	905
1384	12	902	903	905	906
1385	8	903	902	901	907
1386	8	903	902	901	908
1387	8	903	902	901	909
1388	8	903	905	906	910
1389	8	903	905	906	911
1390	8	903	905	906	912
1391	10	904	903	905	906
1392	11	904	903	905	906
1393	10	913	914	915	916
1394	11	913	914	915	916
1395	12	913	914	915	917
1396	12	914	915	917	918
1397	8	915	914	913	919
1398	8	915	914	913	920
1399	8	915	914	913	921
1400	8	915	917	918	922
1401	8	915	917	918	923
1402	8	915	917	918	924
1403	10	916	915	917	918
1404	11	916	915	917	918
1405	10	925	926	927	928
1406	11	925	926	927	928
1407	12	925	926	927	929
1408	12	926	927	929	930
1409	8	927	926	925	931
1410	8	927	926	925	932
1411	8	927	926	925	933
1412	8	927	929	930	934
1413	8	927	929	930	935
1414	8	927	929	930	936
1415	10	928	927	929	930
1416	11	928	927	929	930
1417	10	937	938	939	940
1418	11	937	938	939	940
1419	12	937	938	939	941
1420	12	938	939	941	942
1421	8	939	938	937	943
1422	8	939	938	937	944
1423	8	939	938	937	945
1424	8	939	941	942	946
1425	8	939	941	942	947
1426	8	939	941	942	948
1427	10	940	939	941	942
1428	11	940	939	941	942
1429	10	949	950	951	952
1430	11	949	950	951	952
1431	12	949	950	951	953
1432	12	950	951	953	954
1433	8	951	950	949	955
1434	8	951	950	949	956
1435	8	951	950	949	957
1436	8	951	953	954	958
1437	8	951	953	954	959
1438	8	951	953	954	960
1439	10	952	951	953	954
1440	11	952	951	953	954
1441	10	961	962	963	964
1442	11	961	962	963	964
1443	12	961	962	963	965
1444	12	962	963	965	966
1445	8	963	962	961	967
1446	8	963	962	961	968
1447	8	963	962	961	969
1448	8	963	965	966	970
1449	8	963	965	966	971
1450	8	963	965	966	972
1451	10	964	963	965	966
1452	11	964	963	965	966

Impropers

1	1	4	3	5	6
2	1	4	5	6	3
3	1	4	6	3	5
4	1	14	13	15	16
5	1	14	15	16	13
6	1	14	16	13	15
7	1	24	23	25	26
8	1	24	25	26	23
9	1	24	26	23	25
10	1	34	33	35	36
11	1	34	35	36	33
12	1	34	36	33	35
13	1	44	43	45	46
14	1	44	45	46	43
15	1	44	46	43	45
16	1	54	53	55	56
17	1	54	55	56	53
18	1	54	56	53	55
19	1	64	63	65	66
20	1	64	65	66	63
21	1	64	66	63	65
22	1	74	73	75	76
23	1	74	75	76	73
24	1	74	76	73	75
25	1	84	83	85	86
26	1	84	85	86	83
27	1	84	86	83	85
28	1	94	93	95	96
29	1	94	95	96	93
30	1	94	96	93	95
31	1	104	103	105	106
32	1	104	105	106	103
33	1	104	106	103	105
34	1	114	113	115	116
35	1	114	115	116	113
36	1	114	116	113	115
37	1	124	123	125	126
38	1	124	125	126	123
39	1	124	126	123	125
40	1	134	133	135	136
41	1	134	135	136	133
42	1	134	136	133	135
43	1	144	143	145	146
44	1	144	145	146	143
45	1	144	146	143	145
46	1	154	153	155	156
47	1	154	155	156	153
48	1	154	156	153	155
49	1	164	163	165	166
50	1	164	165	166	163
51	1	164	166	163	165
52	1	174	173	175	176
53	1	174	175	176	173
54	1	174	176	173	175
55	1	184	183	185	186
56	1	184	185	186	183
57	1	184	186	183	185
58	1	194	193	195	196
59	1	194	195	196	193
60	1	194	196	193	195
61	1	204	203	205	206
62	1	204	205	206	203
63	1	204	206	203	205
64	1	214	213	215	216
65	1	214	215	216	213
66	1	214	216	213	215
67	1	224	223	225	226
68	1	224	225	226	223
69	1	224	226	223	225
70	1	234	233	235	236
71	1	234	235	236	233
72	1	234	236	233	235
73	1	244	243	245	246
74	1	244	245	246	243
75	1	244	246	243	245
76	1	254	253	255	256
77	1	254	255	256	253
78	1	254	256	253	255
79	1	264	263	265	266
80	1	264	265	266	263
81	1	264	266	263	265
82	1	274	273	275	276
83	1	274	275	276	273
84	1	274	276	273	275
85	1	284	283	285	286
86	1	284	285	286	283
87	1	284	286	283	285
88	1	294	293	295	296
89	1	294	295	296	293
90	1	294	296	293	295
91	1	303	302	304	305
92	1	303	304	305	302
93	1	303	305	302	304
94	1	315	314	316	317
95	1	315	316	317	314
96	1	315	317	314	316
97	1	327	326	328	329
98	1	327	328	329	326
99	1	327	329	326	328
100	1	339	338	340	341
101	1	339	340	341	338
102	1	339	341	338	340
103	1	351	350	352	353
104	1	351	352	353	350
105	1	351	353	350	352
106	1	363	362	364	365
107	1	363	364	365	362
108	1	363	365	362	364
109	1	375	374	376	377
110	1	375	376	377	374
111	1	375	377	374	376
112	1	387	386	388	389
113	1	387	388	389	386
114	1	387	389	386	388
115	1	399	398	400	401
116	1	399	400	401	398
117	1	399	401	398	400
118	1	411	410	412	413
119	1	411	412	413	410
120	1	411	413	410	412
121	1	423	422	424	425
122	1	423	424	425	422
123	1	423	425	422	424
124	1	435	434	436	437
125	1	435	436	437	434
126	1	435	437	434	436
127	1	447	446	448	449
128	1	447	448	449	446
129	1	447	449	446	448
130	1	459	458	460	461
131	1	459	460	461	458
132	1	459	461	458	460
133	1	471	470	472	473
134	1	471	472	473	470
135	1	471	473	470	472
136	1	483	482	484	485
137	1	483	484	485	482
138	1	483	485	482	484
139	1	495	494	496	497
140	1	495	496	497	494
141	1	495	497	494	496
142	1	507	506	508	509
143	1	507	508	509	506
144	1	507	509	506	508
145	1	519	518	520	521
146	1	519	520	521	518
147	1	519	521	518	520
148	1	531	530	532	533
149	1	531	532	533	530
150	1	531	533	530	532
151	1	543	542	544	545
152	1	543	544	545	542
153	1	543	545	542	544
154	1	555	554	556	557
155	1	555	556	557	554
156	1	555	557	554	556
157	1	567	566	568	569
158	1	567	568	569	566
159	1	567	569	566	568
160	1	579	578	580	581
161	1	579	580	581	578
162	1	579	581	578	580
163	1	591	590	592	593
164	1	591	592	593	590
165	1	591	593	590	592
166	1	603	602	604	605
167	1	603	604	605	602
168	1	603	605	602	604
169	1	615	614	616	617
170	1	615	616	617	614
171	1	615	617	614	616
172	1	627	626	628	629
173	1	627	628	629	626
174	1	627	629	626	628
175	1	639	638	640	641
176	1	639	640	641	638
177	1	639	641	638	640
178	1	651	650	652	653
179	1	651	652	653	650
180	1	651	653	650	652
181	1	663	662	664	665
182	1	663	664	665	662
183	1	663	665	662	664
184	1	675	674	676	677
185	1	675	676	677	674
186	1	675	677	674	676
187	1	687	686	688	689
188	1	687	688	689	686
189	1	687	689	686	688
190	1	699	698	700	701
191	1	699	700	701	698
192	1	699	701	698	700
193	1	711	710	712	713
194	1	711	712	713	710
195	1	711	713	710	712
196	1	723	722	724	725
197	1	723	724	725	722
198	1	723	725	722	724
199	1	735	734	736	737
200	1	735	736	737	734
201	1	735	737	734	736
202	1	747	746	748	749
203	1	747	748	749	746
204	1	747	749	746	748
205	1	759	758	760	761
206	1	759	760	761	758
207	1	759	761	758	760
208	1	771	770	772	773
209	1	771	772	773	770
210	1	771	773	770	772
211	1	783	782	784	785
212	1	783	784	785	782
213	1	783	785	782	784
214	1	795	794	796	797
215	1	795	796	797	794
216	1	795	797	794	796
217	1	807	806	808	809
218	1	807	808	809	806
219	1	807	809	806	808
220	1	819	818	820	821
221	1	819	820	821	818
222	1	819	821	818	820
223	1	831	830	832	833
224	1	831	832	833	830
225	1	831	833	830	832
226	1	843	842	844	845
227	1	843	844	845	842
228	1	843	845	842	844
229	1	855	854	856	857
230	1	855	856	857	854
231	1	855	857	854	856
232	1	867	866	868	869
233	1	867	868	869	866
234	1	867	869	866	868
235	1	879	878	880	881
236	1	879	880	881	878
237	1	879	881	878	880
238	1	891	890	892	893
239	1	891	892	893	890
240	1	891	893	890	892
241	1	903	902	904	905
242	1	903	904	905	902
243	1	903	905	902	904
244	1	915	914	916	917
245	1	915	916	917	914
246	1	915	917	914	916
247	1	927	926	928	929
248	1	927	928	929	926
249	1	927	929	926	928
250	1	939	938	940	941
251	1	939	940	941	938
252	1	939	941	938	940
253	1	951	950	952	953
254	1	951	952	953	950
255	1	951	953	950	952
256	1	963	962	964	965
257	1	963	964	965	962
258	1	963	965	962	964
