LAMMPS (22 Jul 2025 - Update 4)
# Restart continuation NPT chunk for composition tag=ec_dmc_3_7_libf4_1m_298K
# Generated by scripts/curate_ff_md_data.py

read_restart    ${input_restart}
read_restart    ec_dmc_3_7_libf4_1m_298K.npt.2.restart
Reading restart file ...
  restart file = 22 Jul 2025, LAMMPS = 22 Jul 2025
  restoring atom style full from restart
  orthogonal box = (-0.32785774 -0.29585773 -0.33685774) to (22.923149 22.955149 22.914149)
  1 by 2 by 2 MPI processor grid
  restoring pair style lj/cut/coul/long from restart
  restoring bond style harmonic from restart
  restoring angle style harmonic from restart
  restoring dihedral style opls from restart
  restoring improper style cvff from restart
  1014 atoms
  944 bonds
  1504 angles
  1452 dihedrals
  258 impropers
Finding 1-2 1-3 1-4 neighbors ...
  special bond factors lj:    0        0        0.5     
  special bond factors coul:  0        0        0.5     
     4 = max # of 1-2 neighbors
     5 = max # of 1-3 neighbors
     9 = max # of 1-4 neighbors
    11 = max # of special neighbors
  special bonds CPU = 0.005 seconds
  read_restart CPU = 0.047 seconds
kspace_style    pppm 1.0e-4
neighbor        2.0 bin
neigh_modify    every 1 delay 0 check yes
timestep        1.0

thermo_style    custom step time temp press vol density pe ke etotal
thermo          100
variable        tracked_temperature_K equal temp
variable        tracked_density_g_cm3 equal density
variable        tracked_volume_A3 equal vol
variable        tracked_pressure_atm equal press
fix             NPT_EQ all npt temp 298.15 298.15 100.0 iso 1.0 1.0 1000.0
fix             NPT_TRACE all ave/time 100 1 100 v_tracked_temperature_K v_tracked_density_g_cm3 v_tracked_volume_A3 v_tracked_pressure_atm file ${thermo_trace}
fix             NPT_TRACE all ave/time 100 1 100 v_tracked_temperature_K v_tracked_density_g_cm3 v_tracked_volume_A3 v_tracked_pressure_atm file npt_thermo.3.dat
run             5000
PPPM initialization ...
  using 12-bit tables for long-range coulomb
  G vector (1/distance) = 0.20343537
  grid = 8 8 8
  stencil order = 5
  estimated absolute RMS force accuracy = 0.02614544
  estimated relative force accuracy = 7.8736217e-05
  using double precision FFTW3
  3d grid and FFT values/proc = 1053 128
Generated 28 of 28 mixed pair_coeff terms from arithmetic mixing rule
Neighbor list info ...
  update: every = 1 steps, delay = 0 steps, check = yes
  max neighbors/atom: 2000, page size: 100000
  master list distance cutoff = 14
  ghost atom cutoff = 14
  binsize = 7, bins = 4 4 4
  1 neighbor lists, perpetual/occasional/extra = 1 0 0
  (1) pair lj/cut/coul/long, perpetual
      attributes: half, newton on
      pair build: half/bin/newton
      stencil: half/bin/3d
      bin: standard
Per MPI rank memory allocation (min/avg/max) = 13.34 | 13.34 | 13.35 Mbytes
   Step          Time           Temp          Press          Volume        Density         PotEng         KinEng         TotEng    
     10667   10667          306.62492     -763.83419      12569.711      1.1020952     -52.187218      925.87251      873.68529    
     10700   10700          311.6532       1845.9832      12569.567      1.1021079     -70.701341      941.05573      870.35439    
     10800   10800          300.71694      1629.7712      12609.823      1.0985894     -47.627348      908.03302      860.40568    
     10900   10900          294.1859      -1040.9893      12684.252      1.0921431     -55.402368      888.31215      832.90978    
     11000   11000          291.42626     -936.20688      12710.841      1.0898585     -71.902018      879.97925      808.07724    
     11100   11100          296.6772      -1249.9214      12681.928      1.0923433     -41.549347      895.83478      854.28543    
     11200   11200          292.32532      2048.14        12567.834      1.1022599     -7.4290735      882.69401      875.26494    
     11300   11300          303.45157      2662.615       12462.161      1.1116065     -54.082721      916.29041      862.20769    
     11400   11400          297.28061      3307.7984      12398.1        1.1173501     -67.732827      897.65681      829.92398    
     11500   11500          288.23246     -1668.1441      12417.143      1.1156366     -41.222047      870.33538      829.11333    
     11600   11600          301.99252     -2197.4396      12448.909      1.1127897     -72.707546      911.88472      839.17717    
     11700   11700          302.26824      438.88713      12466.723      1.1111997     -54.563705      912.71725      858.15355    
     11800   11800          296.63763     -733.86954      12542.406      1.1044946     -5.386384       895.71531      890.32892    
     11900   11900          306.73675     -2208.7866      12605.618      1.098956      -31.709761      926.21021      894.50045    
     12000   12000          285.579        624.88887      12591.617      1.1001779     -44.021283      862.3231       818.30181    
     12100   12100          287.53559     -1280.7518      12546.873      1.1041013     -49.644307      868.23112      818.58682    
     12200   12200          304.56731     -1813.0969      12464.422      1.1114048     -60.232115      919.65943      859.42732    
     12300   12300          300.43316     -648.35471      12391.931      1.1179063     -45.088605      907.17612      862.08752    
     12400   12400          293.79753      1309.8313      12350.64       1.1216438     -49.124199      887.13945      838.01525    
     12500   12500          281.22141     -1872.5878      12337.809      1.1228102     -71.722165      849.16508      777.44291    
     12600   12600          293.57399      990.77961      12301.322      1.1261407     -107.24225      886.46444      779.2222     
     12700   12700          285.43964     -223.26824      12320.526      1.1243853     -46.63572       861.90227      815.26655    
     12800   12800          295.16681     -1492.793       12363.468      1.12048       -52.165419      891.27406      839.10864    
     12900   12900          303.96572     -813.44508      12403.195      1.1168911     -56.17727       917.84291      861.66564    
     13000   13000          295.79758      2295.3102      12409.533      1.1163207     -48.716641      893.17871      844.46207    
     13100   13100          282.09116     -984.83594      12412.819      1.1160252     -69.03625       851.79134      782.75509    
     13200   13200          289.34657     -2635.5787      12381.922      1.11881       -95.950858      873.69951      777.74865    
     13300   13300          287.66411      545.35831      12328.935      1.1236184     -51.297743      868.61922      817.32148    
     13400   13400          301.09532      3773.44        12292.438      1.1269545     -72.813762      909.17555      836.36179    
     13500   13500          295.25368      913.55875      12289.405      1.1272327     -57.558029      891.53637      833.97834    
     13600   13600          307.4683       1549.9402      12355.437      1.1212083     -80.429953      928.41915      847.9892     
     13700   13700          304.26144     -2465.4136      12487.372      1.1093622     -32.566724      918.73584      886.16911    
     13800   13800          310.78839     -498.6426       12618.563      1.0978286     -37.730783      938.44436      900.71357    
     13900   13900          291.58212     -6.4249288      12635.943      1.0963186     -38.928528      880.44986      841.52134    
     14000   14000          293.85011      907.26381      12545.591      1.1042141     -59.652699      887.29822      827.64552    
     14100   14100          299.9645       349.6511       12378.304      1.1191371     -70.355665      905.76097      835.40531    
     14200   14200          302.25696      1401.4465      12244.273      1.1313876     -60.439139      912.68319      852.24405    
     14300   14300          300.24706      1061.9021      12161.076      1.1391277     -51.06565       906.61419      855.54854    
     14400   14400          287.57608      1617.6843      12179.104      1.1374415     -64.369135      868.35338      803.98425    
     14500   14500          289.24629      391.92598      12242.825      1.1315214     -72.389797      873.3967       801.00691    
     14600   14600          294.39272      962.49039      12304.52       1.1258479     -43.210047      888.93664      845.72659    
     14700   14700          295.14248     -1926.9933      12376.212      1.1193262     -26.231544      891.20061      864.96907    
     14800   14800          297.23996      1405.1684      12376.315      1.1193169     -49.185254      897.53407      848.34882    
     14900   14900          297.06251      2479.5078      12386.329      1.118412      -64.628936      896.99825      832.36931    
     15000   15000          306.4965       1862.9512      12421.822      1.1152163     -91.408536      925.48474      834.0762     
     15100   15100          307.05875     -1917.5578      12453.379      1.1123904     -98.548722      927.18249      828.63377    
     15200   15200          290.10248     -250.08461      12433.348      1.1141825     -108.37933      875.98201      767.60268    
     15300   15300          289.5893       563.24566      12388.494      1.1182165     -123.73279      874.43244      750.69965    
     15400   15400          302.10394     -152.76868      12320.848      1.124356      -112.01516      912.22115      800.20599    
     15500   15500          299.7926       348.10673      12254.896      1.1304069     -85.314367      905.24191      819.92754    
     15600   15600          292.69991     -1517.0187      12235.915      1.1321605     -66.868057      883.8251       816.95705    
     15667   15667          305.45244      1930.0757      12234.894      1.1322549     -114.15701      922.33216      808.17515    
Loop time of 217.085 on 4 procs for 5000 steps with 1014 atoms

Performance: 1.990 ns/day, 12.060 hours/ns, 23.032 timesteps/s, 23.355 katom-step/s
40.5% CPU use with 4 MPI tasks x no OpenMP threads

MPI task timing breakdown:
Section |  min time  |  avg time  |  max time  |%varavg| %total
---------------------------------------------------------------
Pair    | 30.714     | 33.72      | 37.765     |  43.9 | 15.53
Bond    | 1.4195     | 1.6231     | 1.7366     |   9.5 |  0.75
Kspace  | 134.68     | 139.06     | 142.36     |  23.5 | 64.06
Neigh   | 3.1418     | 3.2043     | 3.2668     |   2.6 |  1.48
Comm    | 18.907     | 19.443     | 19.872     |   8.4 |  8.96
Output  | 0.53732    | 1.5093     | 1.8452     |  45.7 |  0.70
Modify  | 14.441     | 15.063     | 16.285     |  19.2 |  6.94
Other   |            | 3.459      |            |       |  1.59

Nlocal:          253.5 ave         262 max         244 min
Histogram: 1 0 0 0 1 0 1 0 0 1
Nghost:         6393.5 ave        6433 max        6331 min
Histogram: 1 0 0 0 0 0 1 1 0 1
Neighs:         120648 ave      129571 max      108569 min
Histogram: 1 0 0 0 1 0 0 0 1 1

Total # of neighbors = 482594
Ave neighs/atom = 475.93097
Ave special neighs/atom = 6.7613412
Neighbor list builds = 105
Dangerous builds = 0
unfix           NPT_TRACE
unfix           NPT_EQ
write_restart   ${output_restart}
write_restart   ec_dmc_3_7_libf4_1m_298K.npt.3.restart
System init for write_restart ...
PPPM initialization ...
  using 12-bit tables for long-range coulomb
  G vector (1/distance) = 0.20410877
  grid = 8 8 8
  stencil order = 5
  estimated absolute RMS force accuracy = 0.025473908
  estimated relative force accuracy = 7.6713918e-05
  using double precision FFTW3
  3d grid and FFT values/proc = 1053 128
Generated 28 of 28 mixed pair_coeff terms from arithmetic mixing rule
Total wall time: 0:03:37
