LAMMPS (22 Jul 2025 - Update 4)
# Initial NPT chunk for composition tag=ec_dmc_3_7_libf4_1m_298K
# Generated by scripts/curate_ff_md_data.py

units           real
boundary        p p p
atom_style      full
bond_style      harmonic
angle_style     harmonic
dihedral_style  opls
improper_style  cvff

pair_style      lj/cut/coul/long 12.0 12.0
pair_modify     mix arithmetic
special_bonds   lj/coul 0.0 0.0 0.5

read_data       ec_dmc_3_7_libf4_1m_298K.lmp
Reading data file ...
  triclinic box = (-0.089000009 -0.057 -0.098000005) to (22.684292 22.716292 22.675292) with tilt (0 0 0)
  1 by 2 by 2 MPI processor grid
  reading atoms ...
  1014 atoms
  scanning bonds ...
  4 = max bonds/atom
  scanning angles ...
  6 = max angles/atom
  scanning dihedrals ...
  10 = max dihedrals/atom
  scanning impropers ...
  1 = max impropers/atom
  triclinic box = (-0.089000009 -0.057 -0.098000005) to (22.684292 22.716292 22.675292) with tilt (0 0 0)
  1 by 2 by 2 MPI processor grid
  reading bonds ...
  944 bonds
  reading angles ...
  1504 angles
  reading dihedrals ...
  1452 dihedrals
  reading impropers ...
  258 impropers
Finding 1-2 1-3 1-4 neighbors ...
  special bond factors lj:    0        0        0.5     
  special bond factors coul:  0        0        0.5     
     4 = max # of 1-2 neighbors
     5 = max # of 1-3 neighbors
     9 = max # of 1-4 neighbors
    11 = max # of special neighbors
  special bonds CPU = 0.012 seconds
  read_data CPU = 0.308 seconds

# openff-interchange writes the box as triclinic with zero tilt; PPPM stalls
# indefinitely in triclinic mode on this brew LAMMPS build, but works fine
# after change_box all ortho converts the zero-tilt box to orthogonal.
change_box      all ortho
Changing box ...
  orthogonal box = (-0.089000009 -0.057 -0.098000005) to (22.684292 22.716292 22.675292)
kspace_style    pppm 1.0e-4

min_style       cg
minimize        1.0e-4 1.0e-6 10000 100000
PPPM initialization ...
  using 12-bit tables for long-range coulomb
  G vector (1/distance) = 0.20498675
  grid = 8 8 8
  stencil order = 5
  estimated absolute RMS force accuracy = 0.024620357
  estimated relative force accuracy = 7.4143474e-05
  using double precision FFTW3
  3d grid and FFT values/proc = 1053 128
Generated 28 of 28 mixed pair_coeff terms from arithmetic mixing rule
Neighbor list info ...
  update: every = 1 steps, delay = 0 steps, check = yes
  max neighbors/atom: 2000, page size: 100000
  master list distance cutoff = 14
  ghost atom cutoff = 14
  binsize = 7, bins = 4 4 4
  1 neighbor lists, perpetual/occasional/extra = 1 0 0
  (1) pair lj/cut/coul/long, perpetual
      attributes: half, newton on
      pair build: half/bin/newton
      stencil: half/bin/3d
      bin: standard
Per MPI rank memory allocation (min/avg/max) = 14.1 | 14.39 | 14.48 Mbytes
   Step          Temp          E_pair         E_mol          TotEng         Press     
         0   0              2426.7763      20029.305      22456.082      109624.88    
       667   0             -3777.6783      3109.2199     -668.45845      2063.0294    
Loop time of 57.827 on 4 procs for 667 steps with 1014 atoms

47.4% CPU use with 4 MPI tasks x no OpenMP threads

Minimization stats:
  Stopping criterion = energy tolerance
  Energy initial, next-to-last, final = 
      22456.0817121287  -668.446848216221  -668.458452427621
  Force two-norm initial, final = 6631.3769 90.469128
  Force max component initial, final = 732.94315 56.194245
  Final line search alpha, max atom move = 0.0062260933 0.34987061
  Iterations, force evaluations = 667 1342

MPI task timing breakdown:
Section |  min time  |  avg time  |  max time  |%varavg| %total
---------------------------------------------------------------
Pair    | 11.956     | 13.514     | 14.421     |  26.9 | 23.37
Bond    | 0.34296    | 0.4032     | 0.43845    |   5.7 |  0.70
Kspace  | 36.621     | 37.669     | 39.066     |  15.3 | 65.14
Neigh   | 0.3506     | 0.37431    | 0.40188    |   3.3 |  0.65
Comm    | 3.1657     | 3.3994     | 3.5916     |  10.4 |  5.88
Output  | 0          | 0          | 0          |   0.0 |  0.00
Modify  | 0          | 0          | 0          |   0.0 |  0.00
Other   |            | 2.468      |            |       |  4.27

Nlocal:          253.5 ave         264 max         233 min
Histogram: 1 0 0 0 0 0 1 0 0 2
Nghost:        6597.75 ave        6654 max        6529 min
Histogram: 1 0 1 0 0 0 0 0 0 2
Neighs:         125190 ave      129681 max      117462 min
Histogram: 1 0 0 0 0 0 0 2 0 1

Total # of neighbors = 500761
Ave neighs/atom = 493.84714
Ave special neighs/atom = 6.7613412
Neighbor list builds = 15
Dangerous builds = 0
velocity        all create 298.15 104743 dist gaussian
neighbor        2.0 bin
neigh_modify    every 1 delay 0 check yes
timestep        1.0

thermo_style    custom step time temp press vol density pe ke etotal
thermo          100
variable        tracked_temperature_K equal temp
variable        tracked_density_g_cm3 equal density
variable        tracked_volume_A3 equal vol
variable        tracked_pressure_atm equal press
fix             NPT_EQ all npt temp 298.15 298.15 100.0 iso 1.0 1.0 1000.0
fix             NPT_TRACE all ave/time 100 1 100 v_tracked_temperature_K v_tracked_density_g_cm3 v_tracked_volume_A3 v_tracked_pressure_atm file ${thermo_trace}
fix             NPT_TRACE all ave/time 100 1 100 v_tracked_temperature_K v_tracked_density_g_cm3 v_tracked_volume_A3 v_tracked_pressure_atm file npt_thermo.1.dat
run             5000
PPPM initialization ...
  using 12-bit tables for long-range coulomb
  G vector (1/distance) = 0.20498675
  grid = 8 8 8
  stencil order = 5
  estimated absolute RMS force accuracy = 0.024620357
  estimated relative force accuracy = 7.4143474e-05
  using double precision FFTW3
  3d grid and FFT values/proc = 1053 128
Generated 28 of 28 mixed pair_coeff terms from arithmetic mixing rule
Per MPI rank memory allocation (min/avg/max) = 13.36 | 13.36 | 13.36 Mbytes
   Step          Time           Temp          Press          Volume        Density         PotEng         KinEng         TotEng    
       667   667            298.15         5547.4774      11810.749      1.1729162     -668.45845      900.28199      231.82353    
       700   700            190.06382      3263.7498      11828.506      1.1711554     -312.46292      573.90921      261.44629    
       800   800            190.39611      3426.2716      12131.826      1.1418742     -213.65709      574.9126       361.25551    
       900   900            215.58883      1433.8203      12594.352      1.099939      -141.45702      650.98352      509.52649    
      1000   1000           232.01201      1826.8572      12910.997      1.0729627     -17.550353      700.57431      683.02395    
      1100   1100           267.14514      4001.5759      13147.23       1.0536835      44.310417      806.66093      850.97135    
      1200   1200           289.29952      2196.8116      13386.641      1.034839       126.42515      873.55744      999.98259    
      1300   1300           313.31819     -1492.9503      13575.433      1.0204476      147.79302      946.08326      1093.8763    
      1400   1400           322.55152     -1366.3682      13707.577      1.0106103      114.58785      973.96385      1088.5517    
      1500   1500           292.13769     -1139.3105      13827.114      1.0018735      122.92019      882.12746      1005.0476    
      1600   1600           294.12059     -3386.1286      13919.056      0.99525564     73.351898      888.11493      961.46683    
      1700   1700           292.64359      475.07513      13888.714      0.9974299      89.41507       883.65505      973.07012    
      1800   1800           301.134        1138.6619      13845.374      1.0005521      90.681269      909.29236      999.97363    
      1900   1900           296.2582      -423.0924       13817.476      1.0025723      129.56636      894.56957      1024.1359    
      2000   2000           306.91817     -4665.7571      13777.681      1.0054681      105.9124       926.75802      1032.6704    
      2100   2100           299.86321      546.35598      13677.457      1.0128359      107.81627      905.45512      1013.2714    
      2200   2200           303.49616     -42.833681      13614.114      1.0175483      69.759444      916.42504      986.18448    
      2300   2300           297.38505     -1186.3538      13573.098      1.0206232      69.455939      897.97218      967.42812    
      2400   2400           294.06667      736.04041      13498.504      1.0262633      85.108177      887.95211      973.06029    
      2500   2500           300.49295      532.34961      13464.52       1.0288535      91.957303      907.35666      999.31397    
      2600   2600           310.63456     -1333.8322      13446.382      1.0302414      81.278938      937.97987      1019.2588    
      2700   2700           294.98571     -1969.2859      13412.846      1.0328172      103.98065      890.72723      994.70787    
      2800   2800           295.55168      1784.27        13399.971      1.0338096      78.446142      892.43619      970.88234    
      2900   2900           297.06243     -2152.7631      13365.85       1.0364488      74.382756      896.99799      971.38075    
      3000   3000           293.77555      139.29916      13278.753      1.043247       98.081098      887.07308      985.15418    
      3100   3100           306.0782      -1215.9542      13210.319      1.0486514      77.941285      924.22166      1002.1629    
      3200   3200           310.61022      855.517        13172.131      1.0516916      38.367726      937.90636      976.27409    
      3300   3300           294.9189      -2925.8411      13162.16       1.0524882      39.945865      890.52549      930.47136    
      3400   3400           295.24029      2203.0975      13178.604      1.051175       28.935711      891.49593      920.43165    
      3500   3500           300.75362      1267.9393      13252.827      1.0452878      27.270465      908.14379      935.41425    
      3600   3600           302.88606      1463.1638      13281.578      1.0430251      48.414617      914.58281      962.99742    
      3700   3700           302.60283      381.00212      13271.689      1.0438023      63.489063      913.72756      977.21663    
      3800   3800           299.40496      1208.5848      13199.445      1.0495153      31.951896      904.07142      936.02331    
      3900   3900           293.86072     -2579.6211      13161.595      1.0525334      17.529724      887.33023      904.85996    
      4000   4000           295.55687     -3556.1784      13090.986      1.0582105      2.4139188      892.45187      894.86579    
      4100   4100           298.99389      410.40883      13000.164      1.0656034     -4.9819813      902.83015      897.84817    
      4200   4200           305.68216     -496.22017      12927.755      1.0715719     -2.630028       923.0258       920.39577    
      4300   4300           307.38974      2102.5776      12859.986      1.0772188      13.3514        928.18193      941.53333    
      4400   4400           303.88466      165.60612      12810.239      1.081402      -1.8068372      917.59815      915.79131    
      4500   4500           291.5988       1938.8118      12798.118      1.0824262     -19.627389      880.50025      860.87287    
      4600   4600           293.54022     -4089.0332      12806.074      1.0817538     -25.452936      886.36246      860.90953    
      4700   4700           292.93426     -105.97702      12771.759      1.0846602      8.0214897      884.53274      892.55423    
      4800   4800           304.56516     -353.54819      12746.308      1.086826       9.3133736      919.65294      928.96632    
      4900   4900           296.9357       2538.0052      12730.504      1.0881752      35.248452      896.61533      931.86379    
      5000   5000           304.32169      702.00018      12733.366      1.0879306      11.205855      918.91777      930.12362    
      5100   5100           304.23272     -79.633462      12770.736      1.084747      -11.093153      918.64914      907.55599    
      5200   5200           286.71516     -2189.1463      12756.789      1.085933       1.8234207      865.75379      867.57721    
      5300   5300           292.89609      1970.5095      12737.348      1.0875905     -13.695647      884.41749      870.72184    
      5400   5400           295.17317     -622.50508      12725.18       1.0886304     -2.0898856      891.29327      889.20339    
      5500   5500           300.83484     -2065.9562      12746.879      1.0867773      2.3740149      908.38903      910.76305    
      5600   5600           296.17319      1641.6802      12754.754      1.0861063      10.225711      894.31289      904.5386     
      5667   5667           288.71281      54.484134      12771.137      1.084713      -2.0272232      871.78581      869.75859    
Loop time of 325.309 on 4 procs for 5000 steps with 1014 atoms

Performance: 1.328 ns/day, 18.073 hours/ns, 15.370 timesteps/s, 15.585 katom-step/s
36.4% CPU use with 4 MPI tasks x no OpenMP threads

MPI task timing breakdown:
Section |  min time  |  avg time  |  max time  |%varavg| %total
---------------------------------------------------------------
Pair    | 33.298     | 35.706     | 38.852     |  36.9 | 10.98
Bond    | 1.6081     | 1.7781     | 1.9899     |  12.5 |  0.55
Kspace  | 213.14     | 216.53     | 219.12     |  16.6 | 66.56
Neigh   | 4.5423     | 4.5715     | 4.6014     |   1.2 |  1.41
Comm    | 32.008     | 32.649     | 33.285     |  10.1 | 10.04
Output  | 0.88217    | 3.0765     | 3.8821     |  72.3 |  0.95
Modify  | 24.729     | 25.908     | 28.5       |  29.9 |  7.96
Other   |            | 5.094      |            |       |  1.57

Nlocal:          253.5 ave         267 max         244 min
Histogram: 1 0 0 2 0 0 0 0 0 1
Nghost:           6224 ave        6262 max        6178 min
Histogram: 1 0 1 0 0 0 0 0 0 2
Neighs:         115583 ave      125989 max      101479 min
Histogram: 1 0 0 1 0 0 0 0 0 2

Total # of neighbors = 462332
Ave neighs/atom = 455.94872
Ave special neighs/atom = 6.7613412
Neighbor list builds = 115
Dangerous builds = 0
unfix           NPT_TRACE
unfix           NPT_EQ
write_restart   ${output_restart}
write_restart   ec_dmc_3_7_libf4_1m_298K.npt.1.restart
System init for write_restart ...
PPPM initialization ...
  using 12-bit tables for long-range coulomb
  G vector (1/distance) = 0.21175129
  grid = 9 9 9
  stencil order = 5
  estimated absolute RMS force accuracy = 0.015775496
  estimated relative force accuracy = 4.7507438e-05
  using double precision FFTW3
  3d grid and FFT values/proc = 1400 225
Generated 28 of 28 mixed pair_coeff terms from arithmetic mixing rule
Total wall time: 0:06:24
