LAMMPS (22 Jul 2025 - Update 4)
# Restart continuation NPT chunk for composition tag=ec_dmc_3_7_libf4_1m_298K
# Generated by scripts/curate_ff_md_data.py

read_restart    ${input_restart}
read_restart    ec_dmc_3_7_libf4_1m_298K.npt.1.restart
Reading restart file ...
  restart file = 22 Jul 2025, LAMMPS = 22 Jul 2025
  restoring atom style full from restart
  orthogonal box = (-0.38962731 -0.3576273 -0.39862731) to (22.984919 23.016919 22.975919)
  1 by 2 by 2 MPI processor grid
  restoring pair style lj/cut/coul/long from restart
  restoring bond style harmonic from restart
  restoring angle style harmonic from restart
  restoring dihedral style opls from restart
  restoring improper style cvff from restart
  1014 atoms
  944 bonds
  1504 angles
  1452 dihedrals
  258 impropers
Finding 1-2 1-3 1-4 neighbors ...
  special bond factors lj:    0        0        0.5     
  special bond factors coul:  0        0        0.5     
     4 = max # of 1-2 neighbors
     5 = max # of 1-3 neighbors
     9 = max # of 1-4 neighbors
    11 = max # of special neighbors
  special bonds CPU = 0.003 seconds
  read_restart CPU = 0.112 seconds
kspace_style    pppm 1.0e-4
neighbor        2.0 bin
neigh_modify    every 1 delay 0 check yes
timestep        1.0

thermo_style    custom step time temp press vol density pe ke etotal
thermo          100
variable        tracked_temperature_K equal temp
variable        tracked_density_g_cm3 equal density
variable        tracked_volume_A3 equal vol
variable        tracked_pressure_atm equal press
fix             NPT_EQ all npt temp 298.15 298.15 100.0 iso 1.0 1.0 1000.0
fix             NPT_TRACE all ave/time 100 1 100 v_tracked_temperature_K v_tracked_density_g_cm3 v_tracked_volume_A3 v_tracked_pressure_atm file ${thermo_trace}
fix             NPT_TRACE all ave/time 100 1 100 v_tracked_temperature_K v_tracked_density_g_cm3 v_tracked_volume_A3 v_tracked_pressure_atm file npt_thermo.2.dat
run             5000
PPPM initialization ...
  using 12-bit tables for long-range coulomb
  G vector (1/distance) = 0.21175129
  grid = 9 9 9
  stencil order = 5
  estimated absolute RMS force accuracy = 0.015775496
  estimated relative force accuracy = 4.7507438e-05
  using double precision FFTW3
  3d grid and FFT values/proc = 1400 225
Generated 28 of 28 mixed pair_coeff terms from arithmetic mixing rule
Neighbor list info ...
  update: every = 1 steps, delay = 0 steps, check = yes
  max neighbors/atom: 2000, page size: 100000
  master list distance cutoff = 14
  ghost atom cutoff = 14
  binsize = 7, bins = 4 4 4
  1 neighbor lists, perpetual/occasional/extra = 1 0 0
  (1) pair lj/cut/coul/long, perpetual
      attributes: half, newton on
      pair build: half/bin/newton
      stencil: half/bin/3d
      bin: standard
Per MPI rank memory allocation (min/avg/max) = 13.36 | 13.36 | 13.37 Mbytes
   Step          Time           Temp          Press          Volume        Density         PotEng         KinEng         TotEng    
      5667   5667           288.71281      53.755618      12771.137      1.084713      -1.959825       871.78581      869.82599    
      5700   5700           295.21535      4723.3664      12771.166      1.0847106     -21.53463       891.42063      869.886      
      5800   5800           304.899        671.16067      12859.018      1.0772999     -7.1593013      920.66101      913.5017     
      5900   5900           296.27286      1301.4003      12963.899      1.0685843      36.481747      894.61385      931.0956     
      6000   6000           304.87983      421.59801      13043.447      1.0620673     -5.0305631      920.6031       915.57254    
      6100   6100           296.13079     -1403.9842      13054.148      1.0611967      16.97465       894.18487      911.15952    
      6200   6200           296.3681      -158.4179       13037.07       1.0625868      24.480643      894.90142      919.38206    
      6300   6300           305.08306      160.75989      13051.056      1.0614481      52.135069      921.21679      973.35186    
      6400   6400           308.71941      1747.3717      13079.308      1.0591553      74.5963        932.19696      1006.7933    
      6500   6500           306.71706     -531.10392      13090.051      1.0582861      36.039635      926.15076      962.19039    
      6600   6600           307.38768      306.76374      13080.592      1.0590514     -6.3270485      928.17573      921.84868    
      6700   6700           304.28713     -874.73225      13054.499      1.0611682     -27.417135      918.81342      891.39628    
      6800   6800           287.45107      1465.2405      13029.859      1.0631748     -2.2997625      867.97592      865.67616    
      6900   6900           294.39237      1760.6989      13019.326      1.064035      -8.5518134      888.9356       880.38379    
      7000   7000           307.01561      1867.9579      12932.11       1.071211       0.6363523      927.05225      927.6886     
      7100   7100           307.24093     -952.27751      12841.441      1.0787745      11.55563       927.73261      939.28824    
      7200   7200           306.00158     -850.56232      12755.351      1.0860555     -14.406188      923.99032      909.58413    
      7300   7300           296.66517      2823.9667      12681.289      1.0923983     -15.330293      895.79845      880.46816    
      7400   7400           299.6352       1668.8826      12773.232      1.0845351     -28.765775      904.76663      876.00086    
      7500   7500           294.84449     -409.22456      12937.997      1.0707236     -4.2648078      890.30081      886.03601    
      7600   7600           299.13914     -792.91655      13047.144      1.0617664     -1.6410102      903.26874      901.62773    
      7700   7700           297.91003      249.75989      13085.079      1.0586882      26.946918      899.55738      926.5043     
      7800   7800           303.99193     -2464.3177      13097.417      1.0576909      41.840117      917.92206      959.76218    
      7900   7900           309.58668     -722.77329      13030.939      1.0630867      37.103364      934.81573      971.9191     
      8000   8000           291.57035     -992.38574      12899.225      1.0739419      20.001251      880.41434      900.41559    
      8100   8100           298.62196      146.71765      12753.219      1.0862371     -25.554258      901.70711      876.15285    
      8200   8200           300.40155      3176.9594      12638.493      1.0960974     -48.25092       907.08069      858.82977    
      8300   8300           297.50643      1199.6573      12659.533      1.0942757     -45.206635      898.3387       853.13207    
      8400   8400           293.78427     -3316.4861      12745.894      1.0868613     -11.342636      887.09942      875.75678    
      8500   8500           310.58945     -1106.6328      12761.903      1.0854979     -15.541042      937.84365      922.30261    
      8600   8600           308.01327      551.86994      12746.439      1.0868149     -16.93384       930.06474      913.1309     
      8700   8700           285.57613     -656.72958      12741.036      1.0872757     -2.987287       862.31441      859.32713    
      8800   8800           291.76869     -1183.875       12730.558      1.0881706     -23.583495      881.01324      857.42975    
      8900   8900           305.18749     -680.25539      12689.376      1.0917021     -53.479478      921.53213      868.05265    
      9000   9000           298.07146     -1438.7283      12578.041      1.1013654     -20.375213      900.04484      879.66963    
      9100   9100           300.26949      785.11379      12450.038      1.1126889     -22.805648      906.68192      883.87627    
      9200   9200           294.29655      237.79936      12386.596      1.1183879     -31.4652        888.64625      857.18105    
      9300   9300           292.10571      474.95896      12389.64       1.1181131     -64.381982      882.0309       817.64892    
      9400   9400           293.36892      2303.0128      12432.937      1.1142193     -93.558289      885.84522      792.28693    
      9500   9500           290.07966      2587.9473      12520.793      1.106401      -67.706763      875.91312      808.20635    
      9600   9600           302.52659      833.59603      12639.139      1.0960413     -40.193301      913.49735      873.30405    
      9700   9700           289.31993     -416.14108      12684.532      1.092119       2.8596546      873.61906      876.47872    
      9800   9800           297.13016     -1128.9993      12724.82       1.0886612     -29.015056      897.2025       868.18745    
      9900   9900           300.19466     -2853.1271      12698.842      1.0908884     -46.228195      906.45596      860.22777    
     10000   10000          299.24695     -969.61491      12597.635      1.0996523     -36.055431      903.59428      867.53885    
     10100   10100          313.29175     -1430.0287      12483.372      1.1097177     -44.327116      946.00343      901.67631    
     10200   10200          313.28125      1082.7474      12389.533      1.1181227     -51.208372      945.9717       894.76333    
     10300   10300          301.74881      2050.6308      12304.538      1.1258463     -73.99733       911.14882      837.15149    
     10400   10400          293.64196      2034.6043      12305.865      1.1257249     -80.392584      886.66969      806.2771     
     10500   10500          290.16221     -1689.8946      12396.136      1.1175271     -73.63211       876.16238      802.53027    
     10600   10600          296.41538     -1035.189       12505.964      1.1077129     -48.764931      895.0442       846.27927    
     10667   10667          306.62492     -761.91558      12569.711      1.1020952     -52.062987      925.87251      873.80953    
Loop time of 157.464 on 4 procs for 5000 steps with 1014 atoms

Performance: 2.743 ns/day, 8.748 hours/ns, 31.753 timesteps/s, 32.198 katom-step/s
47.5% CPU use with 4 MPI tasks x no OpenMP threads

MPI task timing breakdown:
Section |  min time  |  avg time  |  max time  |%varavg| %total
---------------------------------------------------------------
Pair    | 25.712     | 28.908     | 31.258     |  42.6 | 18.36
Bond    | 1.302      | 1.4302     | 1.5127     |   7.4 |  0.91
Kspace  | 98.735     | 101.33     | 104.48     |  22.6 | 64.35
Neigh   | 3.0641     | 3.1424     | 3.2234     |   4.0 |  2.00
Comm    | 11.061     | 11.35      | 11.651     |   6.4 |  7.21
Output  | 0.14346    | 0.65016    | 0.83266    |  36.3 |  0.41
Modify  | 8.4817     | 8.7241     | 9.2975     |  11.3 |  5.54
Other   |            | 1.934      |            |       |  1.23

Nlocal:          253.5 ave         258 max         247 min
Histogram: 1 0 0 0 0 1 0 0 1 1
Nghost:        6290.25 ave        6369 max        6225 min
Histogram: 1 0 1 0 0 0 1 0 0 1
Neighs:         117406 ave      127343 max      104513 min
Histogram: 1 0 0 0 1 0 0 1 0 1

Total # of neighbors = 469624
Ave neighs/atom = 463.14004
Ave special neighs/atom = 6.7613412
Neighbor list builds = 116
Dangerous builds = 0
unfix           NPT_TRACE
unfix           NPT_EQ
write_restart   ${output_restart}
write_restart   ec_dmc_3_7_libf4_1m_298K.npt.2.restart
System init for write_restart ...
PPPM initialization ...
  using 12-bit tables for long-range coulomb
  G vector (1/distance) = 0.20343537
  grid = 8 8 8
  stencil order = 5
  estimated absolute RMS force accuracy = 0.02614544
  estimated relative force accuracy = 7.8736217e-05
  using double precision FFTW3
  3d grid and FFT values/proc = 1053 128
Generated 28 of 28 mixed pair_coeff terms from arithmetic mixing rule
Total wall time: 0:02:38
